100 10 1000
1 1 0.0037302249657108687376757142834287004484786353537529532252827754324102699656366220192189284621623606858639596122254307676398641237532854981850953348182181181924350421851119187568717912694268770130459533174935641980723735705113548692737715472310692576570627470335281748418735948825993432797723
1 2 0.0079049182006786362590050873767766612517733258842719660497479906858858275195179208134659815958893382711032602819195661278646084010693856978867599015996844588435232959124295520322927918735465975978394792527003749843897836023349337796545574411230075354725097292124919051154105851687237589866345
1 3 0.010577674134518997907305685284393398656857459110812883809748586916195778284375834592444155832027150559541199855239480137878222308591524245161296636332499831229830563254662415736957630069393618725993175701674297479085207761869392576931592674882146858544568843795024976784596323538963710717795
1 4 -0.005129481024740153645423761065092644552620666302514292482693996671087912017417757099287945470215026578979737204304683404063015778374581214514756433568675086025791640477190807344533529990501293007047436350328884311867613929913801706981669547994650227591526814047264369010415077717100701786279
1 5 0.0057306589813826601435453795278085376105244030936123761692218323290486554189489397634474836469713541441668846984064231225931456662298188496087256407845709750847365209399524245242715594019154172412049059598542299738591168031294473063932079512268672840795720149634115340374687588527236042640168
1 6 -0.0014084009438577687456285407582199260822440683389584378644207558436093188042008678360180940253867064452797603670823974705638006860279046155580455705207824428442396831124912825071481255975533002488639425558960774935591948662202766949603304149131014191727369735344472067049923585277745329275981
1 7 0.0040428938688938520169532738335675057013068368314816641377184547092246509100982058961367188521120964504424169506290355505018031560268110974769324012312816404052035622026480665597738980270614133666471325471804589083528707734620272677830478876905199598822054279203726138380202826810232514216597
1 8 6.8956082366197128880112168974142145811542740217192944993493974269200556348582022225331933990196959718797265393877812296239240884613484726119298897553963881560440369624166474349059571330005711402994908010223882352857995752843854179251367599058107857200138772488142024742190373371824905817148e-05
1 9 -0.017270580656747096298112211298584720267103996696307703138657746871250348646627502650165754457484758818465724300977559309889458768175436820102306555512989987352861175759670107003698043494912523556977024686826102018334662992219877191279061065239711588156687739840335914632241012249108415287129
1 10 -0.0085897591548535336793096869730167446805086891420636898551698381611245555461691199671229662658171348420737546834675121630911746221721811276623734781086972221041132952200713193887756809444452689067753330923134384876160912264258457134354474490872644676134729704161941384750162504268019720917354
2 1 -0.01130043608221600774751831543468637322143023995549657923872163299167702602208057136269344224907841728933708009952025583004072194902029616196052997586621334200485875278756794158253158862318314540842507249331542566888007091657920614749890930788016692889489176671920716117930665866027464689656
2 2 -0.014005704361510700001565749127525733603338882231294769741395163330847565597887830511223121777376332793389414774004332221792570601667627643056950108799361364200643195289269527910676308885788329449114848154098450094218945770466388706606193322576746405365674688251509843318919011887268005667347
2 3 -0.041693736047064077294038905662102544891841938726446993058937910561063814813025788716976284977851310437478959686587231317903988137175923146685379285293907779465500847357755811487268064763243750463898188642488519694854153923417222176488181660602213692827963553176093887799054163078627787980921
2 4 -0.0036588810365448103902882891243457299587646365317022720720190419587709817089160176387362405368652215252862412152499191145430100844615486045080213134165584520059693696932995393024916361526969552595579516559690514938567391787639521135753669815178206661446026412436039989295543047855716211853675
2 5 -0.01304252275744943029521831442584273960894403788236402615970001414761020385089858688431641934320803813760404414601297571433574507801263051141157469958047042285873395737738415187568448647420086270154596946286559882468038787654823600627544712938590594845019203768939188381663153011778345988878
2 6 0.022968089820629603522557886708374619058898319172931292083482870059331622142471582677495365549026633811767425436872395551825709811389702589471561400523663996023491125256058916321734358646645373512089672335971892268615345067946220579013528471199605219444824975289309490313729181914828329766758
2 7 -0.035373043799366841106664325603249312269904766594422638980679393878550844280931087118341899655855953790348621110412287350172299168529592361652462006211003736790020077666060435013479561666371221383145541115751929797108450202053711296181284756569637084087460433610495687663108312048343822492655
2 8 -0.015644121460739676934563419021758826357106592984398562827295456749574782725805782448646713533606626183542393472338471916329677038348580252041307507692030438457195697729205316723208546074776214200986951572827080093857024451748866324863074264114397152434876023733477639946508449084407761024178
2 9 0.1111141125940796865154649401674104969602726609763438936335157115421060502157647389189804811042410196301400169458649172630260879161829496757516213645563505361581146760712046682813459644082336636225810129918530394188637630740432855946927947176550511667864768080022591346975357251160693723376
2 10 0.08985215349750701171449985025847878692147034041446285461298677234307929829272635875579274351111347401728815259402319073586279297572556710200235422511502416355483715864831398779585202798976141505134662647538885281260276904894215821037228265369736681523916400060424881058489191312072718944706
3 1 0.0097885142874483264940577815792200714506060256637783103981885800969231033549130270161464713447825944597592105346544110222274779732908345214022685614328152016617495847497643558207184286382120099853275649838971626507168617351749225121779741713031719311846910791677726979511574705226331162313928
3 2 0.013014508784418096106307814187735743676333255879398586235225521371495792228180214684644828621448178549299294801792739454652547818796333937945465609128269420558559884080089155700127495191210620136321818607705523064402413139578152472996081788238885618224402405903393275794750842983026344689883
3 3 0.03687041507035102670177693732611768031268802328031706355402084264578317254393416752263800325841838616708646691783438515015820853612649368391986872838913567996987232489912300865625444034947779978190578562530338222369912890105363222991945566569872464254916458930088767525720573715559718998954
3 4 0.0027690303036315973966250972399589527684329011205079606518613240677710740622268931381806721824377885493644484417325482077657653957690663390327919846139525280236165656350784840605248138679637785495382595573641630928679425645262034374207670231287241035716677514624534567568116654917891702344417
3 5 0.011749464751545281716316773269346249777957360356798195960929804041214748821146506455562428196407596313431986375741672822881432620367267842545546746345648931250717863701290272695889032650598737248056497792367718256718987135951240981305235430575886617442965816770505921601999603961485679958423
3 6 -0.019781450511226771269454910220713109194604835244857414682280080709492974084393927009515520164079890537352765728202550956961854800068669878944052450457890056064687892005168005645091136866171180571147051990108579802109357443884373751883277123703749402275367739606457375690178024713217150466579
3 7 0.030720870948717646686537688072098817987173672913675118162405606449406434494085933649534356191918221300671019971200759898279558156727300725921409382730519127353463694478499997932599051828761982876737736974637628585421760939634998228212109383563127613889933003514622735255355251723349549121899
3 8 0.013546989718144973542975544837255226782836120200480084949099543471456729315167029998171101262528349984719443426641741814355430026652284812131912767700941614701722902300059185457701346296493472090153736090282862255002749786169049500389696794237986222060262324334746526757278851780465724639395
3 9 -0.09738796142896389873518910546238904634055071031395964139507385633517541226203177631106659688428894189975975391195726235315755792143826312751800866236862074717201039211194338214082607863556450873386097499553394758410281473531627579975851640199241565488625558681118763417179857626571601728393
3 10 -0.078276232667034983026569780877766324115880476918937430966096025041737831763059071858134265418736860164070686736314075922979271911237597558887802747504860977639578516947971408816013763159127258975930845497471620328697159681418677989249690693019027767196932659214339000009539358093419636193954
4 1 0.0015287345303800924921928973945719098865982340554769196317925277007217314636081433239203603188344407150389047507623177830417837391641632405412623653344035447941718791653540140661659891467372931242101395659165249707345489920209841818394002537628549702145167026201466557834142481738074268160458
4 2 0.0050193589384906003907188955572370921450201747835698550495733222508236884113458466753828079449883954775339617227053039327254180111950788115807535023084332914776517919972467995651650809893912038588742113206421346226319322896728118399991386111195162485063225189668869728844023338287004846124549
4 3 0.0061228074275787721545031416595527627768423720581241236566490061012267138057889666122750850721915633238050235418964134441773009791732937311795802461342182604885649114107509089255825012455606447224808703994869366791971816580469419254844631677918743506397169868215292908167082457266406980968523
4 4 -0.0026812803541854995475133324171098615956509607110326368056647505676006441267884358669048828596896048176129537513602142390605302695645188059177411952771310309943728694377882167069557344239145390832891820666968830372699269562789984214961982467562420132481763886595396174015314072766373429831613
4 5 0.0032664386867389547747387652834402232740015581472232891564204268532073173179263800583354045505870275787923687177674460415164556138320292691211188393829100869847092611248426158757812750123373947426219503401878533125983781706398933356890555762584174212709991041830331762635810064115889262918085
4 6 -0.00064787229313421720168849445008878442447981618563035831570236561465282069114745712809567577277586262623417186623392771921813218400958480226602281432318050347953517927390765133960530780495201228350612072944579217133262191198999404848714370173357219013344568743008989442463059015881196770080591
4 7 0.002210613785165624850636196675763525722008918838773365578052784383610232507572142395002485201610326555066322381997750080949543947882410429854542464159541545156004493532046568834532478957821100034834518376232876630426424383711223540602525689459722644044294162247336746135790301462806312568299
4 8 0.00026601325829204292659285213110315117863113611686905568573327891851236475134055468390702005429932203712927526450435726913565784930991457250711629099781358881370230730867951431663586189662128893277640486404408616305692683508854654537300613311002536765303101012320703994005507400433453687319079
4 9 -0.010467115515995506814920185433931158404938705897917749773661620185569415751550075548887452935921313829897699511687984642810375365127832146341101143657567912861484561669213004193684954545940086598876216349976515703481445134062901495268659121079720255558084978528687629897664453374754407693178
4 10 -0.0054982508429261435460437293268115635520289679017078213470625603425626429495948516501179297905854005269097805741781348578003151219632583719635443406762417485123474963815092737515549791377059201908623178276466040188293721404153074934444235302559492298372449892253858488963278986260407558140828
5 1 -0.00015421594291637409521141321704453281956807361185682505897817129720088041618680413487335347687093468361063387275782515121844883429418345730955735030407424939764643999849653456175915573425338203524902207196637154883701199856562684365364654097800213593034727587536649576559403739336743729059532
5 2 0.0013019869861438019908702498375178553033472859493276329621640192055607967411763317188077722334604781085915680544224483954803251942659764079664104010872240009887150950343062790240961617259226786276841148179830790128434442813960793262865238394384850093723652411384743625771782830862436217340997
5 3 0.002608168545785490162803709017835739637608314097095590821391776381799669596833714520166242447658746472355604231508563984254536932192630474410992998867130867173389837389985965907061330670191241305229983858463493412475225756001544538668763066345034975097470981970839845376611517254178834690667
5 4 0.00085234613340778095807444377927293951927775786679646209347332171973164827086701353025048368622181681180332403374002272168402469558027190332710652629896002389354522366743367687037448346700912020887140885171646680428536694698031942390389506323627720546247988860786326486782577258248498779779665
5 5 0.00065115000950275612103988083122103402160844556407841376836442884955777462917418200730207783290583977127906438011504270437881768172127700962449019453770509512371267425585857279259788450730984981836123446547041378427437480936221717421124970760604582704137427593741900784791585731256547271827412
5 6 -0.001458274023619192372077751936598515990851337761872885930144769020361953174265419468048101742789562677063133174216467796425335153559674324794900759542770523778497142424581314739406622793476297312078626804676350838804645590381660765914505485119912879115375155341602473434757384322794589239759
5 7 0.002291906929869597773783676400781430049092968138313471361364426139021517881121047304392009586071000077612547812998719512205797568761813010870994300326801566924687495399307110683240693426594792719909559329964264592835557778681721591906012943612293643093899032904944699781321889452031746554506
5 8 0.0014549482534610483630148202631755757876221605895273414200232301726872942082959423401163359968227452638022350285989289767772024417415907981939143377281019823286524840469884573991458862136369951691574186473289375360656501895482476501412960878542241096032216800237786257015831528379570172776438
5 9 -0.0080455229625728676634707631275253845914215622953085088756941476418527428387059728103143736794193493746701830119745290519357228202263725974925932357160484887833533552382649469678678314127850848196476740084588812902669988810382806977703714636246243696346149383904557957075607088802355998651313
5 10 -0.0069609923635206102782467911850752520958906438305048210558299082269558535608173885653914027713459693907218517846188237225131639953990355409895440459848227431225842145112077105829604191132743684685074400279570122056548831870040822624743117829988872698652037607212949758129947881479680706703293
6 1 -0.0033020344210182622717235114967581613471416353399759472712451296319500380106933987708336450667888806981454232893476292434243257798427894928780507450923273884731261414933532408214090184043013719102087111494773474894027270412534360048014006819682371990780139997452659759533588587760140871004071
6 2 -0.0034118654624708898187836834603004506998469724976542800176279937652318815771408679312656409215265251282617893111033190494401078730500153306710807315790267298972037130370095874305003920260075347269614777401198215413662172483528814300862905661071325384732902690309963677530065570984829668122425
6 3 -0.010419279997988840764336384928148307401355143182573517188465517138181976769140075667883935196724445142476535254729460402877865083576726433874232706141941386530141051962169657471555427857437325222920726504140044768650892354738013604909061215127119990664744258565033629788133511475484621321983
6 4 -0.00040371596349582877092344606152170461971971885301090957929002665003621000046058340359121970750727069287793542044994943987996700481249797559272846410045958706450075484523539645322159896142619381541704912022598767971623080230076581922921642924143781655157107833844385220653190242558719456091529
6 5 -0.0034186054317184266624505028337528138311218781775616827446265432509707980722098508652968604378902858525392985113569771378854669563158345976940718836380732549980672178437292455238406239281935245001182443326655018604735769893222323598393674036650452936709359967567807550815209367813798471142467
6 6 0.0056037589956958804877538211259759678009828249190395477761225591926295623501867466969351219256952944279539104140729160692008048464310563527756997462626846568429336766341914777914458426869859627445295626784281605785452498296453853535685427701335437067841918662588632581512843110880458634898269
6 7 -0.0086554468818897584485764219746145446933323733532333521285159594663969776627343396113550284897613730148848341125317669358578977856638517697374482579065179882736693512438808336775275124030516444000842731113182572281361474360667840542233163845739761386901081738762246698637803044374894384286547
6 8 -0.003544327836198744787112366047620859920374540229047570511996922482343752780232634944727371577172312031604721062469133056518537612657946463384032509298455437631156258411813192387693348438901539723968524417682689614464110438615531970226223367063437766422677440557704911109032482507411031834585
6 9 0.026868102463142219756549173832631907349850462637715908502553832936356670505551393795344847655786253681909185962106341810116589992350352448586490341315692251440143157321388105218080605642979271308336809089990641954056593699393600981906686056624001241497179473987304700498807209623885042866759
6 10 0.021331642453571330695696845568981121021663984584260208460646548758066027556386125153637085980344272154573765535495183328086294141336015334925595311606327956762919943363079728179267693602237511335343477660374757206414962146253110979449156157652873830236901568241252696803808884909517661127319
7 1 -0.012536603493147179330138486614872331680341089945090320292002895968086540859380895436179587786998814740155036362733865263605705220040093739144619314773677295908802423831118452185612936701712894718826474652346050893127069844188762102264896707778615989021090087066627571210288170241353462605305
7 2 -0.016340301593554537918523134576849840647611767483347290428412863791479864192000426554996539951983216310265696199327072191749611030609530154909447951446751767879668896653729135764047228745288444856800857052237979597095342952534157847921799801369100516500061799632536024221991866493796000240359
7 3 -0.040286588142502845258972826997715534133944593165969342813027194319240685265711198479840117745910047305519378851317177293104553676043831189313759167343717511233237133669752385867403761947397610991957345959317215957361239101727677819631499939839101008437703962059607698772609989353406817962114
7 4 0.0017542151334160354013524903319798866656967957029195936263439711723491126898629151088500817090178203681245828719161640487832546573129931342992761946210668454810190981432064188815615288676497977946048181411429762297157927812914677136458387849309651213676630519255114756819790681575180272113561
7 5 -0.014625443885449953823907082615680542234022540489043615861070925948477988029141049106262455863165076573718321701573571933318601141061332882510522805198446677763358438245853722285688745222937808839583229195536131702051013908902853560195923521744662050364426166903993573292894908874284588647923
7 6 0.018775831846558508684629248720583618866704508882583866270189248551127460530963724745378867743664417060781674915123861325399864296932823148528192877058410599411395449404492704304994630787845127135322640139381662462174779584480259717589809542162086740107204265870133057750324026922403378405688
7 7 -0.030321542403470803314852864468602967159656037580194448460547521553437745545056017343912180980353824767417362464272111548221848394673236248465418256870506528228243634598905196670604018044722800618859024253123690766413593271766871037170772503115738081278536036492930344384794917220005694001611
7 8 -0.011613281099561416782180526061324776954445948703112258486881141512758289717646274566401870628858720182330925424381915699493930077741163898412408236420284469400474826251924291648036100567289994017007343486944192590499922908520950158980508686023396515917262592976948573886786114951222776459937
7 9 0.097836545644867374301443087519606048921366313478205048532453158349883329263985849565563325414351490034415924905747825695510652808552981376384182799352097443406202396533707855202336097225893493000153420591868096728889956733992278010254555066732638948700480212400718340914697724290947558876458
7 10 0.074500305857888720618535096614763784308157284645078503481308906861672806643246631445042679160455574549436205045919906377571117490648782296219127274060234714254040644895814021687200997381797332370625435385303728493096894246734885856644003470060644711384410499602976922302786296610378825840761
8 1 0.0057023838026494263571462001069093500839412719652441946891215648759768405840406070500117034446454456246684828903588829610719962183690941433705675879669358499990476134645992763965517835157829697348526460774881334351127457453035549975664805596815336444980568062204039012772005415001246910865172
8 2 0.0088832744793889692373491527416772907551429297357867244636947092863175910180650968999658439750764653216803886918488425158767484606480194139282691044432370803143378863585098878606387078185293118544534931007757431032942424700056751385655403026714752503688073693361736674151373408001096124652546
8 3 0.018544001464787881023531202746406938796133621976076507467889554648588372461283423307491818799374240730417469640146709465813970531380767353224306745234262867145569550721217396348415006830867771544567438622313767572231411689152126321992402983020152361941195017699720295103468201440673063333064
8 4 -0.0022901921265785886706818315899386856782392957256140154199389959823396550973654275453283662197742460836803731507961344121382517649385514593993653733695819314611321257741893918406520049343551919872283515670778077601397879991514986465245170573345233249567699336541246533114235562575551322761084
8 5 0.0073564657932186008315033781688644143963196019949057284057669363573605525286467073759261030125479126154118960855490323224708741122530633417253776082502178309324948130480689703986201346367248128398236691486257002607462040303106439372554623771705785853113393239376151352475022999994865195530987
8 6 -0.0073482341395932740811047972101764110979329228776114087821767874401973110253413593500757486572927710164431454108821905640238007125931383484212006701078313633423222462625317948246517982639783138992410118332496444730129745462275174251141224592011622178334641068187999086779176674554632440824862
8 7 0.012551981189400480893804623836267946197935059015566945228021618567039992538817407600830596152352783678160882860454076338586763018870640743709334883027532457559997253276366161866186054738903553552932043700599726974100276602321481479856183420575137791063537317160692041771161813424857888101993
8 8 0.0043990939219424806421158905862893839045132929139394619818522494327569601944222674842280844977037398336670828432219511038120125346096266446657520358092735892158414768080532644467280466881263039262955482988390075328956616292057131034179702351565913609204223409572617564054767092296738352950441
8 9 -0.042319347580648578728697884289448577923850390740112728946144239837279634217042299791438353046432298248010461254945287510920299820276755112887373417511297639094192522543001145561511901453959766208762040478349892459021549927311696575553370844775660898960316926542637617649012688051002850347051
8 10 -0.030704830257959783466478786816967823066110082195472328509280193796448312814283587656961155947189270874063681173889817427068694560754693500847304761657611066069169496029131063878988344559773077085084231531902708258467464171908825388097471860604023861346707055376957472265558454028505435081479
9 1 -0.0028972156796148511220533481721456903016871632240476954875577133411233439772733677069477024601670787573648115916395892913634758330070078707101415205789801314749736769615126053144313187307841827056145475584905269480418096884403210590650772412254646906732358242902040978172142080238879072310461
9 2 -0.003798226283536979518434930540993230047337475599815870133629357279407968102176190728002214974178567832124902919635563842855706204483290777402676082020566683435061537800014719366220921640501710594519711355483997737456007802026052948938584639226430027965418348356134720149467895988843212911273
9 3 -0.012108755017964452126449696168855441383702027600680086644111502096791714704655729931175514123800240913039061169781837136951386732225856756750414210363925927274009521881446470109474195938126739669951532191880647701219184266447414027483733809739292103872261767486439562947816411534646652692343
9 4 -0.0018642718621609898413145025936898365090992825812413844490465485896608312882028616681782411885558253753057312738524191155839992840064253993032792418033296735220173812012454418816241838569919443649366711235836508943344123542643901543755857639486337955512831027712673896420009989698260730405992
9 5 -0.0034962663698451789161421509526495071061404602204182113506874550064884724852546572576986204655654106573364536856977659379791160288106326497313904763446586510336542052720749211073930494315787361783154788608003032083858577670300967660666353281194346102331165490328456025978937629070687342248926
9 6 0.0071058698933657190604068831997169792701187903201260376326109870620297786452567405425086104490661005823311678517367719073087732724011333152803341611511169940771607011760280752209196469372643820206955319058804411138320576963934613207254350912974657205068725491277319624203004361146044170963222
9 7 -0.010776809634073964427517237876557205844983035750935026462122256408477282739389567126967057387185311742330353806556898586671538904855572833104791475417830996086635094782393797838688087079851966160715537632447939968261683296171893468890165713594642793139859777242468716065584357548090084619409
9 8 -0.0050861877993743229114964829852783985463076827960990867438819271264948585382090230905969596198874517297272536072749583125374975581963162794548669040054732789521723455342070388316012363015356586483365697314904962851205012071602422163374490489540389455476424420386951715677700947209339904150786
9 9 0.033705788233060485127188681640606030330139673228723250333547642319182140973576624014583977442715464253363660202749867898720346328576008732561018292952581535490732357879802028943980848966702641234473220807512552791848889694510000039087012821765174415817866006211535008756642051925354740799728
9 10 0.027934632327479133797808168086021824114539151471139301724720605286246800244668558183016130365493139007909523563547917470813577253731476535758978313768562909897401559256765608417872973068265934084995739069411510353444863809674250893439291580914829996571630698304268882274020441516107922963606
10 1 0.023598874087229815548344546078966320869456131225588772785870106096490308409555770852277823323075538308683801398591540614057702012019802944889035284336776914331893688063883927740475091683731591533165423521527460045000711668628704593721009139245901570594452171012456233213234124414013895054393
10 2 0.02956165293027446696185423758052816637883997011373789868660747585378470438227107882825283276286335183973057384610946246743466818921337423981555219611664174283474155969998886546070804284719277421944433367336287527656755167402723089183403898548806924634842837985716027149234316674488154500113
10 3 0.08135418020513854388748645509385720505244550266272809021329650779161923855879615523092678043365637078328312800385971008852865168996677101141661607949527258882138566496155887415585424204278132686984742555439756708405273851881487776258508380961792635892757223757507993938554563331387810036379
10 4 0.002609246155331093516708144995790043019328759966013873000187190811196783593470099258336903479568437703726704704812156115786962308828897245540967506514476629907355467221148303185294549979678590439419671164589106524916631823972914157545951117913540794366424945183599788617439940385063240552221
10 5 0.027161820302109830744436668305927074058125709465724992361375601233857402556317610510225823477883440729709497893735919832711343805341503808431380230093242907925919877419550614158646592543627348882200433903357490562310769483771138481460608596029658840154339741544680883546823667489513498160083
10 6 -0.042021733269441626470208984214552628784723343622559225642931951227384123092486068432914148631754766795232362893929058063553229149891944526649629152624192464165777845878674013713003194023569700037328037903039024984236209704013807871878198385309073686152028933118154171340768506174061853382611
10 7 0.065837679387657784110245666032771774155899024883879555035432971238939300681752165403952673117176684949982001199445036726965770177893359210575377012555117341995014780496086843057831983823394539556968917707617309371795664965605874870586634392791403097909637931013368052170902526849878940720032
10 8 0.027522610199141961387372792951172275587495102344245169722028412691860041234460976276417681173283985107538551882155200689517941641450519584780309625441665084384558346467862348718384162735841618112338302148609739098571267452001760858344678074374675964583409288593829393508859068259556880294668
10 9 -0.20867980764798615830734610112175841117926051981767470824393377035381806292516731639953376531353201269789523791343031595492404145855338825600750375593411662032482531097876677515513782689676597260308843905444248182737627070930008847398310749742490426273235118199181564894240790773118650153369
10 10 -0.16484563583800744726403891573804988699560721305543570949322411569474200156436461770023294094783684137883226159355566017676903951177810271097714160302066306608772370562835245541612906848656320465378037760337295403999572203430524100970649250006040999565515233453247509249785952032666640807168
11 1 0.0056014795214359165327083660670893126305524421725058476427316814150214249870676432023785526680066155676238376973044737679212367710379732620869216828063422686184096747340835760048832142600481274915455346608240997328491191383572225683616803367735712534255855041967843514004254047213517307622379
11 2 0.0046490741031707964660411197350678789156651641559088449286674889678443697411498085762819567568334666841098148890106861928237264165190607764747505160430944485878061028174093309047064170105991532788817068437621177340853969801514308899746111581003991740115796546529611194655746589504507987035866
11 3 0.022493790023545125842639502179308486394127903572937020187926373096704510901202745783433076379274875086981165122447004994371092188992100125188483752660338881269473679596267941533083212752682664560273795431608542736020126573678734627740951513599362608563554537389968108269710654898958662389406
11 4 0.0059198724726512175678213059577081620780823969245060474482649293739898582702305150620601210282092244778933035118583522286281414941405718633905586397609628829362409037896384975142042927313367992190578369598268583108516592837108804799580594558764671516665463141066867051641591298565040909848165
11 5 0.0054527015183002977249270460919759092463865691444542075894300820581839741482212939525955864689107110492331652534536848513661880384779524481644376515890412257862301159763810319803485905754976948253564713361404097863679437954741347189225063975774035497318105667718594130758877006147258996091874
11 6 -0.015317688155782809972299181570738793617525064446975120737776150985220794132832575145955132855660015233273916595094296418698982319641268570979556501527733491071984420513924583515808587578876950010867191323554893025264713239511396332492597513486808524724314143025591692488011289395330096317629
11 7 0.022342709248338101217695486268871750570154383202879176648049555381918744383382351690411976895428743731699478519348559738397661855674130324635462256954340049472840854295959847146822324403110280096936777902846074134119278222178806339193610088079817142976771813560919977922807301947435185893215
11 8 0.01097811863058817882310437744769584681146251866403934129342478378971825602543849243570175265644045538342366797206977495403233692439196844287183376423524401979321133581525704055402996692316001272165465399533877704516415956123429167983998877250008744849705845974116491092560801619445142545003
11 9 -0.067066769223550510877968177044966988029546391983893146866901184965571519538583424003316794686815913073695541179142794837246771347709576905289538046615984309199139524821349335211032853582643716065497177563345509207720029051987646531114049090195379571720704221376130708583202475352046059294106
11 10 -0.057752083785647186732679412397181545877881751191243699481904040922595422348983004734227409040903116271422447083704610135924534793939485811670310262082865830674688079590398660245887390166503789640909355349007115232427481241822409409817856327048674135676438325575487342945305329404092302145599
12 1 -0.011311866033425951008264597247842780259426551800516123447425383609963866507544462959430707282869274301754959802859809714750305250123394865816762835050860419759531458022382511926034631103444134176118731329585486642147335086919643045518436218848250101198745822314124372597863326646333300549395
12 2 -0.015915571451555634720925079786832368336935392879348391195653346436888866649291288210428671206906819318304355381299288549639541206666545778551949587338177890969818482043688129441489966945465163352224779977524753612083169738353401882798208510671420087694231842660967991365135575911724188808746
12 3 -0.038783935937439559933718012501987872343463230284049970418426289893723471649256843942902203554179418721247024799883186920296134528968751331937271135576861000491445843528166517358438640786189328406239152378254749443340226859716307724956460714877481510243146651564732659805663138905318780623882
12 4 0.00091623407741408663512070450441304008665628864955350108102753334712777922168696385453411143254347757558808944011150685876321650654568790686078484062247282659528621355197828142783431757657704239847420340151864623407533008566815321249696739038890940817274757490728785894822017329315638845635968
12 5 -0.013836428062260399184187880197752853338166936819250681396652308845711037108062310699115191220695232821746063257194290797158216157444399008686707277540375985397896542306526155480489627238918880947047963400229384141764897215524516942361957593001501774571481563997930803260382717557856174848964
12 6 0.018296788974476239117417750958881243898126360477378128751175010134822060430377235530032929581353384004547143585225197052454282711578839484448363452796585800527028670350611197005208554956092632810927356452879786034573802345508742918473268015893921740073270065884325933995887543099005954282961
12 7 -0.02947063965898143190130768997468491202086034451599541543714824367590990004495137722309273824746908583918770061911260146289425912226599409484074869991359470753896147062502138391339926558693975041224070099678106094320884863557805067891840507100975172461729003631714310761435225372121934449218
12 8 -0.011744558827391660068064091512346269298816629989474071141960344860306525668565883923693081476694277255085205034153852589233801997941723492105955859928453694962245758214454278314825020435013184154904641682591742279986223422669210668437409389399383212073925066712851423702329869322441883098785
12 9 0.095568988642939422569586056654429422794518301506131732441222680382673589615952818328274204341929457898771097842609111590706647157761878489812697994535198417900137357484423870877512637301575724082055390376921406492111180475819176154447910352767143365039561770586053235059359836321100726990254
12 10 0.073454598878131299700274263135878838103040345136929208959482994897718906990146952286034562304665684834650915437422944453842120423611955559919520036235094779958560575928267092588539033804586886062451983909605666798366511190698726739645543244434319705670032501435798697461848240068793970604391
13 1 -0.0037780447891239708539166658182712181092239505740525705402891140596433280262163927668298713981227139872787354277599055670112747386231434565203880079593564995288026858958672326199377230169347814678416907481060765782989242176720048120549223371091873237150841657194656223626463018356033304959119
13 2 -0.0026168343551938294917108653271866238362972704165550843829839550806359389604424274284592069342119292905798002366014869779669653393870746080788087932042519775884021479446298542983426135565925935947788000426709539501077974927476005523503878646267706164555546706758375101577220115641177401760817
13 3 -0.016006689925423461689391876303381642280745930552051653322996463124663438308436284549639807200772824005635359193531780699671483988428416004628284437449155643339929926306173903318796164193367308129989278300697409399434748058175114861240121762796090218360954419943207049298566246315712210418772
13 4 -0.0052575391920834765537312882423697694490817258048725660333785926622649470648724471010716759029594746848646097103929390642062929931122544756704183028601334235911460162511421116383595730203875338953728189436300564732516931979324763001867410894893128958041782106417889594826936030682701575545768
13 5 -0.0034690890759591004737310639322696114036453492715301096075805438193738558004651333117147373929050322049510047444282541177786554760446308841693942929692651311037946601608104231674002614191916251017212482210554579816612236063034763765672224285578059668431485036160113301453024040605573437962647
13 6 0.011607374902890123723522628255850741560218804701545302386545965671040769863110187846798117483385494351388874743616506730145734949135037089942115454311962653346908827663168759376004618071487288493100100648712572899739241408660229687515845414292639808657233516269712663306402020790348573411179
13 7 -0.01670002975028770325224665755723428263593880737779500656268868258346895348956908171296524377515321354933150512397126659701083720163768228821294228109644329350979838629316234859926917640487465031477653337937598761836252203853607001204825985917567148481323296159027313259365194263027114724303
13 8 -0.0084829858132714242233479118602033009776884218710147490028770908584377570229480557889530141371998709809265650300627266649483207871864100469768022840991371105747142353846296204601693880514952691744390560621007094358496667564655283225133858077807803566442573915097659497857182599021547052341503
13 9 0.049593823001624492570977331710201267736778471242312352733266779400478367643268539419165275590070697928219963476515402443521318926729803367651720625078281410185162881065789589806276863639408123194014696435368381967234168847013146006735442007613956971333095967259593346967757014119273729618974
13 10 0.043511651244535330556623681427541830232621242450561429100005189965498420124108190127072351009695539164771260487577276622202047300029518987064208985688563692343948504939343878797929953609889572975732173342079225714983148031455376815892679049543464389192509604504671838221403918808991095032619
14 1 -0.00037198507495018150624800294920746195201695233324692255644276780443452406124433851619172629096510266064047806635789968097027090553763639486169873963496356853670335496221745401595368740400118280387791268746977553686761422995326061413321734411563492115618065786339330827762754937762917479099232
14 2 -0.0026304467065520713870021151114624644555877780977234483336368711072943747235894391944298305796568238650287917711293668892985954376673664546727071777198637068798355433100427573101091960626886113373459205092880887292241588954789134065618186425551714497143530146684351225633656793130113769675829
14 3 -0.0017555171659274602079044556485736291488607745570477162489688692675898863172095474902920651113410983896054577701777730775328356657947286473007691999426537303919589224010336614265375114632168894982562545603391318762469321496018489201240054275141263782059107317594136184328497666104300505678948
14 4 0.0020522650816440151035100397651254427181985240481811280593799006875562527881024282876341252159668107126237998287867489248748073582685453822972779129954495485005125034337920608559464373616002984082273446884086583268891118832121286719566238052310780627163274087353312963533342979113048536219028
14 5 -0.0014781759549147822714618008317898496199960315589432196163940581404367932184839127327679095102323564330553920338352160257082740681212058548926620368636810625379839068539518391775772994249470830518018334563806182992110755959458151882213395070216073258838074917004051286110215913619106458115703
14 6 -0.00092579265514427821330655158853272204093182326655771469456345891494475157158653984065349898662570804611768058752281938170626528071906614775379720220172972133209746077661346152377782749875362746287718819736512845512948562772218141474760185605762833866590654513859936649678817337403646838730214
14 7 0.00057584980717702428592184450351059811467520310320866864088825752898519830322531281753315135730648986928684530158308638443408966461405525755197013627046808392357916151618063497704506469365223889203762435254192523741008840539896572170475423735056489982778759348146848832286372902246061746667967
14 8 0.00073764895996035553450753840474993767871153319340943572229477775035206349286627676505127827624034651042958190344693648710683353954794036546731933373103926352820101004174996307637501131136482756409969123457518822895579741977525525719263908662734852137418792827890854280382038075228677157492984
14 9 0.00065743938957672759280801409454892562980168652292660716656538260327109619449932500147566502276430698948229279809323768019804419857290095901675070658817004075876152712065254915348511209036063997152312967641798854830755957402936115875670768434115592291897421602092448157529865541760877453467022
14 10 -0.0015151286361389579380041162932755558260001380149548227206660465941606289564807309269464510197021503415354513306428154546242397241952099165804518530844433677924093033717443456855613875550296422247774814693598561269026404141706262146429729126871187383631392106565537766617377398637121912257712
15 1 -0.013174990348031786654270940918724821683345595295201740211841812494953679786227789527492114898681206807121745937851807457018142596778418322939679663414625334566111568748994768447522729332562455525077842184639136453646131808447410742353409760189497357350590528969085522239672005936865064795409
15 2 -0.015191343283603709881569193955463721070211051294551630073146657382479886645450988499922335141229180934026006585638855108566207896683002906982579406378350127356347675801194785356090921972986781756926683820452246345010586981823865038541625888474957900547755619854839241761963605494330668331616
15 3 -0.043722915813606398311188016880743954310315291359782707671930561320909157672811576622607431807598563677341934877277120537734103640377449547277974415685922696515570983612497543855478843549179714992158160868492764106351698738971602402941327091698699195300215777542402711018578160862419096196071
15 4 -0.0015570471548506957120964404657736861603478879593920325341284405015218465109590258637769198106549317611482109240503465215753675279691904081846776411360741749319755793041743145539881868207544516109202661046756903499730112768046860798936228860817099676614955617506008571838758931458167813689219
15 5 -0.01448225068076703296877427464526431310789042099009186466117379351788252644449339832960915208951421245271424163277862574240888857299526495046389912896024302257978702735276003761173368255934698174266753053377797541999522257371319493777872524017732604232336552032535756104338976499941465300179
15 6 0.022976599994779406554863627228401648737812123622210084718967727812716290817129124246579219105793047689733672450449327933579431957474011722633670042406702605747785254145422535202356512686175564916027230362124521666089354171036428264435784302415420659742807402320275333339917897765600820123013
15 7 -0.035790864515987513990792750512173850672716432748048716607872510898016944874988285887369688882864025976560288541052543586227387674786624862715476083420963073210771289505008981620597327707055225010827243766495291456800221629261566392223948745657423020716748116962490577751433827967417223131896
15 8 -0.01483974548045066093335384818097636679280354376498968425310398790035372128940698138473993165879431239432115571500519058123318313552800098747895677719163940671026805052397498222377909037757760440797898959472392156406308317745272097710653443224453814711494457349147611254567379395098623025299
15 9 0.11244480949848695441121701262292389146301339137765841316946894961053398692547580514822533074044475209225528365576002681305729132419093599309031149246311896645133011057004345321132448720510436622795610179878038430164491417840063422485111894773668045753442989153578641633677067350326576293158
15 10 0.089028303275400383174651702155337439506253131267749415330909784118429280643907700635542377865117749148404440677225117226918644600368859903318964296363934863773453943404995454239526480145690687015691489365018551611346242109366916551928519526108484364524549414246611259107170200472123479439447
16 1 0.0037420563970403977221992727285949230851082869138432836911296928407912553462746489611279947614717217577665715104939994893633932035304920369800147208633603959777809488345608364805717815683524732420788051789971376001940836376534183353059328130733290894128011700273476753946460705390541443881452
16 2 0.0059549867387985545203521745559181713308614016581593226617001288588818056878601623458268046171415842145144514758173334193635103736602238118100081190451821176904318043701505980211595827243852873801312598078028470913107095275354312605086763839051653462699422816187970772714925286555390542950012
16 3 0.010815691989441487008642229130567007824127989274741547353975577023141479780438742815486820387879699763333142145596999995859954413252368866270798955579616928007336820492475111181444570384265523174600505115565182606973343730280307246629404106156243429063974493349111122380333468104567602832746
16 4 -0.0027402846241089989039896944836548781846070949474996646727857629004414007985972701389846145702803564206708026879023092771824680594424183293057210980022787746456892798508136902539789187081980208609733780492189260489084118119669224113977960036659813037186303114857204730278027787397070521163219
16 5 0.0048268350961154735082294742993438285274699292465298213646017238478130091221739248930191361300662444620102270356559262510138869460602205511800089888077744250814038823262288268739518232052399453835022074105607971529014960178571427526902546207961363738270501338121396654030657969889732989303169
16 6 -0.0034085706055431365436110475729603434726102590032742171675249174581352704827500619199377899055300035683982598364328453046982626268693256121310254519727300889255374923878059791444115970155155877638339691587245474731011756584662367523055773869478655080773308511889521178075852511028871097971424
16 7 0.0063160013869798660221044596562683668718554915587232715170047370888680263210099089093869795851775418054530168683649912152936311812147023935864015308711681405471949831636594177237083890742150885491159636287148258343457324588299841226960337571233911552394760323265482202659488068110290647410629
16 8 0.001648781956548903021007904559258670615932541318264867572691810649594564930852854225767426310366501362644880795862355793500269129508730504458685180240742273973904426489346369579063492717008350472970297268302100069631345141821979514050124700450548685587093008784580990734674016121313230406892
16 9 -0.022174318050896325909854323699609136117004790364896872848864253953441689061850418986350944695902017859478171665524654800132695567860903854396391337690129554812491669718347341214634108758039078244961020912050177432838979894146964948678492930466572824051680189459577474744922178514414842752375
16 10 -0.014679581727023947811225884829461619870771553451324552362786027499925177316199118560086330249498315091496882491559740644327014656065633336092030495101841187934535314439967829717746222984030843491846546376290481075681659042022753908276152205699434903618304699598499093397284577822152268326647
17 1 0.009301686255683011563932737523255320757651440375193098411417592233085551710908771713397539257559915344973987593663730838992574351683689623049111611874357044953262171757999429604037503642299048823995161723912916602586425006588241184225465757124484063672548698114803351768048046495454797841141
17 2 0.013184139264276663120476618821145139689439829044247171876779480729576444976178960743316514363756629805435834564873485866990333981298334205629686806210452988847981378806671772547596358524521498939001579129944426072449507080192137910294131060508718066687182453649609077484976467037300532867827
17 3 0.031114127534423288396859310135875697539825726973151148678725267587060635195160491762077166288028991497403305848951381143436822518953638981776584424473760429446998583802718035803330487577914812311761565101370486728467628506937592815078330038191916814987356798152801550895459376889255062954647
17 4 -0.0015096016061226532345293638001178412227701246033815262030037886908385488000931390891678104845094125475706631377748573733315425165201032392197780746334397914922185769267179631470292024990947879794010051415808738865203222928195189957170781716010296781115845681006271944982017281613205531898407
17 5 0.011400102490514861944120312849510761106548447466634977534704346603804066484036833933374474571933539733549050980620591121130863926749058241114146744376701666701652940043246534192489281072651427120514824191261341364558697223888207433844541873331292552705504120077969902001100585594418052772561
17 6 -0.014155007245541077915988052255786750031317579680490869359483994079363305029439154794242463541395126110846287525520760969735738180017911560011766327646025469322001665953194180732629026599644349917548472169469703706051896203178385754101824940599987097912913679982933998362215200247240084087339
17 7 0.023061362428048855315202571301736205227108343736941613617622685450811739316072363129717544165521912892273959615832542273035700204821955760785083083732102303636554592843816348911404304358314305152678983591495011288508468881258981723398784724804995790266780777288852528117776959924039102656338
17 8 0.0089053160086918306525782926926472708387850010950622082589556065707059198964687085339022605304060170514954334220932724916270622630202012299938858278819585785124603840651601282461063370994535780825961687317624458599644789184183356633607982498046751497258831916553206641459830280849688921485932
17 9 -0.075263094005245710554085534646009428720933618148879369743425656996657755592000173468443272021101457935215550194938645362575298822069687203208910694659520756827840557978416036947346264891704633275259017546911790080011568047732114060776471587155478955984263134935522843370908649557867656014006
17 10 -0.057102501069667955942061574560786723897031640132657860084544732912026166551667063445588390915082562980625060771520384474463707595362640143057885967391002315305836952439132300590073491847181803816091625892821784929415408263945160285263403412710794043008973570362555145704347602174823733120526
18 1 0.0010070323826417492106901256921661437006209397179652226340870882228097256310200099016605292759524572823334035197405399048134645094600948810443967813681082580888249042242587244383189807271503130040991507716181975264713704786453933997086043846392277320762588462683036267518888193433395035211165
18 2 0.00038401876842594046133366716680822085533012501168169604145647762887659358399782623876310191937677260417696230097474594449267907967606614927156763099368020478027696344673493009036193174858071257093777495689823646371786954043070755070423923310524320139466594336512729674000535362228102895931819
18 3 0.0023675425815952065804608456216951388224068446687173185168524362497193208593218752565590179013252913551796219541794849650474547581098326144825239872701258066676215524817918580472256312443700089452288040075746486875485551988873697348044900791278927042463642488410335929756519620084097067595397
18 4 0.00022832248600936286601480405185610661535868988309210968698626849467190292127077003432174520575158689680412384199213342815210550820503948486325957051938082825748466647399933784830702268698401022761615459812823760646749841043606007750555551483557308065731086424850909732483097300781114660479079
18 5 0.00069034502475560121962436444793389905468523820195938467368241751948010782816212832228084953864981637320606708698379017181768945166663526996933935880880509306873014977264101004027657191385862251705248196630310668198540174294274581037755087111589788515882105401335474717702421923493486925897002
18 6 -0.0015820171683585163526520749485506082284836409736162561266242706934672434760330629372319937266875865246734774771610341280745754472387549936836549646503412516576385158933330362617506241197124076635623480042397897512299770353333307465051651013569498072687271397274805967595864850686836585438096
18 7 0.0022719824920337633150028382164290194526461192684560678884032478200626806751944945160722245422073051519336097252404573505220116633861870781107449831983969681822982807087852247751218117516036078444048467499116157198552609547686005026282270731813131134439693475544114581592316127832938572590206
18 8 0.00088462910936359696986577852006146631269731640677016459965239336535381997824986852779000623596209966325529097897830933118449599973467082292441068610580170202541635037160957882682105701570689730201410414941325069535092178164749402583442308140905741225211748382234762772500563527811111382072977
18 9 -0.0063934098178374158537478054491984962482221387472647018953490885054403682145829542514773951280263911095197379437794433450682697395788847911542495859241693294174872419605430380072719977610959584082600183526839790541873016053010213327651441523384914721924181158401803344732258460824798974821002
18 10 -0.0052757172273764381293562790173017358299630475442058151999288592753602241222413139910148587803547796299990181393249839948808901984462227691935174399916225434041385327560612148240076142909859093201721387282386135910142358450611466017153825356904131140028061890490204879690652371256621300413625
19 1 0.0090848565793445122177386653020965915343442202771303382765103413630464206490876738287130048706916225295765637584602120095311709474672781712186325981852025356996249957785729288496742787589137604456923943781580782642645211509627477600987105308841466900239294493091610890101547307781498737296537
19 2 0.013038686482167794277500384362310352011771390028798075001636863175891147377791644575999148038783874708709733272658715916813341416272532100636015598072246871800020645020961851065210973944407411115128173905505858557586860888856455400573684792196666505437613612398153114193550665429716230307577
19 3 0.030270983949722348836894685743432409340787715886802879615827676468178093159356655273789613452602295881936308035541443366426625670513706858280839223290895567579846844585438356723937623981235924179843322832473185667757499259502838782172916520716891284446623485024154348603230830301722360177566
19 4 -0.0017619361050879731941636388991178235950638847861831097634537470058574170508770382971964487339917166093210078320178857903330249634204906818501330311233149645642874460190758112150749784549249861603935363787390643119054527461017488420839531804371151959328248335894932157748057063783803777565785
19 5 0.011206819862370401284183675930190562937289762513142830676423620688716622430291287225440322070088609057456852762127873562636054227086667631777368587305879444415436860315392945967216167755332296571339157610648413082668414806595304164605275819026159648123394377076026150332372875670811479680851
19 6 -0.013534109503433868216523435064602811833004238854301693009680418035272292071055905170745712323796934803179676805392790086661965909821379160599729738363925837029923476681275113082316656648302179033827263059710800842830693731215051719708214603010648600046251629509975677747176755282207070114477
19 7 0.022175861918240971093931536874020099291614698776291708565644746090954772389932937215320900203979205465300703338782565796580496501859303217393443493929853823545669119276073765001117510295261098539748794898219931534012753413775477837576955827374838272564274315642641930262236904020660264714989
19 8 0.0084677225567580020815090180873825400335433149083674129407902859394765314178041229379341591249098923076300539005541563275495616501648198626758149942978279998282009898991221152822449878696756841917593530812614768053028448278847075513582444678580413315149856375206828140107478729198665474778018
19 9 -0.072685183615485505961158553221116053001245807902574328190392382435723133851957141848996463544312254768609403042238780040089881675833925062107341537508914017411077128138676245627380825482946424827587825370807361397278696537639466414537545516788421462740634559272587430896821486316163777804383
19 10 -0.054842815419656869478441568863286509168959848105458087508400066888842216629344591393992626688982427670098192802345057684892063578515130545486883861725811555519589265926184618007942919834820453596274124379150444484781084498037261247409735963586046666179366648008102516491566570335115350626779
20 1 -0.012589117917795811283302995057047575247690682780784783050085765539088667663381286458037117877170519198500642211970313911062615274735546102071752477749083388413185274295647415383759222561581907413630658316985462090033435720308903586413193589642238490019145119989625838852581702754048176963951
20 2 -0.019252474600817601942437740262271293280864695764766555379972201076106901225320122751483148204582913969571908068799196686167949484464744022691323392666219946645487934931061962247270605172281962684047562873796687875298087909196051051649659524271991288540505874111749671685289330891323182246427
20 3 -0.04133432445428770835206030541691234968392079150850646432133050489791174381986246824400647278436461326484189153395157219351588172752571198133809984724205669087606768547585083690924858181993006584324930943119405535294962555348131248606459419334629998971765520725940882901145165382809635550961
20 4 0.0042657107057896229552695603333566988987417388882284646327895499443195122092942483787572250903868766397101268704055489494527162848351776793808216993656790978807594225532876131789507673174187710941091703015665259915304109566247147598011366385725503756898637960476965274529607714758448364551556
20 5 -0.016056144227634500569637969417296869074359414104000075009722310001556279865822006057992569367011829515698232985361186719749296666755225560471119480045631654957576395098883494556353802676748953128981662089021238923833426976017005407576827948459414815045681741775119856988119357085652681677609
20 6 0.017138170508352261708560536823150703555191466723926255605789475444289020530238211545097044381599632373832274754849734198260386624780746050523994038843438662297733193857518717195204778681313330985283118115363366989157442855964688283555344788717407043301295697415292517856071609657009726005377
20 7 -0.028770033045611633129826632062952139680381537854466243966459020318949371941297314894349560038543056288908672987102100918718587831181263760543307599735627792336959786306028892823645674737666511052634103299491023400514092493221577173149574577784577608416234097770949417802183517656598970808419
20 8 -0.010394504931351934312355409922923349108220980658960144767328033073895077723369475515012742751198371908188793108629428925906544254004182659122300017074243296894050750559818359193149090908984624989450362725513078574518702063311645476113253171007455537385281655494703885679944698977231523012165
20 9 0.095927708553978008565571407232304353869126234757388389582490692523522050140878579739124733373860766816156260277866983756558700786165115272567482596219955843748036163316642579623158128369405272058184987347700404959721536689877197337329990558656458480509961808755743369777378863571420985232733
20 10 0.070583938408095980982901867033597780025575581755805596635938298838477512116329434990771195744931405170972739266768541947789807605251207295934496109634368145973520778936130420721094402321707506761816441584045640634721728115018173743112363871473721661516339809230305171356645044673959982758116
21 1 -0.0034230098200437613738276966747228366254180057455283913422919266200959693981005808466587514551499571714968504338914331959396620661352770239917991693027234712963428884375804350948589006199381862335335014541260919198862390785336518480856359168252085091803369717241887032268335314170547355553713
21 2 -0.002661358612915771365560790709411093883042148320271298141075419227603879318266913094219735721066255486083180386096384224904754474184873768477168870076877051955668429994057456401595615248994653516505251294815098536351063507077166296666834593796327236386281662957198831450310223602205095354054
21 3 -0.011115876816701234694798247718762844120344438092099237202888700869049094486219666380787609939185711613958124292132539959836507470569659286304024756971230883747971165592908328881320965433014980729654224357384642283757865666916763488205984693899305111827091901839628585330707252549916170080308
21 4 -0.0016864052849810875765564238910405482500213820611957594568531805497210673321733528115454027282246376207797736397097679458984318034583195762322824137614621825477024205023164509964898654590884583474737404468979684551682061991577184779623758350798725430455647132734205155577426869045880093064196
21 5 -0.0031394043872012627992474695156326644501155090394145753746806241160056682986168189217014473326943465727294826231493055698548623592253821926967655268563215417147266370283644962984665326902407212570271176446027258878273156375998056619983200615894246296378931288875580684999730995296593415418341
21 6 0.0069772233814639166148572839284608600716075333877041137795247114061447617004023557754344762425284407333954786324957171577515228562152280747478459622232134761734269902486649473084858956737380482693834594716325351915443466627472168737653571368783041334999705789358548754171446084444399726867863
21 7 -0.010333954877160995936591032294938213535871897942010960568733792749511476329880581511561552448234778463811876710213145026415714954664186267713105863793063903647112197311650933827235293625324060687849634591863371825055669799771818328384772682193910863012074682989350818812263669889227240934347
21 8 -0.0045970964975643120752451653572799055463829897293419818980632862367070445252891820094073999738539583278389824515281851374891482761803073619630929257218819301406373959837799401637420422932439606610991353388091360719234485156992047722867545021955383954819041960576470094915165500749290878533813
21 9 0.030951231171438775581003231543566951738838086809926820537372398293558012299253441678738300913534150230497879246753647399560179138891153198790130941646620107658306059920605229704564986163087107436155867218881176843590904714582167167068273604835956131557661906531781340847820882406243829892417
21 10 0.02576148641129055921848232267936542534677910797522189537388166814900925101180555154227381275997988343864846132606139370083172651215463131318195802824393921479097668998075985188042562263581613034506486124336319032655980883585949197017839753343120187938668498021751948143040032667694159394346
22 1 0.014760779217569581790460464620793716910685530355359094855102873079532512187334984459045967016621499189593119720516830020044800811162349113896599461203487025328424169128148039327967066321484840565629036216688433367763379946381845836654335528714565420076042741991845543258312334558796315882763
22 2 0.018942309115751286963745841781606402381981601116877048146647433242028146191527885898475223408262527880635351626463915367869884305367322462930860719718538805048663340781136669156340830601453660548625217279202679751753682558215012346771677780338130244809570402691780939225859644878720291161266
22 3 0.052188041337137400425545262883494624097233262294922020491218276879420822581398592911168058009501892126050041087572585183186970343456100068952628801416199924955427902505779645130597012380888094183651510351296780273752462031671296517513779866643160677535381761128340153001287069876071723614794
22 4 0.0021839426458014779625985407347554689758037138777832848332361415356987857805232033780533939276540940811361979306676197398784522051929020118253527727465475572332070941141380695012264781156412154569660730912120520126414926291704920962076194886367368725268208337878153257076946405589682672837266
22 5 0.017251995033729629182956964394090272757126644177085616670187610214938327092805513653618737725281216717318797228691689691216357394677420666697923352088421430185976898913915653345062757849051212496435028218345384280354648106382060549931805261370481503868455236127668181538273875361756413550531
22 6 -0.027157970938335950670995337189157916359243037650618727098533924299991758765597369483080033788197262805400855218924249292281487306468203062214681195370749362229666439974008822951214912801437000346613944284680741346228694253330577472648970369509223096327604448591913071541117985083399278020821
22 7 0.042478957910419630930843157078087338322214684845435886678888322595176640963016271882430045690862376562954266193152770930754438537631655711298154514870340307484323864478316043645255104122966366326236247135219460278124348213195203451967683565268745949657183126824661630147298159949155353925173
22 8 0.018012834702146975749755373550935947104461296713690693478801348332848933994665643127912220961968625928235340543025866640518978618358393776464291496447448807366979240027923577186368841658659962945952496403105724605515194895578224780722375981997271770967220217694760964079513545653826773087463
22 9 -0.13477492630241547076328334706837936178705024271505480129703213463292416156696010607867065335201664261545474868157229620644585269086427635802005900621476505411385724245718051906468102141157260653880450393608254284814004243476761279077639279398634073921242626851824478945365013315706214539013
22 10 -0.10689524356073189952084668637747327465616206219932071243976777171403667601425100938862949644125011551060677714214107404610540390678805200927897312535187021475434683871984623971813976936694226128306264251096896315547343501958560679718955587955383586316214492977469889007625313365590442702709
23 1 -0.010590856536739325308493764474490280512380300506806725509074167625964506632140928930544455433749003001563746519916191248208394172719729708167427436174618888660123777244166024408577777079722552585357649124082317163618216106669133723447091148421667372516663390368435314603518673255185296724789
23 2 -0.012987334640660748076539426765617020334658377252053728759566431081044248067824200174726851489239000126720159164864019363226804642217035260340245627449129285279726733482645025571695854940849165188618778260247815726314891678437722560356470257643478275139310889185982501715513552740499491942317
23 3 -0.037993107477281162660194088666387849405117560538827037612777520574453022456516123240478732884030459497885780004144310139971096479094618692386164210988335744939350514267352901604783719312667147857174390615348686092009081929285928368961949125378935027495125620329002103747038728913598629757725
23 4 -0.0027146820150970696584838730224566395096481302546129130328049092801034317034133989590214458670926428226278077200208328617537392015717208104394002614124730507430368971375478593996078109409419373024415482403109436002089947885283580358265454440948694744142745556188432287695000395889081543522915
23 5 -0.012110182851277673650925542836952160858304254998711458330738742227757488494043273310108129681998881999744418987632821766991908565104272779982164402030012952113905349320805544479608646513418365411854561761030814159671116336919471999315455429455705731640381950376782595386895142384501053562252
23 6 0.020626872476525966145328136649151708136304461900268804045838317744013165880524529346083470951850419495303114781301868922978208239247454141826835159275053281712031358880677742405104739797384701715461970146929967159116084712392744780435597470243098405784816131319421912413860332312407687652568
23 7 -0.031869951744016705859607869133471842819226077530613570127858860942080617595802812451162708268995172236835000405275764673037941468448769647648488540911255564000205519104899754954319837378862985735989554285676128705285734228431825344317838696492630352816881883892443941521369555009946683491533
23 8 -0.013848863705185123820355993264487126193463580237788310766507582188659968735138440335953742358382082414695554644023257547243205637794300963092520141513679882768737272862765619282207877334733685151486467958459885679736954125794654634716053285254710372782463789877613603556757371508661808743876
23 9 0.10016215389393948551084892528310370466845539656905279249322327841389089997567691149137774792587396702064187428874322096297430129637441865930970892100857599234577792601285593009008183535285047321412137357065972681068469359372980253091335477290739479090822841345889838309685310559284987925695
23 10 0.080497502504102074262984997515558133027776832857142892735815585367157692071202758907002152181458345268602694119261954602373534393061184997990454606410045536834763947237144514369874433802380386450999402331528406924042809364108896058475955655384534330530802334068371355862434805421487244978097
24 1 0.0018746996638993470166233272782380425464245998932300337266513115787117053575220126530040330564613712481311896820521294909189713655946204753604002225270885644427352372906669657325116543845494163000232369427687923708120850799286384941392921025165234580199919476105906541065147024535528829277803
24 2 0.0037672453133709763433567777525206202391535186466646767654438133969004479046182964096358209701213868771707808510832884660310742597093839466104664217935941964585213063764778028438366441603923808295567932101843896405418679305868099717017878924858318011253014365459491313134299521184894842293122
24 3 0.0045862909685425906397108993512352871319272516443083744358983352893346743528131591138173349645785543528535243842198193969678571276217594868186687553056346766146430382380006729389548666139543903205897230345269713803999748978929714959944194629801808349602622687329367598509733791471475016259685
24 4 -0.0029544293404483178865462220386777672059041583884788636828633659067645247530856790700086547080977286736597769410217725373653320101209730830270927621758264250998227949279968803946993706918973018475203159234685657250636302958457726143428632232414549643038391099048141255952031468274534130219824
24 5 0.002758610449422263145537056136564125080229615529928219684249661711453132973656327246352818163933662676770117594795019317908576717543893427180477174788255753702138692478142855297240139489624711523313865859985224464103986181888965870473648880051282671019534816163833819256572877527938543999617
24 6 -0.00013155692667916998776107119041824040456587541659247630154978746258364726911046963070955436606057521110882650909608389288350455633370435456629269198145431847477163159633153014733752214629367091294645249431236475942194136964234039675229106771474205916517829137262553531908209064832056620719867
24 7 0.0012163804345948520780782436246334230991153510683513817783928489071842822966603193243980882574989608021344981527768418741083920501369879094863253065638742369861817317025302246957061122495835733248148251863631119053045384432430525479427801809732543830497044316121724649835996865132965018723473
24 8 -0.00046725956246873632659285907766088157575369764604026170061418863610995533186846153589866847370897490019914206026830558024714492852388019503643735932125771537488063145737723317100322521775519428357400957413667890017762863496457150979389575576344726465381997906736392542579193948251347015073406
24 9 -0.0061591800846473552297636512791007579764574525890635939122884485588844292210416924998942453113619136128038636839177441979581591650150450931510083425926305305101348180468851730824973189243407573487889777079707490776908920461636990152332366909305700554139040999154577527874987242210964799421808
24 10 -0.0019964598369811281450513469988385291862307091226499893599856117873637667340909476524631493643206333525923673370470055128183906521954432286883224947114874077421155929295994214954560202076836129461288330877764819889185146205406334096222478773813071233302449059826021359252406421856123821834459
25 1 0.0086044817980160943577542110199889286401831207611040497991840575279906203255303506658528151031816911826659517901580790826377854397554600939591077333977588519702244231920592871791755794236632657054923633033753747788221285124291718662687668499526929529204558221696154111890411929409718052599521
25 2 0.012537154959925665898603377611789087349765968470945970580743904773313323466893438032141134227551752096912683938849710470324079264301070874548463232565717820520488492774807636978409863645134978898075699920680630776441615048254353432077069464114775079921399297515112630631947314047760897606459
25 3 0.027863052382559126168572760433810044055514293221387744922971643431548678225591517345452582921414190563150663981987083982387731089567370656345627309421002897902116527555160641273202635014401283505016762606640410095555900434361322435554357013767310619659280093931178466309789013327613919052472
25 4 -0.0025322120866497027471755025542499366334708869210922664233962720759477714959265403668849040563311269092101056311251063632993964701165810403092506394151530092717227771849780792723345854281765204811592324734589592537481605775599015397576531886426521252840625718827239113246434324314430129318978
25 5 0.010671005383776720004199300053104752536646052336322661772949316119955904675214306083375814837089519071782648808215453618117296681438274673439141262470113820875187678951006811964061940210511064379813183440074519937443351488092115416001685861445061960531670855036619662128763802297539239729787
25 6 -0.011883956489020174551037759148815112882805300032799143540184908441646005091159105360960645215004367987163499965932871471491124479156226871773543869590778900103424798086754736973249630571644903635482071510274288749920880341486401784272925602706397644637898344347195070706350736642467045506413
25 7 0.019759365000651532383992102755722675709541566896178540773578383929730583543535968831667487283283487215646337475848434449457073215789779438412571563590476493733353825972776673571697543400368042297617690826995318741790740090876489814383402275681521689252106353582861055048079328277290529882442
25 8 0.0072088488167313360828908114845392796088363778542352140973341898882248383929758792299901364463463182839682063091879009305981174989647301317515114367588267159855953671150920132856294845867508572189823544390324842958561633459059288408633171774364526672531967331618737676178640096436232393979228
25 9 -0.065280233287641103970491898370969509573923700569835553659276426622331063109299950039325234199471239406602322388122436373663731124598008316492623934085542158429577383674904458708622733749409989147128427419859797855300449451527272226169274359354278881405918294946818004899939255877629822184544
25 10 -0.04839642461569462883099266713298774714855758258343612006148707423815142329332993518011299485102090310715149006705393793488881588090092136101876830715033846478664802237698536424822109179185974978263849549845569757098019058119415919091858145504923458698776809817045718841634629549107266674161
26 1 0.0098021405438091699588513367383478687853953744011471411836963528927024228500533472345057042961435966117031241779609643174609799502430888615309861212382158115049224780980244516237398186414904246279551698517942170664977847347241858675428650184530537936871270101188677088145275140476992126869191
26 2 0.011834170331396419075407438277335103313296398186802567712000003718292605994291860072620825606082447813441641157150647674086957220727133163209376705244574750952194443425735791806530734630342588024612517897182961464044078040463239297161514585846987743911130072173850283479550838430677351739281
26 3 0.036545561976594532474670913910514612638920427198910612722959442812354174565054310813339326270269706829664295764589625668958576453561968052143987215006768827343453567716951093571937812940957401978170139384217304216886316805480826721353981293507280114113950992113784608910985777538924106283402
26 4 0.003829280585322129558921893293878658175672392427192627112190341693419521587501872459266020558022014872144378398930004008239055558849490754492612228610894180351882134568983249276458726902602117143594932639531174946695838380570101091312679228719258246794149160469794127688692903939407163744642
26 5 0.011183580093701622158471543063766843587289109428008117010149473049580265574470603251014231880839439544972082078907706267584977808226221333115487923082014135843318397790478083262285473857851976484006146932203731212413349095119423103043852899950159547120532537443230044764392529444219001458758
26 6 -0.020545810989754471416067910256552726926948952747353431673448998994575639827146893617064069325818550046658052258920992086454020358510739806102863756862314226306150985697818314960017984635055092062376358463828379083848428093340950167943964884504322360696555401864872027583490218435675148125277
26 7 0.031477031825368109849396585172411435471494119011723831094432333479235041396240995372862793410189215891353306287066709605593861845571977818113778943679287570822721230101735468112937673615661973750469545552774470699507029466508047332080518000805590547945435012492726683262068007639949307385872
26 8 0.01410238645112245813811753963790539318827484996095245066210969876745034876301597036749400055568224332637186318756852801792453529090322021978583890309542611117757204107830075012521179042586175167554742269001566434652925024986825489486680602371887762066535202105905057618263297591671308105435
26 9 -0.098496945719372450422549879249052871288176802062520242780446812980287115993733028940036788914885987947801987514647763039182986611453924822868367607297322520499161273849324241169330568657888782830725386855934645829504295744077175212977332923440528220699382786184423623989602274405967752921969
26 10 -0.0801753150589321060268873363067021164964598883897058036083139484271571636156547870315552121107821651737984415960072194000626187410659453338377147811194974608357258683162628361500463114240397079296659994878023380781415488617656202501452295690622170028041386957915970651084766703176319447166
27 1 0.0060933201044038518382331144580628202667621098171021471137023380853779220424625806037263616703723838382989940312350382452136854195089486232330747293147795551584752000808260533088474323449088662633854736542349516848718219011921118375178177275178665235382291689707896289250931187998907498749768
27 2 0.0081629396407574372706476759122524221639354527001001640137774595678939453994999884272696702502005590377939714675542386629373241535062214068626827562529794568528522226116539322085625558451812711459705575922392700617212055200764824296859908658624797282284060262592466229511604781659271202904778
27 3 0.021424930993511202515127918540046225060322622903002203751448641007608679615330895211632111751048387265061851806265548158657535579672357576750789184604540950648341171838121918765491940207106809278214882181178007948441478373749842615204314796971719730060881806827990433867051634944889376815594
27 4 0.00040868836744862571283796667340206390539161430854453000206059940986777144801714209917078962510803861275088480871188219551368622462464858099638532305865578329330579606949226219682098448893953055262630493053470731283873988254362339729644769960266151279473664752204545514608716657614242086769677
27 5 0.0072817507152744802864441900469074355585376508296377991650948330829061688405150920760350634862092058446464099437586697774815518349125095245907887825311404610299098163232237270165101349887753642992112104925955418281215785385215413228197546748031593668713674257816629602878967842680035512068879
27 6 -0.010759079804306165619230960625410300122394120993236249165339505833688678248522096524597732252042610217875695537187865662539813805659934923046541591637095279899832027213111155841948436322514906720458496014601704931649882591459422189641049845476208918633097067071583705315981336344179862791968
27 7 0.017011035911799406675039534787969880449967024455792367989352799892011989989306334961521394399343739990271472853135532091773433857568062443449243975964348065382462054116592552426149443397653303236404949119641547275598701709958120335466677215799515296755264288466606953230848205456086685678705
27 8 0.0070794667273733528610224101437578973048306276214294909510363975424916146487524407112817853322596994034899825044286775002667875609167534048714816517486799648669440653312151379168348194804301040051079534361668403748339483372416515451438860921784765090761751162147342546448499759711970786582397
27 9 -0.05444114300727936751493451936412644926869249837980992179320434299370882174426679406764492523522777148601952798915390431245446693827381544669150735109673319303275528322629687308128639265159578463899958120139872958879833099193744176425625827902909090434235376981589577265369870996997027647991
27 10 -0.042717696795833964619972344027530102703040057914083508038523473669777132331987497322015210165433766416886224836212280759398608288287430461500571093488208750094020297314191262715775581513304633955157473544808005980388363955233090975708999091116137273527474053598619787299154723301012089044175
28 1 0.0079332906482494487994388197734798066087627498448077778791382721446223644501716279097751851569488021670683105433956734519333960069845801235157435657375113393961046589138521703438383467440559923934634448521107615855914152895306258692670000461112252446822858350007508238701156044180319765590137
28 2 0.0075786817300305689002517105208183529904441536847987033153399438546638259096498544314821546112063642753885201234321445545795263825272315920988054998676827166356643625170603286253198124967093589640976952259164370089175717569098234337133204945445226797306911012320535758573325010646135458620547
28 3 0.031124696273766267673510024082863928806998251814152991306204427624720760670780424931548575592690583706277309043518987363408131063710211846192322160324426149362101278404518621164633029114818260430595324147535566366709749429299901116086136361315482795521774832340367852059646140242484561411684
28 4 0.006647140453527022738900290359649324024612832501277344768267284855236998819137208702831039066429950864974392307104982524007339955480761721969099398585925784758348189906337676684095498411463301484556132231086161589652428605100751421898585447180130608102705200883915467267442829666304017405292
28 5 0.0081684017834735363973059646607940374511363683969418997927814610617350882088165408214106210217491843113369116056621779604535586062440206787040581023235215674685109211838058836341844619616447506869493107951402386207502710836513515474174648872796761393913067993695094469357095687716178754191348
28 6 -0.020030604944792387629775521421326486846060205310932756526958227824186337879357406260134224121182287745759414526161648728558785287631411119946492393680267134648833040380738631018463437291844519237230913411842042914127066931197679126523879544629806221358254354170162198179708194155033806729658
28 7 0.02962665101924477407697593861960901652229381089496751935305679543889837109002405482479009211143391138030854697776703681882914438231656378055238065172741213608660114790259008491321205068786477418898160184077891973913541654989255331848378229994702467617128835728837981101320651456211322295876
28 8 0.014195078436140969443019126584237459242049343754261167912458111223954826338790108588859413453592322549792241444103705003391592306665783063695813089694589628714800338068461950353165562265012869187347774689119617953195812172571801658815991520863843000244854761189515474892712042674765850563356
28 9 -0.090005446917498827647682697891921444227267644671027334607375190399902710824531690161188780438639865411978777311470382095696911976315409723503445080788963590815859886025517275117144400209534778273787159401370249959173870771797055890793705654168491126042202084388049526056575934229249002160759
28 10 -0.076264720335598470721138414426600067442183005050748261120088606502313329429518929266679645347516284844957461552459820636606966767940354031479859810686039535357891383587850347787607421042162392679042468924118692771951933805009963803785054409673816972848006577975578548305567931840227377585931
29 1 -0.0050272420535274539099575384973138595762112328966281967854146126632601404853044710936291850310851314028617747430376613594011789348931717483211867902078973176826352406283998026993545962313473563194408998170677203149388403380551850912546735646784772856259773199595859305716606158991588611673508
29 2 -0.010637339015870855562025813991751909731502510380884950461346085484629220278537215978429636962432389238793400103579123387089355885394562174331886323346426169927441947715228138904346795234993916009146820032787175587918592189957564325741665061581333458330790585080361927476704017942195990703093
29 3 -0.012704691893210833228786098112447854388602126050199497920585543371039157043454562199966009090752946341334825167412985336844220040457872558110877335001711012215120793739940639430384460267973045235574182493734451274988635949717687167556500708272369629288061166372240784084673061106175604360231
29 4 0.0081838124754648395894448887334439841861569947686825940962137805800525467067668401513121624766446956414757442641576098269693634752685439211750725885452952801352477517754718377250799660675858632889338162923718303622154355981886118403135252260519969758522482778342867593876988944620445119946076
29 5 -0.0076625066303775842816434424901984171872118276952259785601089998277513714794556144231369118415858397462515044000215960996514907321476445458542220612757237545315748333833413401460451411344561756778019197866377711872690851299091934964078945060486107610402887452544948898317670195131671677065763
29 6 0.00031025297478569068269035695008830076946847641390124443975495878486601639252807507634199222208308465566653941794053961567112245984444245382947817384881252151866579249651114848049971405140436092695236830953378139701836635882439221287618210227594513796052686110397906270613138967482032389945653
29 7 -0.0033114044630232417497469102348084232611903351457647503596899171521473958662804925910504981919105331648697556047809890271386694142007666934706296493664982799430789148416900953169249473898038602307435202491356504780058604903946359289220433839190536057896262559411105556738381712892523934384565
29 8 0.0012629367759140666639948569538444164492439452770950816470649005823466139340193433192892545989496324454053704781439248847508435441529401208381623574624153697890093849955828894487212230203969572951320287726247988553366770200249990139418556661666252512648491355868592886878418606178651470365205
29 9 0.01707857005645607571055250299733041611535149170273377869547371210159078372364871973965483477788577644205236082910005436416201557548690391414323424882220408377380544973523424691009582006050005899791019132106755075478208835494802702064401103730737433065253748557440815952794400529391282037514
29 10 0.0055530054783517570167914254266328569761918802280980499803999031317054643232986172918863778935482494510794551495265192664558404998940362129303935474983055701609712512673514507570090697806307851869996433511614551950554564250693120428550901803358111486446332829094535790127068793155195793261695
30 1 -0.004453707267499293089908591285700651886532380011334476103074059368896704753042591449267824544082301129076303274098364650988043022373208614385948407749111008735222028649579743836418472049306948332926140408612946884791653336450102681359151695663253560334668904862050783786477893745628315031537
30 2 -0.0077879701017340512543647505686801341014691896066663223260715093355544922225344781551278228867123795834171308594106998904913044575641064442795633191033189181721028484476808910110987503258574166338766943707485276540513033670316269946241095607727058690984004166606325450763976009675383219696296
30 3 -0.010990840025891135613737550846527041072110070751802237916870713968589194526174546615386657521777381408474713570551080972854265785016221817890207952518100197344771937154512772106955670821473475915341720609007848252133457584175254408862575447851213210724825969234887032627013285147142799163437
30 4 0.0055902261237174376757871212449790008193018092063693078956966576496273049853774685888388106579411577185431370265729142866407081773873493819300081302908532595825255051416616061753087861903403326967558316486694164281510161298288456084134456934419601035794409501986378616897277476167033518328613
30 5 -0.0060006421551846972479754517443190244562394876673713577948872872993259603874243673644650260107254990568576140219835738903089892833077768995217463453771334963174913229408844640321314383329004568338905675456753246225909745855594806185087643494687577736313648303857267652385180829780950997615182
30 6 0.0015742230918241907439183542802468873053090911538971084054822958241221063621231471845626356005792576956051188345232437282776191267186086451222914492923339232894765052869855678207794285837408053148735191446628964111802245294226759380243953497471913068598264404419322536899682755704904598145414
30 7 -0.0042881333370277900118741650275591513013536515336240900547349906507862055062419730075649375404937542873464261605580056416993501912615659868681066945120815514481180286854326909025756694715628096530523414237549312420189018943258402264372989771377107927685967780065611793153110073677674490884115
30 8 0.00014869311676543868907328950733744054417813777203185910765256470820964139982635470801642177473021106138217586685918975419926357960795346089694967519980824331523188741127159449031399130758128796008568220825418524459224016720254398186002577531723624635666944945322393271093795706952196472287884
30 9 0.017494218271324588782696168544328240243856464606235258296082511879333406743133135006806570148222467088937656109860508376645820657640609063431027549344301532929255793892903977317600616312147346299582706793383595975541457877996579223524414095165672737539910818129056748372769496308396314590668
30 10 0.0083970774097291823552183323105989128995615699496103121197614315741676515375330908288855048313153450269236378343690449470568073506231979323238467409961263350301439880852305675408763272040732650577503622120523599765834940186834003049587634771788050760729862257491854229766250951613780175682292
31 1 -0.00046930579296656630093930347402571370812943155714326679571527186352225784146705719330157028547164144761910525785186589268680790048181303778194544656630026835635197399502901148740273831723581083361023608911732957448612335317682918071496656736256390389089267008583248826572652417145791767307422
31 2 -0.00021046959862860754872125393124622235136517464892000165777611684016254572215999336715470173213626331733389110748525912914426864896543310128206656726563186594787965298028098309567500594320848567925538694756358260255849176888352870685659053559606581265863752540653239480300389409620909657046048
31 3 -0.0062042990444577531305821508577573607016732452359996819980534609291163598400869335935278076840786014035153545028102018505129716777411445114328626857634294004161623090461695361431542418378034293757077887627473495717546977722803529656219278657693376989375029986865630067738802306461134202728905
31 4 -0.0042170909277915704514867318641202930376028798420497519649956889942219700357336636248865527192408488326639550275252995882903808871671627155726894249329702823895775701247583739554753618488981732263048679870248678943212366656799817358906124078250405219615785020486107974828388605441855185146875
31 5 -0.00054941734142085972962816629128262437373103663444131154305821405735493640089437745638209965797969616474078976557125037845916656992250118672127985001658999114853246198161704088866338071592601724123828052275237049736439735593200032501359263800375793876130738929345274466615334859782586755480773
31 6 0.0056687870600874548801681626956905657190813370696654101091634260920435732199635347269888535024868351838697051658164253671513860351448783876813658339568247026051560820942917034439615791356308643508856206085205826016751578657793603347723370079226868877750242263718090289819271541060826848575172
31 7 -0.0078402933365544273406448585781815771736530100132018228603082617812277779841977175332834256227251838958173178847142457847677000161938046469039866759275409419320795576768109563963389295269445521136053949960829414895375187025012384884998110457407081978211779658616721707864923081401984945416166
31 8 -0.004745487649221610935492267753118084977324569421836807391754600252440868369606198656159588255114427166664770223344370607739625967113846831578243842159447105199687084780125473924003860976478157741408097999210600205900955246230404408597086341244549018894494822390335510431828784835568552745957
31 9 0.023104279351478456540481541384915783222822310709795856750175777392157146492519508595787476932724801526483023865616636345737568312328015494798680310424625895073064609705656707280447184603366315537563815398965634275938430624151501790792544910711184088220251333930176689050487396928886186123169
31 10 0.0218250551343913129941951245306100160915827602138666107529862196564753865080102487435879468493782537857357649803055618059136662871246331724471498987453549021169768174428314697397420039997155533858728574107676842269884071417186318016115343004452484252560920870720235718781400391659997849959
32 1 0.0026053929161907507759717909742498120287871000623065622897224316411160471922796662503768644485321383784054131850119271224685076968865019148298632148372050278215849626878923178209729987534136257601590388951183663649008064565348368999521469622354017581095910932175029154834333630916139687317326
32 2 0.0047241050662721543198395097015516319552561148266749999568537102760756571145821043875101284679253401269755962219827321254478939591129245283175510609896760784218201652765807474349678293991912265895449066282376861105265821619888843040005667373917926529889412971452860739949330424217257309680137
32 3 0.0062843090788773190118831192766438153889663906394630534130391465054064605594708518782401757179353117614499792463395167523104050945666079650857271024666785423289153082328535831764853154187639437451252261046905849474169534345191851529549552034028812010747825398797989428122536616595703197063148
32 4 -0.0035899630415442823056234798949271763351448835303561553564588391807652403897024115273257262830282812241112675396889284583424369620994372888418947100866736816137058445608340964129342087835162383358629446445144709568301805927969715503494077806595900838828440390240021896806985940068439900787715
32 5 0.0035864064744943258642777714614599000615873891263860913094288918368877383448518847259105654564495077054239717420662055392284571953791042291977796973896469468854477384767828729921396846032288686039719155103098979100185446379673465422479541478937126728827887748515636989080153314252809882719484
32 6 -0.00059003607762821337096830621592690399190992881176148725223962417967470664715898053664902769228265580665484311363010940189047538275355368196542221938555196200661994963581036293935890270375691251464638945069802261762837246699482657598656733991045019201267688369115070242005467589619106043418055
32 7 0.0021116877623032940173145718056980161334590467933090282336632156583711139460657177138397512407019913162713570639218988395193053151638644863310812556356100931345730111633196608235812989952993392492302841195751955730071089569286905794052799701716833065611797339535846458051765606997381814254384
32 8 -0.00034822485374234692982773922151195920124757451832523955382415492473381413693196265733929718749046065881807367224397102189371667342817661682389891852301773231551924307711918831491754178768051948694656286163209297345816065806935845838041738419331210026508618106264152529784442324430985162554917
32 9 -0.0092799927435475713027805599882448767973078938129397604797365166734969881822370669902003823175362881845080444921973849538644604277512901103905002086618712579206406618210119092594403261653254629364109577229219119466125396062920417728822792929456239367669448745303162221621657553834820104133856
32 10 -0.0038488182766104200814116067653641772723570579736394944258059595193206974309565258997938190082754397121554129431703623353894867296063795199923006947885402174325837381878155403516454857480952770542736702644117981567969800635348372897513718020854886598223354028873199556877985720176345437662824
33 1 0.011118094803475812383083678133461758585155869215096527643426020021403511663567498649792026392134136320544802726089239827532592809433063898602950634598098840328772775396746472962134524929728600830496570869486913850932380439492306283159486331714278016846959851490076523500830761472964511616372
33 2 0.014174920881433924023365106729928960911359110564414857069963225728313762533125198765808416679294512687056336373914245427123196279907398241663403179543706596816477643285753671915023591057217333229161018490796612274410564020953277449805811545418739345635179713538462034673985424192722383697205
33 3 0.036716862614545381727069544689040133164309946298606019812294313383644271051894710141389603550874720024124612301356646715576707360575582066123955411576450182112978192431390056470581611401213662202757915248482467400053591473406243920575683052230002105191370827480912351567838370550192737222248
33 4 -0.00039455294269820099779698164361836667636880167450910056153957386642344170050420491161762337061389128194298556664537331131192883912370404860994460180673074922612184782196740068922577071457558871172261127854017696515744506391150491748921317257197828486970161031175920161088519215310243242858611
33 5 0.01286268050216729828600922014948643019463402871828959812414799877903636988317104629839498176891439864915960765875972970296742376707092926993581098255969532763511358643024847553639657622879608032118919372068170745095458039780878653388252871849943716312092661989764324706900550830903542494139
33 6 -0.017895750025958104387898821782656305433163447711744137339456342080859691481066934461940118775607157920608117718550958947709839637914214370855111304078246090999248570358724733818401557141648124661239326239319987196244335032670732954331645996827846284303090620877932999084562440274561364953636
33 7 0.028524741173681833152632221166779837931880613772544658333975610022152852372554087462551327702117105813559859878703419016776160014379323630166219810712858050797743474653922642447429095227363817962325753226524322767711172341705643639724650120810422149276626564815117860746312129297879883790478
33 8 0.011366112577159796596407366632579293919572812148378730067150395825935042732775660613388682277242017828189795836587686435390816639019981131922503263266688876870043521938494008468120050751364727517332618216395110778556921846939484646848541394253851433557708605719437428673091795799201830623112
33 9 -0.09132272580895714905519558382404472034345526497839255436480844397144046485816190163203747673865473208455264967922428238076342411440035220452433060550702923545005258504792928047388479810859268448716359141758609398372995592799486637935477255128915440180750543839102099499727273846065575424389
33 10 -0.070679450731580897083358906788843623883227833600797268614670841133237968436027300612640849271722592682081686523110176491561710606750398258373975166481515853634321865317652605417071248600352489892630118026582232160315361972755140361955215176700330517495214553785358311111789720670037560828819
34 1 0.0032317453681978265303054876999590752365524547157044757892387826242595214067315156265513946333704948090672212830314452730810096074352987561870546800389995123357799946302285563291907925189886790358423616720784168021642170245497925697310845327775231400857190831766398783467983655459484374727147
34 2 0.0042709629858977049919097036118324445890198182858022376700392551380560703993573948548033096466137827780791161334816381247744802484657896540948800216223902467503208206745547515680710285798091401109104006805762962627447267084400722706480518237272469999690336983852485339258138141535706349782097
34 3 0.010281437081102804809817595122027040700068858419602912528255192975118708462945175896784471300666189887488669234725677696766142209385455087157775476117949916340597781924970789421540235076057261513701407553791500792607883167127599415064173341625618085240329162592509890547607175905836081474701
34 4 -0.00059483901814000028515112041424837857164185459291111896987984683976247884069859024518002946623626327087057627745097793779874955542627360363283548656446906131925175052395754998311008159621668411408017219774099309951082808218931992203153845382495928959987706356351426284033576701698654184641491
34 5 0.0037871678422149552686962588691275227815702190580137914069483810149821501830461733899393849976426673575685628739184701104625825458986930755328034816855832063586319463470399246089876371536020365673736104010663381204844377293034055485718072454371431889933920615346179338020883592311700071995337
34 6 -0.0047119751916851519690696455299130515847573973966429333602471248193236808955277723162771985875159791210766545513013492861395450552653306429135845779152562117332404773685901297626438897228844581349708042011927571794076541194510027087229276040456206454824304349685895878436111456703980576223709
34 7 0.0076381456108350181170369941841473279804053850862224428112640379480600358107952033770906471510258825568897426383546489156336844457580341159431792492912465193745342652780582126119596867482530292221492295507226521716736876128191111463196848781530247346600087036251599259369947049253618072370122
34 8 0.0028738263052993307395671416172916999523440441797088111585686923789767641836590308311429800029514764338093047152736487512205512410096917846354079036806869212233302334134873412160168359139209089505197763180223826058349481518155136229546218870227862179932001545155497999987549692449399344311791
34 9 -0.024717236366251785499373900731697963416092592101749731531625795198881844493436647270647415949674571048366728764916906673909693394477853611810397521931122744555350315836852575900827137574932873412100123999355368500963164235631729846261718712546715476766145967803182885141847484424893031911031
34 10 -0.01869474240564648839705780038901786423286433948529189630713564135052158536642980604465445529417766409883208277280443619851414214050045368543363355743350656728231506707364465389795104493710402574025430489833338712878663557053862279656705480501059962354706667530876262192355508150305948384685
35 1 0.0074423518815191839006282676517320243024329443924149522898275668917425172121622877841205530110614509854726118678209005497785821323387545876416479430398952688649506938796514105153888028575025458883112368179321777908172459639592835797774859797383646303406731186999941107497612906789168698723241
35 2 0.0090719355039091230749171931709551339846485446828450742425567705813689791695729039168718003436022445432998517756112691781953038595801851427005438622361017427632410318784723617695697380000824269339258507097570365458205471009589298296925346393843301804185379462621296345630830029139488604763178
35 3 0.024790734166029558772399132013168847590252196757721226730729262812799867817504920971612745759720480676352522508163494683852191307381828837773487245108317973859312633309851837338280176080985179475017907550092724327227742833652886138493198319514218985542999310997975183174911293488192933168642
35 4 0.00038633165165178492153698145674409798340930936501326658725111525265387790581516182718206796131915488191058903738377789478566079191081597766179573063303672884902779206787333534934270496679853098263176574564347032371125752498121377686567288630981431634273945729142744857859521967711309461347857
35 5 0.0084201929585117281482766184535520464168066597702171222865067612888861962081323190900593116862749723187868741114001889229848338069992071719779229856044990293707082144192057858724049046646192451327850483355371671087469212429789939053347782236756737588580970695794478587481162509304392888227986
35 6 -0.012582731849993410273435995127638789066077173641645207652471057210707468483105686417556050256753358038630584229862958558202818408640582150340050907368224900243976504459007247375958150964102221384847201249593666244324404917801037125651432928586960411180533838514838653772284192950225075138275
35 7 0.019812217540959573367921492428949851483025627062211171257609135898323753500568238224444355703599108320540010029815383687109072917243588310941568440439371169369421038977041008214059271454698775092593519268988100216612698933567479396227442716775501892934289427775794182074769866337706172689378
35 8 0.0080940893273024295311712078240759284075514092059166537518183987017527001910003082328583274472423803751417790345462713291248807773720885684814602227150334609939810752081656791011543382116360305814885206246224768673296239302352599762765865045443981761488192111012214875015757311025773246733871
35 9 -0.062841503360645183978510651105980366518429120686423976619027801735750881174113517715980566946273009416220122820691834064895208902120102220565036725019767278489140173427034397958409494560899373967493027599464664463698631301349026241692108289202118895542333124120681723056715326488674213655137
35 10 -0.049265685037050429031920783164507310155366985864168441850942475473246118179707049031448016240207197264700947413390903180616205353983486717772883544963926267849134616785402457207552762012632082898912413508581677815694948799826342308458331461596409230352812534964604256379274238135044313280801
36 1 0.0016314733291961393001371101032592144619262011402599287394804569869366913332420803779185936684273532765056778028891563092865176538422721341568487116388159748500796560848660724159068914795168581346529643426936779151468002452488442125240343384967133155348249276852741352839177017356064699562694
36 2 0.006058680403289148345532944085538448708773177006148090245445926527177391390174992182960564710733842456735678102298644510766389878423284482030028716037447414816502508166758943543394734025135577960511734979203231552344419329273778046620988089297297627703105352849642417712652150726518276357012
36 3 0.0025253068956795690084688152459200028912165606853896143348165813117792682344340177906874277639727512843168823936226989708188680807207534873884759592548526121600852460485962321008683485661679762852528989307509103907170444533292385694860126930014908426047342488068201728340412036263834093577018
36 4 -0.0069574624049212581243038377279796606166092807727354913093150633032788664036106673419501885307053536973909904509332423488148408176466195860003319438585170160269728468571328732449082004719447948171799522893443838618567982950859430794675197929154422754947946741282458802932611183747268543841995
36 5 0.003668730252735290595839600669760410456553460664492936992091389241932596608290503042476125174919620663155679641781406245824069912481152075052852183918724633731992948000545643444304526598524404751089493024720195614769641684655718468046826382927110387130373736667653663462119275385953068638047
36 6 0.0039817301308426858391941306438610382142032393909599402888625591941527802153210911082384726036719329451416404632496843036826094404035650352069393995227581407329786315743241310992067417207028150818924180695014094352041229228863650267664637678530840216933589963094125179624046590332544485213321
36 7 -0.0038172509299693385686629793461542248798876260297722497485367027722765043088662174559263816008312050118447806420485388382143367203254237745481662178035799608541046713606990587542462815108855290818068651333228391732879164389851903020014969454098216064826931024051486223034249684967924484541267
36 8 -0.0036996037427795952670186891081619739994305793689244208593437683575213435407695170070839993365636137535898213527800377789242142567045492028933086472478188650608311530779450143256785700156100225287040706050662495986864695853865690897690726782435638478799850449203253185457227570918254256518472
36 9 0.0062664358999714377760048589392174325846776463669596195897781909892349601622860194025408378989992467874143315543176370909426321082954256109772823031259590815161165132218881770774434719596337656427420467124114978255883943348133805405023546477621612709893418508986358358393051241190471976868026
36 10 0.011517253385943427011275620424979803063865518831842120097348137375891783549921072649144222250496912108729716356381764275858039909845436772295913366967695383030942940980994842786405457090330152550005979460101114484364884336144845759418345925604369844229476542835667497154837819045746104292852
37 1 0.0020779029470255041851235830881670089781019718249762688397873657590780907955417462118140221764451140957874656221709654230836342432313043088808368438171097930419832130094033503531758269477304230976204216248372827556557448602557074168001189210921102807000237211511780015763260600691742280573022
37 2 0.0032434054863646734663037205195662874717606852254479230808243688221534497994314994865379291499983392045811401810958640944858841929705224515755659125450085012750385648721162037709840202697551331028047431874034330200990362908091055863156622933515936504879120620487515906888405000367185170784905
37 3 0.0064726388102229763540069065310862457722099894608739412440895498698811231842544599687366275335614652806636342077311742428070318058443846842549789791248802834432911633511701017213132736402261366832141877841784174966450401723066940328856376732447077072114223106552165897751700503143430507304316
37 4 -0.001058424789991083942789103905150826169298462760578207815400003488198276203149488540409730714115572914094126923461364525836741996877678788231343879850585149310605722124324478708169131756206992106065641373707007480977797623723006797316471419028628930876674210467640871309883643506034963079271
37 5 0.0026645111914922885220552947638558559036208309310206384657890379955710353715413815053549235354618946415243027467276581464937003457064359726715990348120151299322738099932516519101233707244379501494194967367237371225217315172707004432173266378193350359760426857690560087289068868195385733659581
37 6 -0.0024444751392300914908741773649207262730944270138629596719017972314863635610664391324167341294105408968112425210654503174165029166070184006586070281794587169274363217941139366213313454322781165183444077596905062476474149200684141973985718131664649790902665753666401288856024386771808390618742
37 7 0.0042286418495905457085501503448044485812114428955245729476879253803038838763134357686926341067860132786948657382894193619085163891248737752495274249870988198214860759090587792547942788834824970914457422214413440566109040092254701664668034934845335461259863156652231112302688524034296378330423
37 8 0.001377157986090598594032478735130035458676611120375021214823364717741744385022218635610053454294060327697237470387085106457208614429766621111967146492698052572385509812004933225105796548764553845304610300838917567603832679210763935612564248055200615616538121827323996476534054238891298362919
37 9 -0.014328922356091681206383876223531196654837747354160766364254942294062567186135621998578317430718759959694252498082820117850870254165883056345656473166581790133227115116692894063685409465293674085411228379360721409323616540702130215784561773239092034745221996234307898038556611573105644680686
37 10 -0.01016524421925821823257766338762683599767905264750928060147565991142517762171473129821177188739561924315678166156881635448239515080687155946721184625597765581489875773669788279985289777155445951412920303565871345113723484678823533620260854548810327602193005063790746110411196702880168769845
38 1 -0.00046835175084783983100702823312166865300122486694419943341406902411153319255475428980828656864382698070831308997756212148498064637223971282106286248391709599885584505209239045623859229472234273757842101686653933089984608366722115756640079149643041366638528296997082915609471668064420559135606
38 2 -0.00064423103807270498871803652744764053713425514357385870879780978949372502538694257267066135590047156750746102417851545029321398289444962936208600673150594824371420003873355024545527286557295919609621528234110195699227835793468196046750987579190881232463826386120421519735970690856335263849775
38 3 -0.0014053435335485797233335020249601243402755448084026055514378852527497524800668930808880815143808034975347197977552953847715710757075265296774049912283796299526763104457554906654091845930278269197223942245828435196444900956647901683263927849218828819745138932496851048539162867342180671120418
38 4 0.00017605101783928328227389208410114530580528863339030238683132351526443303541258092598301487107111413477540164837560962997283558975119164350395215663583535847443208607389989783744262032235248521160594826916181337943351993770856331843179641928159127669832810844931935421950827946636149922542977
38 5 -0.00055246079776228365324369135719876102664780305911973102253717876125739666851004488947651274191785887300071522919196781767350215096060325231675317318859225252161294515422774738168605885032940717765297439504852276196611460638722392889894966507847574639979823229262129357103535232056627639397792
38 6 0.00060183505483441060190266772752351461168220578087472298302457569473568443877234772490028128611590784933200456342588678297512787412050045833795718015812299469931881345473535467882059528147336433999283751284489840064781991401676799215536486240410515507251050583499301711149854257205386828070719
38 7 -0.00098771390252615182323580982763545661860776431178082459575298715030073237913059888222939392167536130019264847780017312012113115349363833042826863084917646446487683711023386387639527020701339011920777805743139841728914885431881094684398535465823993815383114569619526711431350512759638937829078
38 8 -0.00033653749735433595875373685714673558693020985705928777268510520316836208498095584401457215271821270557771733521855774604674701926384676830792548377900673537681101673713333057172103913746404665406088906777750553197066162196037469367473168748528174716335049827470076856335867695189420912586012
38 9 0.0032203079301394936713995144122097455975145144521973286154344898388711721917791357691320723947945473038176673291234650719046318860163227212097330902618136665886399105882962837561476596125614451900883155148468222651452920375362565432579737846053855984760019693985723421776444789532905548762629
38 10 0.0023585275440493371518155159639131224245237446610121119230195188192183397062178256914681001604442819996620869764736743383232976091504448498912523579870062027762506587211836935680885516473121448474415074603526340604110484081506955568778192216417958479467476989760930139538719304153920046350915
39 1 0.015927751149344787567133498260086501157418273695001312711134961161581082737503429670717334127760569030371723766831520261764017909386219680623606690639489875368748644967717558856136267198392063261813211825432883777101092439981983396495165922967593111449750605530545738886090012796964848934951
39 2 0.021099869724158621576355108143452270444017131945008107382407827861961997473503941595408780154152617743100322792754524141367563290898611437141397909135238988856889550993348608289024668668309997367689957736174592396840010776577490851054248121805318044678673410455503777558400420116129344172648
39 3 0.053145491369830914863032079874260795814187026166952561918305165364205321119340679815692659425623545852221158947346698968929219372095843325006200750638175939249660814975206988024354680364800528009740069798280539202997696088001612992564871153646640594080954872283457117180658576347182193958421
39 4 -0.00099084015058831557669374500884862248675379632921882019032524058545787878087705310172765240841816793013321300741004991341953448875061255617440164288711103313464877653112771214303162203811156075557461659941376336199790708156434419092238782340406795345711124694281386081411389484735341239947175
39 5 0.018802568369757051188845416280266352624803142124722827134503353161163838655367942960710496981235849537473853440833765021886606147854196674976438110292893568304196160874185605269403756917816609875433191978626759296510935475674339714013012224934901008525501555133677332958225976593956484118632
39 6 -0.025543272100179667963102839461654591427673335122882845011780588820883676484707614111490251368688824054029506351104132269806664828079172006611719717527397203087488376425908356813017027207030105268619328370107003717772626582376172917722902932638074498659086527627179468113620141213368654036886
39 7 0.040869681004668491627133076446774165519692547398508694905287569744214890191382113804359913596773584687754563422827985112497726472912686458939508475572794632258943543319536805277610646777785117480796304583673908235377611623268386799473535991310636933292578911398737372929114473246627780593896
39 8 0.016224582605533169275247021511980096823370316167617779994542287248602312988895816546021472058235736054777848494925698754444381023637214320258620502697435143150008936456333459433220510380438640260846080293493992866484606365283022541893695920898859452649261814754235047548550931614491533714606
39 9 -0.13146379096861253152221190489661749387856997656979573479736911813998652100565804436634298699442004271678186423444847807877671944660883256347891234179852242269650348226977143018407438225152177567116707209811796251494357168800803984677031353802736080655892816904311640319218953175246652714167
39 10 -0.10137010665351345717739798347513754807357419553582863533224775953409006742291719944625763080044574757681018368014891082447351000573929843721301975411839796773464238830058985748429902769134034208217308038256332438959449961720547700690414492106429720032989962719062476562115509716807299354639
40 1 0.014870682240593578246432073346398229616120049368290909728800232639335814338984745120780384771209586058318646277162833416953206326259829705130723156488048129022759290918463445152159389804405616281078347963501571569574933235054233321760808169998444241131110341512467444797332290752575279301137
40 2 0.020525082956145004849956688756180732604629921425589417962220153792135896060645099064070334754908735752306263771106347685102443232301044635155482550531730707620691606262903504614717214744507541252616880508153254015614437948487094556318554439762844879349865904276152190188622573897435459293397
40 3 0.049484434337760238038354109840960141458459514429934939148504142977887451653437292840741215536778701093008890836324920620923514827715559226740370834219753856333428123970700664693530687974920370265855040096233604731020021055954580483929961968598653372085670092606033848295964205889586905213697
40 4 -0.0020037447503698305537992617656204213542189714930468815745646954741321766918146862730223579650520058260136384380907871635554070915866245395882557165094583934746673240691344972282082579408753620252966778644497059811907051524068965831968232840599364341659955961019208427952686204294282418051265
40 5 0.017958205520940558747943571505946319211468837381031332587257460366068922828789723369119725626237764313470281023786948912046942649932486909260814012281927824352378476473308772371951628122621435683915050213821213800646775460919300003629349256573165926299369281066274011841385152953811431730166
40 6 -0.022857408770088420066719472785426027174786596499463106470158812938633313175207711192312839551509116247932866850785455899878231380401341098452396854485711142972403019815578617289522118117291819202226605234197350815378474976739892122452244943679737114842667235134728986236557672820088981517382
40 7 0.037059954844704214705747403202536110031023883344758922833256435000899041148325138874699845848556443979078874796386188269876840712321992167216040915575119805454230261287154500974491588158289921775544015478774559876314983170381613846460068253297310381185899177354673711131464420847471869671312
40 8 0.014399407168121208732410306298192830208610140856631562841583855295676455779040671883152765099797559785443768280236165283990824469981428820666572766550937999950905418075411322369082638516854287126050916133882588024926856127036432318195606498261407842227200010510392858220891444329356631254818
40 9 -0.12040983664258231828091757349004795889107371459732947939544275520552012118982662210132998887931767339741105965897058673975871971274440847627157831049348356355251542907350130710398731556629181839307045256984093744829215285748478042629561544494354481608978392780728855914666919014809459924238
40 10 -0.091746292799190229915709297768775354430357169998282295479644156176899075516739981143249114229929986801400981035814974525357090515357495602280544811771573348203230392324917738333001280808339954415871167643922522792939207887069857301487658863754555936124348168690770507971390759194316477073604
41 1 0.016864610862779903683526200217844602013464513654193020059790037874478497165427750630555188724416103827049196468068050564331374706933059739948226688920490492804971795901306199752093726227501117539507236236553984465058158188252447872362865404483812941902068377454168995608546912802764119973346
41 2 0.022709519172564947652511284418672192221256573746468628415393858684130647310524674083299785246257621098283528361798178803353071220034405298732685988112756498985583567464113452646305834054838455635269406539246433423938388039764777331557577942243217025695604595085791017469456822379391283801443
41 3 0.056199045906291341358761512702422688049416679455597776830463818984649243977830626462269710578654788094331500840016766364904762114221297684027442026511645305891940308881624719455978236250109130948938371994553190587803513110900798071488822514366600693761133951094585201832936372843778868180582
41 4 -0.0015210195993996585087038410757665770242022733529695065893581751172064976820905206609669771626745057231037594219196712316238951980946586112283468408292718461199993524903815752616149809801630157439495509893600319902979475807614265352603786261884329543088688600902603117787074120155599285400149
41 5 0.02008274716526671357106116181930107978814421128013290263500295923978956779175097030739410407616826142928921869394490055851118298671094951223172480967924942223904114652746298598576195765915220649063883831939494845348654350554779160675823074235117773621051136637450509108674858428389903920881
41 6 -0.026659660331540960688606230679809148660711992392459967115265360836035561222206007168521020421716554119686097542826340593731559248465156335960456945799638901296451093005882129942214294322566748687703232696611482798867549708518398483175266805745357384458397122088706893790634112824734976676363
41 7 0.042829287709131883022962547104327587916856988290245665212728462424700218750162051927063439941712534087339057522640846071927840507361337056625058603254880421171313297139837370734325243368008824959623411626060852039950771498099735003409460898996818087233405144398722948028250699380823959042871
41 8 0.016866435581085925300750678205111139912715307768952597838534945262927652110500124404810297748949739730435783786263331027869622446042828790952630587408837730216022765739470037885003259004695293330148995379658041810191936728165887693273673955016266281511030153525286512247635456130201308663082
41 9 -0.13817036275108170539429932414580338278659060821510670484837353472655589934168669444332650851030268131862195992405642793937996120492309945757963894926173598043234793149956091781414950721195608475025151775513824238046658259918911885134344269487631865272225235352105863309837647674884539059944
41 10 -0.10610136963161608198707870565007841631388884832550331269025060200410954075391371018019718519717071576626312855297042580372287183355871978302661674068864458952972419614809333791728962245000094258426649013871512539970729381241560594919230347344691262676207981209684988351009099981239781711833
42 1 0.0015297057976203533484914135235337695172272687518788875939205025902140543077674873309249699811423948335740995039315913443610912956851682574002167467360722952871717425867795607762980208179672099616827928266965087908592117788275098311230671685441823846442414682460548886195662745276828318404763
42 2 0.0032523261745062651616704918327586397989027622987292295821340168947600679311070768867795655156409341994071402609007597674934011603365236671124142752390573300064562119769456097935569116926951336101064294968621496797234592132710768969899225627328462334332986368407876804780917012438834869803742
42 3 0.0057276261944245749763690648137203292886081950449480667850620280230970810398412079207411854532190094095781550823688040104266307163741852403001341319341295335183254306077282637538694297339983844692721717796054338528564983709624902297519083017402970752356418703031641359704981850108628232209213
42 4 -0.00099119528745206295986895636065389938002973105636067445172260643149457794224222041796562241230997683431619790753178265090446739400592712754554953031402380392411961783949823580766655556220081114108932337338053143197313160254491312764253626228774487896921172487725169038106486279232096830311434
42 5 0.0024156383759964155964249815563121875802982003023105339773298412385064729941439026515685143422058721680527495640869441339240906735812014537380874165180771902246190603000920383108659023866797830830098146831054699281951783721164158862472596556124812019954564497498417122865774056208318850971152
42 6 -0.0019021900217679900294098978728520325216518822963932073117968020113603129292036024355695455259582488495307117957594562307829253829086397605597777297078850513066573054608184435836879535145687790821399908080655837361974618213615545209196424294473709296487740598717170974612651907563867392848595
42 7 0.0034890725312154735454015460332314642019861914824930112628521574816706843346429925974949807587687184077858578144944972303829869907985897785551458023595227367089800299364800333926789113533877863049304867735405871837572279237423177484349976270432999093718302888672225132594114775224250447113838
42 8 0.0011997624615767768886495132694934839793951827341817455322239739299125847109433339176790632276236922321266878773924977284902287538731684280077522256681793183648391297349047197100078141803262720318796786178292706772762241268406693073585746375501026552803990267298682506011354665277203555590674
42 9 -0.012544155043044595961031922303132826244238598881001110970175440085939961240335841237178166186898602025080745015185159709921767029916426632030320394192138455806566044909909396298416755884471431017582500769980340964305234233307567558289188583242712408709328577663724048316696709031571235556817
42 10 -0.0087655421765487792408218470084106930636839204048293443687992687560919176131173397914671951823964535760570760635179111384009015748551900279189738094946770116353772579390040328706969374575506334825669005881048346109691666920431142228382630734823999294983436493404563942615752163237236255513059
43 1 -0.0037067707866090452580819972388744104310672712234929374147617895792878099284913205515614037035266502232744600642552118647026663103889228677771226319936600859400268335817809495326185894068283784683773253116897200991360780630254681785268728879998926803038478503761924128626302408053653881310374
43 2 -0.0043425348119053685994299746848982042163447439248433576496249703435321287071556659385325356191899889510811243691976749719068547714635321832577128249563091206465118005163583784832518779665822245453845464432020485678698848399864876684308075937218719835202719405495146949755810426830040590252236
43 3 -0.01249729430522319080191204030844912793461393689278861117476410274208932613198783697536047170752696197191223477423170306181975747152580882549998091418155250858895740653971144594543068768238448366001136901856015690144918207494044956584648916541393856956835261515173821722646277958467886362589
43 4 -0.00055136732968485211352489988230108824793278198952179076356619172261870668368979326609714869854039683153554198776526678964912916263873106719584717366810360844951233846924355369904596057084490614496629587616715317664410760189040195857154425830013274476297085612220040597731559877897126479193101
43 5 -0.0040989372107188226298316444234946812768315666337827712635802179725708970477465477201795201626834638250685481856309425026399415175703024746153643185946650880115285939161438273405240678002490879486961444669362680208132389543783572617494570639842613174497056148384237724609104843121580883645054
43 6 0.0066959657725764954616983673875204920821254333590625675231399507767416627583432427077884067603630031325349432787796451147915656789371209863164070389479524241494643320188048717289580001360337436448566542482087435315506401134849466892983260568449400393204520567782668025112955556057743275278422
43 7 -0.010348740699366823247956404707841158522909086263980912499418940029200971708909797922723160780782705101956821715192435083642448213546319427688074895695295509399865753501066556174921951732604102438932157324923686407793734067933154767583253086549742721455270915984787347063563116587768083303379
43 8 -0.0043393852606881735541890609325146171490597298462878538990880605121647660701480066439524844657476827144645474014988101513352339367478552553530166258797676377111823867419607321588800852287613723874212718423452158508417075061731264483996007392822388660709042464636933299190501975212705497055005
43 9 0.032374538537942554818321220108931120964031905392563436964550898288317476601444858392104645584623298827599033842993787235557203779530830634563807854613193448958363348794305254183813916796843236848780654217201696753317427796642010193793630553713470629820696152216115089939682529375882804398609
43 10 0.025779706967126002763190120328197334201423013117978733936562690150301695294626102201288488675369835601614992954159459266093008807234088314340481469596276292646787032294806310816015287521074366120453402147838936024806771714437513086176614813128080125148628322870041504381952878005461940733305
44 1 0.0083366123597223350043011415111629833761979755297280053837004827593994449247596119202262907338050730211304451417584843549828313414432210297061512137977145702572389394546966492558614825429269858000823827800299159920923671918520026282859518535534229421205689469819800543616334349181619343725687
44 2 0.0088093116905909384025974920132633195487711588280208549843420615575055354833598344152060649621057686873454634753899411009949725315389336974379757493960911614903458335458890947208481846857917342897964176995443823834293557754043844005594689040753487869767192037270982430225273266594800779612288
44 3 0.032004223338428798210077518452836701286086387861723034081720456516754146336134575216867177023460203638647801760006730336377802508192688807486833396868092203581225794383147569894591229077955643499493028687459583618709104408495391793697556730804831418820690870417099287693212751758035675359159
44 4 0.0054507755992951041075320721891883235792667084497709511105171692497249147664560963423330810786197803417907743923189507276859194108875348423301713832138001585809259033252946213698017186808338598344016007512966373297663475836754994009729124613186857048536468807000449905088908057177765057031612
44 5 0.0089538301428566522980984121633138392380249984728872228668629867526560195963268782034872979940537632990135488526650674563675597424471574630358219863955163101752388777866513669343932124753674720919949166472500524740264818613428409925241971535933042549278649582580900434881139118414938866521471
44 6 -0.019581297038486327779102987691271184238899641549010537477172061276661636391683510754158735002249358657446390199750205369539225801717669999192320029633021572449863324226180020246834250955355022873856402932546531429415405542111748602647208790580926254931357898777954171062033065288969553278632
44 7 0.029329646181860574250156941477578616240979456527415846269952906864220168157613566242165642469433618782121377422446210713045045677162129808163591835810780675769051104552783669094384193975292753208883263746172230228772109574235703515880721107986055957918358671550265630746669779908539610672997
44 8 0.013707961393813617407100508727989923022348132225006310725966646131669828954300857562725508763921416670994048460674332770559709709233310937573862455232185231215114975711422728121645909869416588919376932097563567219436986870441282441492827179458284479179093826224266579262963128912620737533603
44 9 -0.090055845458527620823910950044667974556031881484298552037635756640260837156910828480507739311512699409037891459930911518171431269995040474751014282434029650119595901274266216051744735870300447288429859350269676531303568299694159766622182137547726527953627285723780823198273113941323860702468
44 10 -0.075176046928297697338526337130299371884486478004298367983461084802502299529499009735830199517810448657543500182766820026388002875271238110535560905076235219070405835937580262106121241096625881278889702633736440065906861201584752061902169476616750099108442959765196551234493975852111131967391
45 1 -0.011373832016402247125474879330895767112719456376433129242414789206714806620105167432460207156216971397468285371923318699090086974140576308824870021376527291917854095471126626926491842855601105319236453357775739413180141203926095780187040942449113407282090223178298177753485076784683091491886
45 2 -0.01406933687027852196958995927264589330532425805357397895222859018075486350932553250514827689255029289082342006158412164090368280973069353728837323556541624963081204268143754585883678683293170623888136706542808162470275116813857350151719768915210455116484726695914298644677459757828119062078
45 3 -0.037834645000956253225266750564747078368633541051810978022248731123560768799317684048408178654641600707565028655823870227673446900196075881791714485729290944033936916537641502872110301585458348050001636099905251561499651034761073071388627234146604539557979826961413300437203853900195192575052
45 4 -0.00033098398786247249443899693724744048186243771213110384155656497820054733000472865920248954514319816186836042176242537655987159963460442360507215374974037582578010239716567375919734306161761905463737073236282831104999888397239937993301318316512618136203436390706848853076251360612777705105153
45 5 -0.012957543933728252695579524319784492740398608770406075642763917037581614999858388474740526181774167043236260606374216408688831255881043255772301778891302314186195398054653363202993566942633356484725095885573691332750144065719457623422029646280044621204236280127778530317391376029245182479962
45 6 0.019043458171362328446819024511299021574001576563972363593179012972324941124497861845437036437500920240082115429159399294835348038998629078142886551364061432620669589995579671426548018745741722472938727511484456507746434459729148242465147289069027525655640795552557982279795756850448802382104
45 7 -0.030047909068189280241736668567843391959848869326872380270553571560432685914754215155027418981361938962100178463433025815634726095167860576757553172263537391704740529402348170837485565072245890998816577227504718150859036215002712692161702523147998560187514900542818274200883280132766542341881
45 8 -0.01220343334587763628363044311095365368534122236311845667532748064033482930048435223913967246849714650941154224824903248559772080024315400171488905065585295614792599485135393222962496083900657705561864796028243945482822377880387785671609790307167504346061241121768904967456698201921580784197
45 9 0.095462131978073846739746495371514880994537838062970961513625033839272899837611806454050288481818223176669302910828798597657633153056304430692272376486481272173458717655153397832367944666719905229376501128239633306805215241887257604636609250333506664439565399143411847688320772299977217513809
45 10 0.074626745526384316330144191056870933258275067425973184542103626664919087115902574073650849795936793573359285655603650707732304829566512869273910003333723541662390346463297272696911959613282187287974610065559811238626970678805860089965745481433243422936774697363400186482065437145934687958617
46 1 0.00070721900750810368785842211757063250041355292572243539022193890239172765369282870311387622583291313672170926364660393845092242414262114889394398405211696696946897991453928160207650898270214457786330450722772402216711994906897110165059670416421470540809497725384836009410860454225873847210993
46 2 0.0028052024454450427733254038807979068682956146405915292565345620114078225172828597615331316562483889764967298119363543965968093793572563409034708050241667868634092246254591057434597693893471913629487897407962836888569656409314687080067310486632747123224684245690652592221385448395308627730857
46 3 0.0035395653626226735266002498315478025038519638718920875830161587169003062719973598794960749458754580768682628012195071309349987450777443709116016421434155517253154966036275954557476401195641344641215207465283124867030603230124272676603550945285215411375154731530297141434316285386426184230398
46 4 -0.0012147388289501645533049734913093316836737563549337266475940400750094217475861127159193998054434829015392883016403717224678549901824368127882963810729878133273094414660592617632288823565756735113054242279708688881390111776251029407380303028346464803496922138328354202150449654520752792131438
46 5 0.0017686941552648825408035215806922579515079499957080877597780008541884106888763651256838256698787833130548575927807299898993939742496285023653634149980473923320211860541608373771945393898543517254053165429366013073551622668146063929661739275353754877694137918951782591742674733760945189432795
46 6 -0.00054405924293347863430790908989363787687612142044491606918099486717017090218034228277108110911851845276277713312784240705247995226323851011156054540996802102266256984165592163434904204835233085371457943268965309739992918802524015839205434031090501781162775175681516016945072380031501678657889
46 7 0.0014776687178306778538409642848725180441020977943549178714785365204032078266445778113192217715776975507811114899271063370615275327104068226498466439748614582550374760690812897738146458988763022893081400699566028394804063737455711802150661864109088906297237726136328611866145760923955310376974
46 8 0.00038132741357403200387700898060622258024966506265971833356207305863320650280258247433515290396630462801464673262105773512050156618050310491551736632373598751205706996588985923766748986236085780687880291038081034334900846114534041839324898151717171403554399021065022467757926968069602556250454
46 9 -0.0066484074705128665692843573508163279103636493385082463829695940306169303693439724257192152618479738214580199913721770092564541682899569761584617609071765241515477009323333536633163860252862105427554328437836422857094956300365147006762703830582750978066216282711362947461604326948683938360206
46 10 -0.0039409501523811578248974215733950540134824786757606424650486019589138690789010751047324284397742704763341468872530776658719717756932986670531884559082172075010678603363643482822259264569254060516599797629593827484227736686444306997090487172922808441311139660778195232613213043266860539224925
47 1 -0.0047835322438322305332834591756218270505064199465023325938517515854493029661590843926403657246925542349592680644736831131509172045019978544273523931841101071959095467527672913108962934187562072206326478243169148324688158575318161703778637321505529810680397221877986230129199510118934571975123
47 2 -0.0048619595422435260759160759081862982752270182232968333321004088706461614290778909794959560842495163510852846658201569353667835795926803310498496286368249731883997236699782026242126930598678831785571841850809366507919588500725716555015555693175548950034959042835954275013411071120303257148919
47 3 -0.015267248199425775369886004872003005624432470351510999360316744764292618476481866118480022281103527151454219027806182149162115572812206749699492356766664052716735932001231309217526412998547435867267206285781778470372809128828516930854879911774311409769915418956507571439741806413199836961125
47 4 -0.00081669038343478098431829276925080881195367116345059354503244886212648988538133115287106329365006449678287000567884990296469314738465157184744367412450309634570293640652882115100393797563118885570770240362648623785336570513595401719288322423977313462246794377212253831051131197013011271576526
47 5 -0.0049240553213133353733179491259807714711836075032234172722456256903622691971746853381316922301811265154083128783342301769040465300957025994053195073607907986939298514751264589132239856850626311739474176692744462109485286859133110573160038242678844083493973278379338196890558793437974473738267
47 6 0.0083606087818288472880073481628651161504559118179745713326479461383317117511743239533584768519299270256105070625611978405072808383442741892919517767730015927916664355267592651850158192667282305865487998781825792177231336016787103803564592363819935359742179693441503679851114794543791785233314
47 7 -0.012854533999863510652297943204931212408164032075576516156886717201691049323419083338487860016276070974855605643179505713585055882033058190121696534988401029073839460268189385745559752034612047453754399947896221367654111222866615189596790206274368848289503455967157948466169956944684645389587
47 8 -0.0053411698784424785209508009669378383072713301820921047800274820297619742719967649781881803582001594068051943188413516745682909829583146693265932681966934320694624316219997274580563753778345305534193245223912679417482408609545381611883084629776666390005739980863243044461654678207203257971316
47 9 0.03977155957821431223054067327465351077780945978118917445617519814439920177038764563098832264276345098114956009304087132453165110709873639462538726132310963741756807609593664704068833570640321005627625445319187366954655103139357399067042933230390833624476383673604874608734211605616228372383
47 10 0.031778917691875742153384843286678869049127294424722055887471035645250102949092616370567211463687440658245775125852512836469651593875085552369366339909892038567124439327092548846347302952336685222746490443026169576902663587526118638784527870857899620013832248881413624311955482049698616314474
48 1 0.0035650149231848801827029709557960972188716020365304087276061132217673505851906307418858544410262601254383155296459664912965746858818460408770106806619999876356297438125153636324228457451826326097346634859058265068950866340036294273222637375054615689228393020901146320495584469165616628917157
48 2 0.0042114338447377233818318896035181832314317265672845014904895214547266511577271253359968463392865570109148336369774599141661392754420320346501134460916473003168146582175280635416203833957116377263406169551118163809841188142086705618245182440943804102928711937087878722485487055970202191540021
48 3 0.011018928439211926653518906058592659186074483588269355046656674604136569768916461410779279845049887647370095672908643493562099959164991616002588228404946840266136317632476467817650393704004745723968274586516229694607931759853718259831199517857242447737116514004937022073518676719237724277827
48 4 -0.00034566521990910754507820654928560831210127033597150387019115023822941384657521027950608901868900056792945628586378589811165935532799811001260467267574016985517745939401215160056331525368977886607113800848723657646709350214735539577371328423089012090094221567434106764152680404391427106301813
48 5 0.0039291018322395216689798738718681360745967708951706819348235040940457374079072728746718575197199612776345525681827405193449741460928083802841650446897145579482004494618446728721172411631831605181849364688412398639540933352018176479363115589685262315839653890522008288347400804421344796443862
48 6 -0.0053604827965650922701626928943783074805867008859234326877357249719871889147108015285386507599337340587039382674679682223938388069596710622844581325316695572597405092695133853589969732219784169088634995251477886449230201739551441219610443222535415299247397216306531735237488849140186903395495
48 7 0.0085196728180517920957162877444364786194936742525394426128603532657524907779981771987924767299815790616000779242497340470930436534242981134946836246864281440492491773677291202533039706341913280221669200953021300279590779621894572812480925286533304841856486480266258661768601004707567239070738
48 8 0.0032614615665144567309945545844443577724788518683793598742566016061043239698643129078114214326879149704599997908183924651743386834564068146463181037629600791808764164178215814721767733857447827792697576297689887117178241826765649387374753340239138355058011639123416741358502521661077702766068
48 9 -0.02703014140283987686226538090874072738319308763104757884194033378374901127280629644415124198483647096340635826349870090880864357738852206794382337028435572350021444895033336723688418972007411435278850278192838732085346478196461515500693093403677234144550324677128451424771912733246881998091
48 10 -0.020763774886898727648717174567954562187209183004294650933538123713241279675735594170881828258454738906959172902021055884519698859564087978321674739469750565782043897346225769736973047868143316475077336295242943099826864378592203217582141734328632052346137258743054632113470409097679024742192
49 1 0.0028015547367823969483880921040409202492480680367753350593958860597838002928992166630305996368538262512634262986433845939969236275187630337000121607983870216588503390314781974910430770570517389748192118135295916777708212673283981045971631469374102577638904437213619588077606255082937251764482
49 2 0.0019240957542555855642921946232494867488710490694480949693898398682762745420953332758996300614075924749912557118727877906383025641952990607627707462174896301548689529964409621209809015928225781473434771235469934552231779957048794441669996121762797087507892764297032455936848292010023309624481
49 3 0.01223125361585720546160878169988674303575558374717413324574093308579774171598853475601903845541890630386764493475618239567417987004505038572791011209380963792727189088263705515326787582294998700562275302214584350889645549757036406358874616045321578784866058701679417995063089432578120455138
49 4 0.0042277702002997887810099799454252096772042190017433960563575277397635348227390747939773370849375348565693577551778462553918711239966680199904806695452432606077539225896240931365029897202694565998464565219929752760358792147545407831721592736887701693963916626020065922557059077487083359999578
49 5 0.002574168097790815163097488685563651416038010190848588635823133334094918303365739924678886245271502396705835868206580006346719308596244883042479018350929059554954342265198838355635734869261135328467179211362602414649256016645989617793731600698819808520164910143508205344245368653213437652721
49 6 -0.0090287410566991005542667880188051541364965900344938153184022678559157742258958705550138272655202329489627606928574960841218018176743380016589912931514059296651242863424198388209595999754912900859497217633359705034716605049661045020880016964517937563773399331529222335238571499442450976152368
49 7 0.012932136243614828055828389491038800683551595602933455284705098012202876181899798849545120275456647191351788999082186370123327071163220243151604820505243675408001356830852175833418360725982666419105648486693868253158631206526977601594520763788765769736195174236457110374905713540331459729242
49 8 0.0066365783247669359123927834413346742801284601348490754446025893956121594246913368016854072800107529419842600794032555174190041090006441885682869894011140933859760494248738315852452943907748852760316135326957027258783052104765842122174455943705021200764119635074834598691771499555416177623107
49 9 -0.038293911880657976140812157057650092030279347197287400763990303356432593372982328233622695637837102737095667066620675339323595431305119220071456251737633570820533824108163809578328888545582286605334622174997156480416790464967327072791322365305877301900208074716244318520530676421919547517599
49 10 -0.033777729747344551894039105155476219174589636861224767141553611996091858671338069180330746638872328316061157002414643803156017055563096057221932774874030199853143434172022400344710653111071906868389212437962543886141221909586267794591977890344696236555612894732619264629794451723309758626314
50 1 0.0094853550803971697128614837083055306040168675696525921829113197940483416895435049862139563768855221321502048254953074019177729274618647413284377772771443428732409185885478306638293112198539524989310928088906246975557272678405389759726432187721301959927010990946177886040957246446867919601155
50 2 0.012179490049764044181986427620097435450551276513794240823856375389096618800685538519550725478816401089266005436905421417376187654495807433114749236536454262268274944505044933588359352420452657737815289379375528749243264071660368864071083783393482172121108374197491633429972362758806525718662
50 3 0.035488566994130821640056374566752019074167584848758619440865308832669847187308314010569746444218911491696207820617309331009546007017075768479158277933045292392551371059299097931524027974309175307676498006041905365378027324400450285572832352957983672754015102047783604251262717987025555753532
50 4 0.0029777484687887664781624167987396933916913288388789929922139952228997939329382506402080319607197278401307938009506716538732344364259452609256087808283409320668599900167691264501001084443005580162541877524490027670001972872615302891015881599442647405182121942401268891759359462801102443214042
50 5 0.011171932063012747747679968180585548709957585551481192801094059765410647997659400013500503749084089666950139554312013686383865341621514137807033357393402607636385859164096215191507149938422235889964931982671801613390182987871739368737670325410134511494588912833165166085312231376835339913975
50 6 -0.01932739328535197835451809785137654093483619528022390826189853088650835771996592996776736229603092273967662786390107316324055044793756322062636397701503638440049351999461737660243696572021220876687586062120771847261281172503280034350972826260062032997064277397983354994936644428528313540382
50 7 0.029882393834537513643104689517510573395757849125594729729706990101103237209898573101580104526763277782786276370194206697622683910747173955071232765192416075427772528519576585814738266701309614431892534297043106602541585416541413977832171641073676747709295108547602385584153166659911841140101
50 8 0.013229268822524894228273644404920305524553531697895853754963907733278489741318485450914572176198487387490703243089812682193709295850814790051178799756329367715513739682479266731081208173224338919291425875441673223324389889908942804959774167367642816464417963754858748738428357391612928751007
50 9 -0.094304936062325912545190210977537719657859890019927961377412756118913813218668889812849488280336561000309092874692668764421243532290046864239705047288625843006052318082464964800422913746871481518101452150906858610222740795864920439746127200204204048830737040624998233397597451060259096312019
50 10 -0.076090888876680001884272872295815676703027191745119648467527134026841766593940525829255241567317319751957579813156746134372799699654160961065753096330286060208710418957538025574679810775136636178473728232520217280729013644083815503082087293964179001128515006045563078672465605815696706720739
51 1 0.0063776389296170502373314907574919886023111486093100566706477846221042981765209989837021523627368568900335958445651730770359080214164932813749985413618564060473522037311528491236358548026396871302277021570830464833554618307561801368179536419854307843265542355533892637768301698786577596809085
51 2 0.0096904033266126633438404077952806538139466972573253082764688091368026196903115953606848734711161986948897416920717332038631937656561108851237518569225947771827586461775348452021674924150917820509705231503190670775843154791596783349995733199743445002826227498047983743083185752933540392861164
51 3 0.0194653327483044093838030216729712151587882466835516511478855326653799625561704184668143396355693133992423606524627876852641896784902171691839563869858309604748840594555699283163849605564635285822637317219796188243000371337698207484806882066191809893780297346045747877217252640778275847754
51 4 -0.0033015454415713154621485319062726764620856153594053368778645569451043222318370154885550989490184191817276643022679394648361555995589751514179003047457663936519412016425772039828629771829492834180586920046542496610685939602225767183787983107177427875396808693073049487757331409149784961268605
51 5 0.0080496627240243804578387693187309817130063860681563229202371465157853501435519855831825745143736084849574761366036548861064736706579006698815743630920991375286409655275336614548185783108528203528481280147182553888142874319667867924912408561589433940467383654738876788611488156996062887939114
51 6 -0.0072623323678196065566364944333072771930013862064173912626791403477907116103157852442935739731235481492387076299254223822908081916004947111596360853670378316316801428235746954040497981831516884368785299990528569650206778289490319304957805340797048920978324397328372153205140273541433178199498
51 7 0.012632692944001575043083731451167322030024046310307668618375613430633683246257494618287358780688898941425829888038209695964140992270700261661843249316493087385433215278472833687853403818475668324448125485270368197306468162047590508085202931382221056377111919743455166362458251773170917900802
51 8 0.0040324596919057571100275985632852745875719730978447840673325353974883875327740422689528773593681030471393387084529834273916632692022647235586333685537778453319066127167143368172271763872281511210677720253445509319499804726891694428979118879649788543318783073377429934862513694727150548630612
51 9 -0.042846318583666483156780151035432236112128196132402963600894102976892173485598969839139752500441830316918941900368448369171859794744624470181787324384164804986872268089325370615822922882747309735755750454244610827275113847760375695339619263172373468847398340620777484398327754797292698165417
51 10 -0.03023321364714915601993636957789205929389190955713769417375976559907403887731483500712137422767985526743716105175117724703751546071429015697051410868792897777462192200707436606086864474247117339792764549164103706266714892799412077371572620089848943590139352799961590819485528093861285966846
52 1 0.0031498249191924137359036379973718817412420170228237480646051400017818089125879714321185832264795558850972470624291667122319730604362319997981999292368324396725942637557314295122296914487068123106125326088054611987846092462701653169619956967259925540973427461697098990728177538724278088862664
52 2 0.0054052573493670988458176406775291455746694095029731627497446411439425629954335019714858480608949033926426736264372289066068061210470577688757719810534297527315415406205129510680373654284000883320850240396845213313757552295776823351707038654241000469249331954091288935520789023640838798334027
52 3 0.0088908400052538341291264997355287387042268974762631576700171904505643082304948060302293419967427321624134278234381145898901033197475492312747734420873009748978224917113871662767488131111423743387584881999359310627604235400250684567876610909747049029787373270042417572474305459336722895949591
52 4 -0.0029272111742652784858860239900520730659789540123162095041217146744559331510413874687096367549632467616947549489346364402934370290446507794406413263689931720747770403328727190434915388535370069803368136720264630012395923539161981238977773493789100824246817945921271938480299009305923982461103
52 5 0.0042412153178565051856994476184397662258248781474832963122896165187239234877276261663724929576287595937211162206975510433160257383775851427487333440428233217028095776832992602996995572828643902994890453502201697584037799522779038164714455984593406772198735568092721396991344443180344697137536
52 6 -0.002298469310042505779670497198065555695699953109581617775492850371447848192699812746432618782667753495054129232689635643053670044135514322055077617355428631510531823732263958191327377982225989730485598940456656952238634748502299504875375756693768907692817886735134267570216480675011434402179
52 7 0.0046327101170501517662260550335999765750847088344453551684717434149272187339132739914813195404098373122380772953472421323666133912438666223729003037391118920765431019510324212206974248760948293061365171240993030624738640255409859588529922926772869354971554396249117754431652146620025620649408
52 8 0.00092427247088003353362641246831112716092054181102501906304216058793696350678713717547134994453827274328374192203307950466862781569205941173133707864262248889754303312707015969292389479530537717375382040221896908407008302108708743061067618780985475636951629680911038009221637153045521471063545
52 9 -0.017011038516773057122688287693295895505618686652547862976374295803709596448273968853057452314753714270463214827386784970238188908613150932395144927461439994042651887517876757445340925458788149142308494146305902191377316571743565775824188238437681766068115062162800542889561861630152017359371
52 10 -0.010482968474994619295067551551191733426341792647267312215569549266867981611973607447835264772226093929899075528357613246585775753397929169876553820270250406226686326918782066426248607490863798573543106082269023700346019177854492206008636618154996367712590300477219056069972270038813530627048
53 1 -0.011775613834073651788035956040982077143273777555850513747732280680742504846198174983351670746601130890182380445672002152244468299362213490215364683555969233725323821950668303431340976643732087498139889175346107749399163834971699668705987073474654924123958755919477811493245625077420969947569
53 2 -0.014719010639528191031968582057402281210497417568649727196750112711831282816016278378443925287518929954391082140753336401720079617396893858067448674483502243767851518586910415909244536329191806072568269989609944491321534420784186917022506744805766415195601562911230673341236426832840025981489
53 3 -0.039548992995914374155649233970018609416222749485176279507502258610778058079059654785387355563319495754636954474545352144966502221587182114463054630062509693056705489757371991900075525702192888883302672765110550845131696907850080187919100819884733769319044607292435245450295962231894938694399
53 4 -0.00050139988439178038987231924150769573836067915225733452555073315798303954933132358820614183265292371807432132960707491605099302093052004927436347058132849927860350691118682049023231200922964821673866425904230257981640148788152854355263618599343600290582783412118127770297273816709214078001622
53 5 -0.013490844681775290870514175588302689034197501998488367762765094069919192346255870874969509388861932570356747376869260238525118286552149767184675367671266388172901814511300601032639605790924595190472588157395053324804982864855564435122469507511430072948310153025492161503794801687087776459254
53 6 0.0200254880848413363028807983632476829576141386395121349394753723157413221831778627096580568837534333984372026962839987411470425388316526468291981257917525458950647302835524264185720018029901995931117095751952599382570997493168759868534027912701660828572562545639388333892415595257886187284
53 7 -0.031528332725851103750857049163472918121143520614600558176578407087789834815001649527929014976727448843709022008275492900351535109881958072711276748075850580909782679971736463020238191607607360404871522150180133710774928418403736217370743852092340207947543049507839825548595061623315218549614
53 8 -0.0128844624953728047663612177660586466349837182271854858835304853753469561683603365736870824757230128420004328250368877378039450063060345899158436225279192313179783076328093577620716457893562373152907095464232952587817635969450902560678924867831397311565120491383964393577305271295447267497
53 9 0.10009774376631945749535740218448357799065157013240405597413600838931862745998657670045881962334131573657269591331479285022409014170635663742700903163120132084157238039531568113432296898469055495170847948650269153722056180498390983998243251768050744978799920610815309233189410483390033911718
53 10 0.078426524126671375268342390128582627885344206916879694429697041235323618074831478304963827117929860261117032357998596661007109500777611063360277978156415357917343795033579252283896386966558836401686918571614856206344174713863355191435595798195998328345381256917105740645203268885947557563479
54 1 -0.00026446878366127258383142840017627710085590814277982886868202643775221427609238452570681299357694558513961849269255874327327539184738003932522090444683178338836500340860172616508219988651424073016084772225744920314691298042566563650164485157229683561816601724763986430652222674686792299568666
54 2 -0.0022190751075965745637197058047162260492012586984127374204700454617820287300897500883804659484057045654447639571071583083365635412898942936977172764172534184129304709840972025846475336892660037853087869495577686462604025102002370109733525658831663283214540848370922370623875832375593593970155
54 3 0.0019283006892314712431626259015300928828031915506161775859804453087424756862411421421989696702707259719309468790363946009841134841455303966862724753327950983880750726282423451921551842848367435228956192117147903573858810800512298296040516333855108872300485332489085493792954596841798613064651
54 4 0.0044553314696821139412761279744445995166845915675971792143574485404898071106337193412724951505175135710433436639528109735416556603904808231773204929105148597480421080762466567441202613161605247563478869524642848436873816870192541683174438006625103714810067760426650961493146211461910917476145
54 5 -0.0010908732017530995139922101892166028811662184882821515239081015240991655835863436553256956664250854325651311331739744686220741832930372403599515339174537950010710243321640956922955820667975422814118939667313370884448102095187681688986185985944600164198284707911921792844910889734278068243123
54 6 -0.0041263964006691017484382408273759948380385797418499703314139279297717425079334338483076410944772690069850039252873763802023139857095569731577902858405245381551073752195916663087731181899162385889666824578789570944478507290165815280875453286037573052157516338611063696721845222082925032317743
54 7 0.0050563500041927366595278213395380216867949663999412104235857324799539353810202345473102439908463460412393293200824248836470467074307719905353829985948319645223197637823403329773592425371388430522990783990374062978337203710090928084945278915501118830694423383681344977446725594001991178141853
54 8 0.0035129406176961353277841799689213641281602918797354532114455400703128021470704140965058468425796446251506170611691132414072887955476184017695873275738628068103788292091493514265514205352743154208172433767097886845610810809281414271151131877874370338097344339515062072272124117258308018217184
54 9 -0.012878517294033464481946903200389011582268785405192748679251362757071323720855960085614519013297500295738831852983250330843029289991806125887016176929944792679869219543885256444805010853052741450280585211325528322230498292107649282506787638213982051670672458318545781348186011463468208703259
54 10 -0.014222731849893694813451729358008659138005997055551430148542714823134912410298835988445288490663503505395966350556110251954105066232609026069199077261758275382220640675772096290705964228709819299657922425049328898208144430229606268769262729496605626459497720596132379246266830269463402116368
55 1 0.013600090981920519391458459574169117108755844209949001545708438770036776072559061197526046579810934339884945607741506850573822234100960222223284693460886831418270517838101483134631034709358851399594963348381118786788337878980045975349493224713896435981699957276062108449038784180526028374943
55 2 0.019115614261236185515900532346018419329191105712906869734714541254626454272309279238856755338131155163177331712753473723540317132465980584699962163458634934034358527544502493700645204150579662613015387389859760610849559512354816772500117409742653710916924332140773415754305065930190080699352
55 3 0.046390660681539448166900213630697974011390550899080247188214598015665300734977074979600196870662650707038852291494539442944827417937344982442555431400385682337736816482596001103542482465825714482946096926838918644369841434837595019964365395551053690509762167493106614820051660024092476860042
55 4 -0.0012743926028812343882722716905979956220066405850772238684023818701728633303563588267971176638976721620845883742031377698630278805278568160977062803255643449019825558290140196326833637024903851510765497827552823360299195668329749877743010126243161560177726579577275723810735507339300832771357
55 5 0.016618986526708476112442970138125673030744805177300359696885946408972601599178669984519988879197952286264498896639159894712838666811998600610623366819606724821000222695152055943660308288364574572759608664104650248121810557515488756048384978132517820102774149276007000223602861051361590876262
55 6 -0.021781719832571575431672464069185794443130847659950648083182779640902029667729034925579330734518089306443158457201720374675138328411261534920739423389597756134192953882421702160275687485515948961466231953298047548808186433540199952403770170803142025278959309596119635242707233438845900134267
55 7 0.035134004392655440986685261224467482700733055348729739121315061157117957694332173713469460753814196926797305233336124681373773136550809534538219341624151110473219938967399522857307459042956916746585348322199574623599695297919379804279024021508866150212929797066485723197738155604030580480066
55 8 0.013930704417564077773938083430404174350614092759679563494297291378259539152763637301026200223189482738045737130347438549389612852128028517223866394446744503390081169921586204037222296237805318214099249898124892883262089039432272433010768942684233225920569492412097782555188077814131021225967
55 9 -0.11399302844654475657956241203287957189022797598085373010182075319429842725098923110115490919513000412268533804583854673934263672283950472644568162746010258566774696930393420730900821869249714778023060707835011056998371083455277078183950568409464056430031943980381251493742181229912042444035
55 10 -0.087452291802713665211932485069874822238931545364484216659574602791871624059210069109061789027742832715957334641985395684640937276844629774505414565616944098836380969810635902083487362452531621185361074592565010641042909990471814264465426359976358259238583302080604430804570614065941073604134
56 1 0.011087482254738460891054107187466678177757235404104447229712539061095893467746219041018976243415566274384849697276173227059935509637615955513327806447590024003432837616648781546918955790378892714222498317712003881106384718213973684172732812832435038908453617924087079357731694061591369959025
56 2 0.016770231210309108446655092553737987498632045567435438157177043275546996873845078677168231274142371950877494714301543530371019486288405079672284152837020416685018131616742083636816448683802803696575791027848441821487219347341328571259213352775463775673876148059933377365595519313506192597137
56 3 0.034739725696244972051115807856930850993123301762500838657944468953679174632934207806189566847814042578515855690198021727564418119808241699754610024093833376315543654409265327207374615171002296331526317243082558092353221224720343682565971302071692947484835751341550271218129369738869253510239
56 4 -0.0049082296456156347226632068156095330553262686258760026879290707552062995670840125036270195028492072292645336001170732225292061786629584779498921911765662610219443312857870702337872071174176558251491361436020200819816106366216253018541100417657067812701177875417931756672315371013420807015511
56 5 0.013987408735705987246898786142159975939323536228424917270997636990399831874835693921571752573130751218088558721400444810047462332740285336586635034297676442057886519550921316145215657204439682227152885726421180601444958185089196640279995619741458941653712099695085998988339830652559912141029
56 6 -0.013615114892516876164341894254455438204927027897017669170329880792170785708987817910827741389721445933515493664771593618042542173156917551863735399320154602915172254817973021074693706258619975694723558755309050158871860459352820590653523230606464846075682119302028271164661271609701810018329
56 7 0.023276349063005757041089526690086052351361443358854890981626057903348855800523260960848583082710080748781435587390493573571744196362265635983291717575400198857548441370699992550481032833711040252698472376314209504337055608961907084619094256811129619833790627111470198747422550616973605099812
56 8 0.0078519769319743820612482283138483974204261059189847199107886523195671247169606723050749976259879108309003487018745631918025373666738104643124886841684363041347796541742002854505311180033312118211920711975537978393413988908874895329647365882283926199320853531439311015058921494625825628233368
56 9 -0.078248918851011400749078623818051965224700016633492603802485933376330606942969298897207858864885059996683528158259701324572938579913802911096686642602684347957736083311079315719325303214800090933465251430547870126244213930990985841426967487172892268649953131375835089694319084391646038839307
56 10 -0.056266959240098195701823446924014408716972255164071204147492257737823440240721620586063132563470849940173108433062881283586028159791272287208637545867939348545652279227254006252181575701628971258599523130975518884506630607189389338245230936795394117753779027170689642274694298395041656335857
57 1 0.013659993088735290849913257117161876561115906738010499766410791939706597236995751233872388935105839806323710289183170370718942621225930702285162694828794755429153307620626255868913721012264752110229430886639790578951097171215758926045170336079874817316525556675985220247178751884588731367685
57 2 0.01973074652975735392376164192139308297062192538894322396600047573828774668961134591476380115227375877476239129743642417738516406069367683830666802276779012148344408198494247376606768810494305394704039047008098772226907863613116882602464263334828617106222799139342675953854533516369029247895
57 3 0.04266578768576312675334909106965878973077530685477652951482680695499469416204335723484281129400426263193200929505067758595159606738628892049942633072666673547035053397525955659810389645594559217992024623099574125715433882175257698343105408604269231264558066549240091147021590183244109147225
57 4 -0.0051084460163950857220787713182494591872366629495881417414124759589295212074263084544841406053643890105018586865725002646377030569901978569384531125369994794467457217775935642961208154216764031152296878618299526276464973394868199051977362332630835983809770283882074276829155156417963132877878
57 5 0.016796541192430801872470927875603747784044152381542873443739916058551236858702706816771595185978532195691580839851274256471521209543699966493153480104595028034555043222233059924564529876548607740504285397787875832738792044568113555406054828474888483416341970878742350984033592050781993319977
57 6 -0.017466805067973421088646742463770234416155794991284057274587546190262054874327409811855470461703859183800716115043758403074936089947910135752350740138533964334770020151936909944481861575656947018597918395049493244733058184740311358086002994791213510607861667516533384193937692740555177314371
57 7 0.029419075026173402070992414765384889201524024018407510664541024533249678184437308523270870477759148283120655810919544922302790009620798572288510887296328056783149956853455656978974424878597099026199791781553479277908202436332994669466274542184828961650482410636748316851594054207101314721291
57 8 0.010213027035604597295790344916582629655123056816187684900698332429582105694951518088991909647508578384706352063444525362520111735661658212057549150539571398250061546491239122800521436837952620111177291711851347383635165056183876947229054590503940132525717729930301183616004535615246938962194
57 9 -0.097751641284195354815252584786699667281559658125232864001012546664756038491534821537473022488064071733179885322353354518799467923444031358795123658924560131981949661666143032686258844582303735154408897471661762381580797622802953508882629356290689540102546258246155820870579549452081339977678
57 10 -0.071262232016721105809718985477800295239577212416815638067957672347251065440933760333709048151318883550345225720358558250278912777560676845277959322976479797728477312587405115938495787554439558307018197659875904469063962686151662510208033969034309788799067456743984676780640024178511637760085
58 1 0.0081155112566140449761048099326020608349018486400271049532834679223890851008599069848038577680363739338966431359793278157044171764442114873940156315215765955123984332809988069028205606766271487806401526455504790260982940219599487832936255607861638333147472261185267403382800034290773443645482
58 2 0.010410892810095495483313848766059029785702019679397959827404562431214719498560523355599200174292391573738259048496895918722943336819190975804130406206606987868681986285268659287996890732696277332550695508519443046589344733988009603447757979900895036741733379084796490648399044124708738900374
58 3 0.030447595421911611817309906777722910593439657627287547233019315713925400038342447852906301134506518091188464818725525602105378971531754836037750917019085166080328043670833175886066471519504164047316847048288544454716801834074982573870899258866635412833991717255878008844293841151295152337813
58 4 0.0026224250889846025740553838035385895831023579036421311521643495923253773378952242128491893850106191556838199785486029788457011561006137165607311802197743830130730053775869268160716875917934335074263271817966299791719343846523579698337657928367912877527142029809368079732044049451730865614051
58 5 0.0095613424617938425860794301073284568532555009818529194242068714893821494792497128035155495155928210807448402175161237662653044217147743897520362460628890629756616309659787843622931183312088795008567930942244066518261525874347042713208573982735661798639151202013270942989956507883120827843945
58 6 -0.01661336505055515794524511536711834322036539823858666400248844838918061262802731214336716799502527895576271467865469996070006664659879448051410152239483618153639180130041099870725653480955574349099366334093737278369243787870825184553379553147466136133093843317907247941913067551143592483391
58 7 0.025679443041357598120103544131551970956210000214920979394611863721962835625980343064063282550842540126037627481864620445924943814237469611271461222977018980767902984943213116016289012569377084606147224190931611860371644183701013007640916417996683166282641482775567901824579945645792042840124
58 8 0.011392148464095844513597030084334934415057832943084416094569518402485121407547811557308401490996442491476446650352856083705451790922966292312133600414472865469633772581738823958896457455809989443503682497347565229844864616196584329042140482641230378865196623604920026567087345575280038732503
58 9 -0.081023106379545009317663814755074899522192779825023158990217711846446846712859756841639139576843104429413805472245172968540799049068613352069771383421045501153612515978629188095219929111871901652655863588589185174621706223248349756590948276451071690704672533964253235595969537941020380379542
58 10 -0.065426043678479384118427151692103297731076761894083791554931214229425798732376178759232174099144932303201518048357829274695199576810313804041322797421428006053048065267839787039959070125766848377839412536051404734049007029949270638649276827991875535263246942680933022709800903178895663643737
59 1 -0.00032152046146055314145857740407058154545576672493959826987906526313940612985676273011144346227262584307372798040135963746951976625987399531362051439239024805918030789045703510865082352684204181588262430546291684239316661177340605712146357231972137628476155068262711192096441074909745576198832
59 2 -0.0009447596269320742848071767381159167175836920716835302889395991233186707299214674774023612705321219198450430139965611458776644584192759955192861310879426650361613251856662100857945561617063072858036020068393089538007577524620506419497052336695390098719448959333235232890200323023221542538877
59 3 -0.0011732244033962412963103401796314639175257290401165712193912456459097013963467612862595306622852310176840517816754060212455913445613597894769793247822858406781011645605646152332453174572746009993950789249745625219542747050127200270517826032902861800401460213418032383990835917274772878290856
59 4 0.00051561224705044897330671753871237647959527623432258287788580704783822604294352931733199282476425612564149142643039077524101007656002075039304496501130477766234457763576059948980602125522935229465504828285606532956648886427830500759877924297684215476505232362555163724665925036842159425862857
59 5 -0.00062054494533752511335642037538623312369260941988258989053761981408955174309238047023593214184329033838190510752681080832816562826333816295492071762912319376233228015956262139016115270560714809325236442868950713744210892254526906758695967449078445672186433520209045557072975703348053460645461
59 6 0.0001769478501890698438330110533932140390082248243703878176928735095537713558129218381426871046998075069831083003596410166339166993251505871555945294747002747628854195065547295203171150358349148464238398268793573281480571713931695714949506720425044880653919069373244193822776926889704045665491
59 7 -0.00046456191600624607946903906625345080242846666821959601489782559870888308459962082433705087037967032064698654139575853276767363151981751603743780737300004764799937089678304135177610886271237670620370499268320719218245703854305471142212560210489174535493585467850744868027758023620467745751521
59 8 -5.8839784384723473308418024965296922152669702742640026365069568228094314493533824181449494681507705885486874867049829946814280451850879314124181984924610607644962054156186129586000992123798556892847378772251313676810036026098594827235885462579948153382187829431594618527002892615761945609807e-05
59 9 0.0020262031947745821260696956650508847127722745240970662763906311519787034129625506098118182540397662572236529524156218647801396563104028248280615855401657933918149790670581627616385806199242653346435916126803537420822925631776217550896309233106499478304093474041430600484459745228695734103293
59 10 0.0010988762380664238739379813332675179082700518747619516096800128857102146754402573831253745544127028380933705877629307937773272332084795948639357710933304732336376553688042319298350111858013810676876119264804964259574806353936160803397777442511896277687330027953482406677792257135980443098646
60 1 -0.017002961266598205199720251405081286103653031860458453847604941986194212500650695283996336732210590225793979267903789593374788644793609864556979749537607133873695517598848598564552139214793312222142982114516178075080206958011362778883792025661801277422460016472706859552876514524780051957067
60 2 -0.021319912522322878427556578465078300435619466027967775992392449639235995146987595985010075212680275082105541911765836141859773709466710878559991951316213067984886280148211727690335462553719237957407475645160250995260313973669055696916729865502714528395437952062431687706218336882051124012281
60 3 -0.057499894426675606349393112578588004088384330686551745792370211624986925247817768903253891342754223531705736093497674802116774397461010552785369679960076586619970157629068659685566014125909736990062414065584731455257816861361702715877923604346348673052088364012185705477020303729268026860949
60 4 -0.00094323320957454959578600880669444072156334311688799502729045983613679571918870224032246570183901407778616163218511054630984845735603227608820574285664990111740286358632992590168979432610724582039603749124044265180756369218656158382645849131354138071691051280257319368025497650701983023683237
60 5 -0.019536272548632749187630766847941132392240652874922961128398034028394662576039862564640481921561504250112907176787947735769906130778734188662312249950142873051117375968917756038008919655126908739761539051911120103735906405328904509432322383341719225673388231671011269274235523035575164205555
60 6 0.029152367864833756958985061788384867863582003471857055920873097937923514278692358790650405566915383904291354772622288062611149068007975012287578804770660690370072043858376828010244363872539512752705639970296201143065113839283117416423691877589087097723920674568660548790950392745070153519294
60 7 -0.045907588150838491418373035333712151408810722848940512348956035375387821925009685243472670387750307370422393393300600636533399039239516813225383487602308084704606394453446527938706702744380884829889802080541897514465630378994492651540580995247396546185022288525270662793960146941762232887939
60 8 -0.018853414432278223231566445959360693978366367744888812730052208214277105852591309617165340132265011030439364735567670724733251238310625002022011632969127570447016245728461859641678024023881184590979751264473714375831374886664070563992724560247979106778494299415878729361313353642440725874823
60 9 0.14587491281844763043328400163471654370840616845492430456762500596068963706580947567148476961410847142989559067310341741030373556626494444742230398245351841149631789888618586123310096738428762046421496478780190867467799307771915797231105611865883071808590527515210293904380605839235089061862
60 10 0.11442796456572919053469829111842494482410965524074268199084195589444425204216507954051329220570468045582317932614656641235557558586812951297801743421244614686023039626642235317249971059516722140043262464746776791247233061525838713423288078292465592389914493449883006959047790624799474819069
61 1 0.0071780657375733605515197442526931475302563156138075488479583942368243605373216368255275151397498114494419957912495926040393473016778229142050928012840761118008171126781379562931867269279950297077894220260973532818595853886321292106553595499763515730629233021289464974082242910669936659374191
61 2 0.009605697299079789987973100421943993882724658821255940881924744464999610708094981031151856349011595424725330748639692244862031923228737270159155991841689652759934428699633390669696929599305732637253975171550555956817842896309240080751085577265993051893877197715948805892319657312237789179612
61 3 0.026896412781185459961090106470195922862114010826014545563824144659649822460088644756189490460988065711885600905719024500151358736275091547852245756621027272362208928695671239744071978902015178097952844809867466406275208970361019959264654444420043919705817438197964814744034861059231262759874
61 4 0.0018801260033830804024827124342284038296979417517238232665505135813532020670488222021093844194623054227007625106052809369759245410349653026427186915877209617287281849411092224312163271608350546251279977030062133154125186366419167388635210619565980450616232656808836018674869116218993294152437
61 5 0.0086243080546062039389226915163241356934801624955269204440044386499320459655522325025162472753128548941083585060952651647329900038901410984685093088116806480061602789277197560575589743053096658126843310757334298822927332666935812515992118237342014148267957671149456133929607927291980239948477
61 6 -0.014427745885422376118351174722602879365609665057091605233888735940578607897574997094806703449154022216361027765331762111696494489643387758923583240711107811370034979241303944058983327427648322788906316624703090563890007939932286629992260723620091936387806222065976408344357443795761384736374
61 7 0.022376157821134550119914656630060735297699905621732458704247924213151886032385295863682459034910617758651516165016221565717120413013064724261298450930930204010657098727528951138983418953041101497249497519047084985122949777901927806694031498821051282072529349851220060120639121998838749142555
61 8 0.0098215717388834000273383120920358641143907104748641236354498373559819249914982957373022927438162035852962271399762006027203559856655789692700011407770198289661098898914211194710717948449784296645822998055761708158165803235706285921780493365057954342782851650485118238138683176029554473198103
61 9 -0.07084221934334587441775566642219278229289843907802460820706909276122589385261809271169012453002920669596824693432991641485935378142102720079023709667648940710304340468942180955388555881364355320681828599521040381681490189301996780869847927480081878265055248398351474864308388910127781345138
61 10 -0.056882936137576748676096755508787868796979477880622152701299046545151569111118305612350590126247270874438546518121855528552769734394701570613137774461118127958519437984036415423254229584248186965329104705692122444972599611085984473783461732352125521154156439890648964087250856900302235327628
62 1 -0.0095504151307373157986407224504372651093504967329930073021007129419565331868306905689098434415153084492667607137013202183648848080963156817859956751711658177232727427939616482549206384865229725456817827575936743222436164826289601427733241459250989278027011222156903453923132114657237092786092
62 2 -0.01029141407091194614932003567072059575070195699278347927881346911445172429864702679463023416272962071497044187919902767045504581513251966548444503005981085309064654037433758977590429110636908892376607319996141128356562792453539269160541036765104935640197548248059666600804632425485132965312
62 3 -0.032090415583484600763996017167898946755822195711137032364582128714273839306031077705774220113096573903335548664194369940542363098746185431345950511599812652105236809740196635419139519702872858761454787665565824785172622546019369277290479771473484536244504320644887678597247114524044026104712
62 4 -0.002276770103405775918963046721585936957690076589891071437496001763643619322178420056809770650782624539501141591343073535079735619151545446987231133826259838981370778101868121150587007892205830547122174891718042364958305538563940242705029762762437900009127485513285708806675475859090463066528
62 5 -0.010172180112426820675830811200325971384226677783475438628681011505160724339660300029402775663663055982913846811675674151484664597412669804099305679158966348421230552360855641403438495335762200901049241137075949029537878050071187776236106093366772233906174970502121150440257435753777427928676
62 6 0.017726471387963732349761079786514894475518239038429194052485559284471858089025928901275368392544548657339967053265832117900641845194158147695316423966095017796817346664206551988914999217545708776753586952207838292734855509399104639650737489782241924339728902490067094880125322798057280761806
62 7 -0.027225728163379703340852142769798877347033329726807055403263658490191951232657659536098908464086182644670829454182051287357360961149457831910760212187609446123700832461187536066573915639067647567520703994653705237298232951393325367058854732586414887668999955936282604518773871237743438033287
62 8 -0.011622285741554295242536892228205865748201298530477820482854500222825243969811412458949200064278314625359474949600872182316262917376147611398666753383740824096500284783584964256022042257775759694185517200606834079379398160204912475459263160901082540770150451359028120479084268527125569294184
62 9 0.084580935925508415090200439991415085603740767498344740681791969856936457052693229136207381615422017076637495698068683412668906965719653574025875330969955155245239835160801737728580926149367062764555573594170945306019002347827749693022471020702702445997214169069513071134422720424834865136578
62 10 0.068022789362468849646162360275521105137784174370151610389864674350405415674370638237414123864762860152062427763393137038033568726452912794298818776352446801397949475245894023421175779901486514117530059659440204929087537826953717958014272195560461170674429144126250117913472871724896721606261
63 1 -0.0045028587445527237562198075657037391152967295898559743953535947201976380849305888278482180300684851538179529883125859088808741004923326305527750400309238910291539158250579784949632386745240240191733965999852824650927659852538281953925202064799378005835699744255455784223464168383265163201775
63 2 -0.0056514125281605598463489298718997242152064936488975935067434474844913265276133801064775048175480138147862939779536381129163006520294926215786002264735237883613124976973699494482583487205841410152619829098596866161300125858878459885540373093060413399756966809293141916367840189622932650434093
63 3 -0.01636196237572084909534545013657628797786445780887676555068623588668894238569456736012658565689340945900240998684100569739923180530504207419918740664496930477366698630147439816680476518346361565097217220524838083195885522643159418885355813496680263890969596376489440797164918213546773475661
63 4 -0.0011644699119459795592500879069366482315624155248604318283389290917833875908030493122281811264852130892503091504748213338425793755883567513364254224369611202699143851349103296709637582268729212314877824743331035392200285556108508169856272297828483237541218551644410269191107247510080117969696
63 5 -0.0052238779803510480744263755445757899982123926708690168747948533605325016088681289239830794177897272077878017706624468110572443123552108088659166693466843108653265340791996232990997014243057528526199994024727603953185518722099378343602509306740223255106498893085892841930701830264487032164559
63 6 0.0088146762322723535209056603697969936194030528373682643791469281489115788650165948857230943908571446211822415597936485774806341866426143490919355603020361178666438593472988358960656863891922765532226957368541483878507090815863871801170117926506367991178561927023495075244673266714612493398305
63 7 -0.01366362493701513807184308791030408499191021185114898422316736063691950502416737060206855560193428474371174347246305863461539621535011204776202149244606339502747049137843127585348551148525899825209851528813519749818915457423798543634819029705390975020299983590317944693316240180181030182922
63 8 -0.0059557020201015007042195713078887441948217618855947192287689214311830771166962207501900876689750696473813669361289925200686739890499632723423749580063913174483642293392055806548065053875064873285366153424391042713309566197265346643877719509038787992776910370092357531388337419835482751164952
63 9 0.043106149179482122151522702818313048992241210695153372612114459301586418326707968805400583529803839706775069166726914642151229652938580563927483118717886782961870296527646228713985466139683740342481848894561388684081697755884296372696969492468526356186742530016599140834789839766055516127393
63 10 0.034607967858401360683052381796869696749701027989997504750291912913473104749551575885473418829317403729275126601420677973993214190161884326681408246856671779607661570426900477803995224156070536027174996862776986193224988819822282868285422195062122446669678462057827532331092795358974920273903
64 1 -0.011649658686222000616116839838170870683535107098055642852566268187792446905109326553317973264532563112407194666302230180838460576179571312651062363219506667331558719611890673067255139562837727432127313160341506324971289042483839608068366205786016433237495627194818442899556380773618460904183
64 2 -0.017151494804503271271385937713849314749546034652793586528723881892660972518025321433298565559142146896129238736997281901786593572094573460579835765925851691831432913431832380904980202072398500495215898199712168165868370875504326441686721938480683213410870289418484278528143887186400006220311
64 3 -0.037676797078373930615012353393932795953556929864167451552040454428270217237131371167383856492421472975128355330648652787773904373180877020501962069773332802201966479680767961184369086488846973187171907788117292241655095031432053309354696003627489799739958854296709289726300056341069116284474
64 4 0.0036472078794415817499930676884047412100362518078609877240982578672736635600476742432881107049883158396353537689756826898181085408684718407043395004707223785756818706673546176283271147943821059722048664500987220516658545208662828276976339535848924305733707508631462413604573394223920419272626
64 5 -0.014514881082350620944377101381700411854662187976091703622088066544999813765832880724099176151927260260679873279053042766170698190071373330636396132032837998813972878352617048595830342201029755114047033032779357905632604180288921210630165785087517786123873528726832545128534471279014029556502
64 6 0.015948779041106245938343438577854846220343780977753521230859332319459397174403836751442966523039083323142812944168022347004085347963849854111657379218271685200804066357157573074941360884174332163618628398687920330824931226051493167268271918301224890149608387403117718388510814221129870431665
64 7 -0.026561797719426179427872628100766894746238588019023445640384082213278126710268356871461735689159761968268760455837171774842661572007944774986289469926562667614744986447189710880054214507006103937985583233134206436236449456975661424126995833822455768087640793930366985457501678749832727871588
64 8 -0.0096209187952415970288435444498447125183666303873189887189380520835298478167639229387189201230082781694562502720899418790785702005273832051134211411857441715057227555642398676610171760213423107562538392782948193929449751385344725773357745103930519033561429606178129657322631014385492758846193
64 9 0.087901541368156579364167998670849125476196119573946127022349889786502367661481796116067061302916462855783163497775511466515731046479449053197113913491433861210966977685384565171377873156654935723025718506903971170268456486803469491333475474185743457697557674663702256079007185529139241317225
64 10 0.064976984474568347892656403771012417106054870952893069821947870460623173272011438292776192953258449376977839709406005448880210711151692786416926174213457978172526088663935699699379085458411162873617546104888932124490757098723121662157758251581718260855115549957908773389171329437482835099241
65 1 0.0061855921228705435237069483531652477156977462374547226301718652274847750753069250061585157844273889426298027701618375180304639084363302442781636919930810564505851192249986480110257252268511700844887497911748464381863607926151209273705522999055911014360808465353969644521918784864451766235308
65 2 0.0077739276980320990160149744948719636586065847006190516816750175936676645455818048054181854095356290746992147939290911388001685236550467262245289632681693891745852965839323784540275472208368575181313962203101083861313598317414533423436376151679820322938650009583996375116810744271911104688446
65 3 0.022250010260780883735756582483961094048212367744927700246418107093070178724412928877684830983568171320684211136933560185541672415484639966454984665078005261056933965824061157518709416008374741018938403920514119528340564987967272754921076749492963116736895368484758334010648562875275329054745
65 4 0.0014121152345080778576279115288139520035007984906398830922068859993870988767387525094752218243492748144435660753926624898458242081486155013871323392931766680042506794597308401918689441423402795634250754910928963896956072949521260896402130518086011238212938649558679765583659672127035382764003
65 5 0.0071684048507760465585120779074257735768705708159535716275052304138173300435052640666749359525472117232537008311914662494268035754335554208447003387946428818630144227198595142838730064000747358209346350590580405312370000719204545010367402546123317717931710129591423507179519880435425179291433
65 6 -0.011906719462269884276956159257212200119620542078793061908947524954516258026561430199370318362704332643077850959766246932167349731508868486112750163586825313045128363834676940322565196230071356067397806535954343108511837602107791539537833209342479960620308715557167566859794957184608591511604
65 7 0.018481203221625032331446133276145072425485537900916627922034672900998958416846361938193070211716096244645121637130066855864436586547080257599904050876704410457319602643979475361866033007795124260189267780725064738570729640517767309303825736741284961839985512489621762661028963778760716989297
65 8 0.0079934254571554825981033346631588616491720614055772843362983495656885348391967032270183474428497078830131334544222281176219429193705633357514950777254128963719644384034034713667426742628266437763816486151257889583970475807116169768496795346181103043201721691094567828287332447831552460275914
65 9 -0.058324699572459890059671600806398534413305443211805638777746683979591592307778058978378960556979308431360639050820386821435734718062016986159196009518480100444207124811001094454484142663597044155343679840748225736403769157464286314825884078222628321838209945216622753604706073595083643078201
65 10 -0.046694914547836802626987910224067972316958155061272448681870039577921392471779313962055332897806441121496578453241909447462928405374064077345932235847204647128518447263110063079039647262262605469092332755171543907166196431639791229897575844786211080178400951162015964223131135236555122521358
66 1 0.0051641040875775401000605991085229377819273641839474234048991567880337840736027151389588570639508881751948905980451215284801607346606254064104154140252510488276901289230501706933205124018056367136618338000686436148331899724584793641231975960126676830924832991482104326049795115416090035313409
66 2 0.007981715890874703018055029479027988013064744971730642243460048312287627983544870716651806620200685824875760302452490412041169294193589655954653345427031016079128383695431529117989094851001887836616147284787326220432466169210191163065587005605597506666205824745479081893892370368190090619711
66 3 0.01670614560770223803763062173849241164667517635555725236406633421340946458097220062594869233636544348972857097979861604489959912354776211528428264226815491816827864667276942031810003335611163750311549337307303163419969658172224732809955747317996812752674915751475160170239972069076546596915
66 4 -0.0020373442495273474513440859189672104390463694883380528654508995264219716103347967908428808874246607108874273280183318284925679301498791988994556253412779598821567104432431847953901777480137139025647508500560238857181577493873868862769701037533805540138657913495508016043470091422463627327475
66 5 0.0066100175876251254918523571585005179074347323221969893417121234431342894676660135121652654560805765556672075768860370831381138602807634788084906460916710824984246526566555606787603446927882304667631130086901482198573173475285600520054016928991498044624630464051123556162526771630458673795814
66 6 -0.0067459063318156177615559244642853949075417548008740630259155217289332994193383328610136221915875424702319557573283761032047172775498126082817088753304179167907302307693339756491105742337593402733448978907547500816346328163876904166484536014060885464878836198789202546404762025530515872360469
66 7 0.011412713607247194040420656297623099165693240352318573545404793589659960408832979031109858804952383421365153414733833083105102553988388577422737197219430531746391254209856077369204407501187460785669770282316043461673829072555130540611013511082121923367088111276828132123309096699459169514519
66 8 0.0040063523484510161227313013013631704028855830384733494392382244620587319386664127065155186435192761209705012496939226130687421289055217342576694936654087052612106557237835728929226112355193159630628804874249927533277763190810231940833177482568863299062234410554581842241255050720972366830299
66 9 -0.038225478532531530677724068108977538948704594999911279261983970424163742065505271630344471350185565351999896479068012697827790794821301660830469827548093239706173003419861232565981107472786454643515446348349929623480802431279548294122275599202264041969315141551554776956474856003221238676776
66 10 -0.027834247914590196766655426575488609703765762535751291612385783272345199474648457225242585658860223655015670626718004830803910816668734990759096111595331022491116120435770301760694376308518293838485728534986773027427358935672734389742092738211209190782909457941993627252560191970480371404837
67 1 0.0078434659714485708441800229885079566687155449545689497115943693403002837160751167668647799016233155408792528634813365107489713426870738862876835716101545184168666243272000309765956052064484521614526511406909884872171968723539679664350471912318322668710691777637931394009057196904904824937786
67 2 0.009830504162554324786900385927150752176345609305524956452923927653182803444310283547874868920399447984917474305396800249774048295277804751394487539834466451645440907401678576761913000972155963872505188381695003236311337853692370230040392623134786136829990415652290598327726214416417703691523
67 3 0.029460175836406967931990877030003694136803708859268669557024268159641274289470989465736055408828273842003967216475218637967385319298282004885483505984998681446243141348122444091993938126382098277670736563280266959166521310579447852977147471660710247998172308911702245571680749333203625823687
67 4 0.002823695458851826696589362268392686240086000282141280470406798888650583294505002128365173374810459057387848902413137208687648551235437719667154405103002826681380038517160301628490020283154301957875224104277327724885228115727755421768491573623987899307426383170270896900435853699039800337288
67 5 0.0091315798580079268339366405640876680355252782341814231494420980438037824215341237716346784498655878329958229043411269836169588790173745629498180959219450445592950611546144079371399853486416492304915800254194887589064322675576395426452901837972441271486771294991758004323111706918411479862669
67 6 -0.016296833821620282825208018445588185133996153214210045966841453185265354486949805680732906587071905944049754696035264437913136332060617566065862732166231669662770966571223822812167648328270553881217016980166765934840731995306734130106422574234570357884465167334224816864830644525942282795954
67 7 0.025091862886548748425148568225238902810898714376817187729225315478045565624838256013579416495247367342958664871778692828914361312109797493105658896161362905348355429541014866124063552843896814601170398552763048716047350791010327043160436591154061859845616464794547918227063149546836904472094
67 8 0.011201437883875704483747404784150247861515049695348021501711381195658891704552412893759881195707398629838221386790334334636180436734601836698240852636855153581873810051540062232067449526095791694716127995455530551513763847178458082343426230430647036511250087947809522415862411831171805247995
67 9 -0.078911647229636665029847254631162983912473087094297599179551739427431262197009132861893410723451789027692400760884399050835507306939448020821774915577814725069447906162136630391868370350165544173502845333364338705641092653168999243447122427708649411089703153641460064653970869605935296787832
67 10 -0.063975465855253553418825315421998221289534948830102699347775494025028057912071497209881236781587557740883351980695205483829297064442993302559620582579983358815113386169805028610933537598580378966024410509134754559145476829658910384194529639574623782303627299882043590363638137439613652572913
68 1 -0.0088689830882899991520174713734246026066221508917265790431276495938097661889309652352763426295833134945758525028606849536429410374413164899780260451092160112250865320845673829726745539409805889787754065557910203588257082037223644519116785412439986656527989711931788819479046518888238129012176
68 2 -0.015106725638533636614163481641161157526525858108022259885908473242886531218164180533262176530029876123414601443877972537411864021203478788022934038380264111441756674113380798559195620086090721827738537791150969979711725426138698305534046141965402142341565021972009669256515494247033395729494
68 3 -0.025448770779748902880879843465399229880198149926529690831980998100665232503535603124681369591217348237952308427315355684629125817708035985478259865840168549518231677666342670286697441858973163207542473691140822782023603758889909843316704128261199326287261333228073467255216918958897295921583
68 4 0.0077747124665943918335498133177779277499239980563341855544452625547149606061883272386159574299715449409447139067279124236241188852531787432351096507498466313570243861570871934776282705649647199147635501038169524417477758518094608484942407481583766721083095455444693834799131641101680880120384
68 5 -0.011899704744818023285898418758837672987114552696113805012308073456402390316641266797112062047891628248856604275837862484048398676542014330101236258293072655604694134236146932596098787543019522062366439452640556638787214834228511483482833934066775987633886008606641551870057809055429196274198
68 6 0.0069824089135084225692992337249831323812224558724544616995166030698861134009666317837221358418128859644044959302318182918667103452046184105261273845594293533429677184083357203192281951252616150136290438047605088478109987281211519218878456284977120162596165859642338725188640787951509669826367
68 7 -0.013709857146233788020523298076238524876067179609738737778583265368649490559453803077767022698645133288188200753312362322920154475049690339218224689341184610772537663939528037707606586006501212042993869356470103361983345424576715115975185001313230053261415984706086717258043906544956802046738
68 8 -0.0030364640075723447206706107780590415505187944676756190978199279900500512401119922613068194052711670172391229599440605085803554592638054152694184714038450314417300196708492637155052171003652017555551986542264912890008586307429627875026156914393188820765635343954321120640691984956318169855319
68 9 0.049779323432782616525007456203168945596895737213451416474613882629384012901297186348536173751976456620403648791280774306961030787263856969543982872779472361799170476712879047102437453194467522303592820351274751146326083414367659247961680076990917369602913139934499181202211182246524078608432
68 10 0.03140874013814288042910701338187751574911558453079543311698825344466455664837897209504959797059216952795941867088498445531667462716581580122592502340187523368120591957985184227095377985689728956788528760865940014085178916299608892781671943010444453917185034492922234364698425457394016281879
69 1 0.0030099015326539507098267602590560451709601863730672635803932550596530884111038316806320190698017981300100870076336868226730647312102216412778952305018003040461782454811608950815120572410037155615673073101761791588811465737699805036409772921177619829265077398550035488191904609613372146110001
69 2 0.0049247227102288783187321555554584212624049112162277788454122323703226364466423384339092179746976358988974434362008688594278346475078911719263061232270624295340087436900378546342808331666636210393973494334391067107716432359626516541522958485213279092450039715461279908448043837241764868475945
69 3 0.011951998760734891462039177734771469855905993313053858776074789345228603035117768030904059794678133041836946032735213741179270191052120693663302199842136034258904743176585296459114987017358081831999792846630991536132280274924078073839597784525915065654290391577422490626454331584357144797975
69 4 0.00027388772961076129914534870522560588222317663811783443494121744849002154785040815685793785535286843328053602752907696533368149424324315237555365540891944773683955395966242504554021505467837326012199869014579506297920559587779970191284123063635040959426558213077151562361122507489485430514448
69 5 0.0040865811948423044904869265620994857352872772639494524806292616918124310683662350244202104182518389175831380619718879730412175866331728156126111594267309397733170024311297028869049395150064786786726980667722512439565098050142074157049851693458011965785396503114327361875546859096435164517757
69 6 -0.0057387176346277752053984127591018468389630735156691059031594086225845890037202178670236554998068487147321317993313575511718838543267889535500498998727631389737231248638255236182022090357734837607188044357231712320475131832659953370466498504325693721357676836982083634581677198310885401209486
69 7 0.0092510412251287275651081962636604079249344104734099897510109288633630361013193450861555710747411844276854942487477891299621330681819912478279324837126752578156390028242160108765466881474775511374601201098717134403612160876242999469235727500981487789016326217449784584513230139526956201612734
69 8 0.003987696853680131171239535667566951851162404250270382488314259792334867900354596978942176645257710899014808411915109498332690816046377794961065336676816682975702505430978615929440841895172598391903325618273984668028781428610474684082889801069992958132065845862807581694444819122883809096155
69 9 -0.030391370496925417285108209268133002554536912998904710607636123514995027452034159052024874390151581883754520078536337559235802486628534317790323678413144451481284506028999955088670144045726424431937177532832538719907216849131801065041265881214656123171897265310680411933803641677394234213857
69 10 -0.023779245510546068903839324932876631690656883263920532420077488075149349283365594991269897420872150492578418034873151737338287730252648622182404108408129564955888196206646619411365468835583537948210082268348898545585023948154490506207750976199846922280096896465235809670348455554511488094231
70 1 -0.0101126654627594430370950873414352922891413767123344221878619786900413958638763384400425300589429647133567899779833747520578685150342060197628168183487563754868329210624880589660818149113799387555921597150541723451961103884990280468405315583306902991110782381985486040244045699831667584031
70 2 -0.013269825004450707521766257527091993017229942233497484065329118964652268845697735974088956418550610292111225242054816112316171634741727985590440540001711929486861613301565871384376991153020863058223619728058587626106773799110796547518236371661033817667598009368184496351068002017646759199117
70 3 -0.035640104995612858062654616854426394394113468060759835189400851560158301684450963383105115298368156953143619016440867131632369521215399033182560527764027021558237632401136306480994381355034623018499095610089036119368248805708783997986427088666690563229918687950907615102327090614344721286129
70 4 -0.0010674785298817472922154923244675750251916312674367643885938058846595890292814179172247252069828688461049866565511157941971288925926990469307379361567532624146864377001100117661771789598987558322744358006960361421409817047826830863500858722274952555066798153741122050371193533869857008600445
70 5 -0.011953363450921213307730645888695425473231309690690580306162474017878697429290338195382416207380339261437233823831860028433558037320610299984836794936197583680087775075605624180152780322868304225173965463107977028416053538024031560035490309323019811520213063899052131918960235861758932351761
70 6 0.018212369313623682924400063216973965413748922056061329309891394517161958354027366592161001581577589928269960149498128889251957550993914654442839137379841893722678466574418553879977925306530673404878982552428920593776216547214621456198159954402496420079716930736565635253784950151001542083173
70 7 -0.028640548614718849602269197794726454708899473590327035055546901842489298168643434412610919198135889777639146795439583262160742463986960489554705751445082400070193151095901776943624882574544537193837148750336868296111358493812970961428684253862769048200526272033494237444012635129679915185889
70 8 -0.012027390213218447729366732785091226070651376721106154339695045025290430421815659427630180784767807571977269320338230028149263453936618846094106811892306128770175042809685046645958358938380148640537058676507989800295208494348218153828372816435188638640846961556795529340121113628728363296001
70 9 0.091270866320293964540110835954910632871769999367408328719883919390368378345950156344364857745653603425236847533054396016420595289039803832850943984343470582719027080357751116806879639279703827728196472912016130202836380185330125993304974218064617076586191319124341257343764959055089225586064
70 10 0.071991330320165126340618562280527996281110991361681646377920848921867964261772700201228192149644746919782151164651343021079081893633338239495790883134818067488765210677888872790012109503170143608187813421893185983669886761478111145155178345788753827947915690832819246753407197296107987064871
71 1 -0.00042702449815928393293885957119399314587664841927349027758597613048330388525730901569164151351615030221522007379195913397530511537974856155712808275531619771807179503789119897635288551054386111912645721979051131302827790130858402593878577626047026162103161457513667435349444654538539864554936
71 2 -0.0010288830486000476958153184870466775076388616787429111102459283587892216889384339356114365876101258840504589047778131770420390894208754264896396912113076618781691695785671993727534592849794615724423665776213121160139524350695217240327074862331186973549448021826132928913187671124286168970464
71 3 -0.0022610755788549454310405203766913355000061890712464342352826174451250203855785042803309339752848986617944566069829951420488220754385375419158850118982048882216121138576142801358651770923738868976775443861859034719865958612878087992927824751537819787260424994323364291415282631152510816578902
71 4 -0.00012244683692455709457232451630182062718022167029237312709000247621596957395178115793883265739565257751582711335978512025126725987315393568171685926625457055673990038895491620055705247689402002059510451019996142866628322607882215086745682947528745489628041889595297651536871333415883417743992
71 5 -0.00075795101177871571021669087054755042039824051080200327206728943906339970639680101308362730125622091586862794486230900807654125794226625186887940357466019061518966058788029758094877053602579394839943072129356967007367569908482141670568264733564241578407671115368218509310727245668654756819333
71 6 0.0010578210877004360527585363846297615090753637753313438746598532251227369475335019059544607219870553972332571764852121247039988988898860471039129601751728717100648360027004953528789172891616217589922899811748953429263250740462138497363487641750289729344772484182865762327184803994420873540988
71 7 -0.0017285885807660754842456455253499973806254180944885150418716501939988101382619581762075070162106629295439319995191101217628291134364148502590934538281900466411062863164219350217199718274796212425408689730997756792806172609133672518222419851130230550096543468614613279184624232058840584128052
71 8 -0.00081015692857670612747767337494654641667694639980113021046091201457175361275724660817832308660721510921960696477851680447023844266694525128730534535940021369960149865224777113893294441322958848661767591811200052865467883541421145740674879180691193378921498994256438181197787205502951288097188
71 9 0.0058692428492236959312873155084471649226779400795908924510415882882492407203488433342857248367687073435221433344713261705570421130652175142043196216051958885670344875896713318218807863307826220431795544573212006625940186856566594544454031365779230574488295668854248424208955850714238137891409
71 10 0.0046368112396974366494041712467453151696209541917957503108723145879868130960631999389522017482811199812601347758695924989036630993978147511230471911909688137820249108700382509924193666394921159806078140347186225244121524317255455442084457349089114249732070493171586208647003885354243203523905
72 1 0.002158128149742047448744584833662298986537096068405570479714864308460034532905889147848816280509737511043821792182182975046100924281702106787639956796680764522069084661889566624909055047654258942642241379148984875557497519275108582419990479596460842657361531974872638958458638363547204954846
72 2 0.0016680105518789533492051749355172404840201874046734802768111871455287605914508221564504435051366786459103344536526673672850836947262044219854181905026825960099446539664816949209038502608183736158678653596873720947149377194801870481821009810222216250515117171523219455748477005193701871724962
72 3 0.0076237429796580529674489733944932569903416958950761927116864009629558964896370430814483839581887177712576971963458577989636398219429503988067564490763368607444396573341949788760643038510066769436806984064194231196412868473981870010689595763445432239356171428563673563859743071893869745353603
72 4 0.0015661656982432108099357090637804435903039287281215597655607536712884815572172793297408127253375670717536947639967126901063813261599987277148160721312723915865379333105340176508910124145233675226140918865210853229764395307106522560060580346830029827887990441253644664839641153379345166627456
72 5 0.002004696275758364419714018035713460390208843315228276904194471520515785763516371817446439165430498618324747155887026306494631407174579783184907347324078487942999499836159583877749563888842836509243842772094577319717304792873581067846243724625750999419256571496446993310563816131237648705059
72 6 -0.0049790061149933910697293589669031671014025136670356356614740748201763512797569807892603096320722994989132804107171607652386738213476437990083868814745669440273592313948930338800480427662902524553848964129035143860458751949054586152892881912867371918749460707164196893165049357839696700938526
72 7 0.0073243966590885913178503365037126147592477715755968461155423193828898854659109472332813042286351453066879730681120658005587762165160123107011568840042638470967610787238466027564310156869556354707388769542030639178090474102259356633180650098796515315923577425398365895456531819498494943947641
72 8 0.0034187337378907990760824047631244732568145030495568847673253693569575649749383590274317522630108547698925686402656378739611014730665803608934118082393331682625176065754005162791595790374463236963228523988729992433685798361480655729068813245599581711062641506780853556285837769636753211563982
72 9 -0.021942239494945560673488385553602813653300085528619099546941988790281375946707105657471296004865672828248173833643661805092455895686371013412437970636452193464776232229701612247152555728308419282852274328899868971246178332971342492659752166821286312688063355580311777623027222231171003532556
72 10 -0.018570246976389737462677230104608649205720333773393595194363636114375182296918462987665032982649140689882319546284987798799729707929759020112871196091104498641523924205330320451734996920673123954649147833465183735148645905126340878205129971427788465904734779342382417466541313471883674550832
73 1 -0.0067062661923579328182371889987044912970235545254428912383520379486611688397982500304120831629866394250020837641485026994129747401957648928683202796756607396364038649206128682148100392080828518616080654774907169246879890023104219583399850171992528831724862996552661302707344966950380501864059
73 2 -0.0075897473373156933106727116056461820327015124322457933130987152095127803712701229386474502873939888144786052131216712731072355390160654247184687006913639766602305533944984918981808226968207503289706345928192667270936221648566353739737948261920387781639687180850209168168217984239230544434764
73 3 -0.026675385282945208490303638046659608575859166735535491766446543946218794742598124487568288849202902312015445952216137597592103568379885614951606033301229244790629235044881387376294857641308415397485089265296544286030807908254279628444751075479671695875279781614455059564063247794338899097085
73 4 -0.0045757719588735639004944544723746601366419967850492033522925063354746091815226453229819395472326033891540724570824003612328381868727979327043820225714792847705686809171528908345497309635558583662060817187100704892784469068935120589714546925074495852930335412331948634853101750295278834843784
73 5 -0.0074731784238067264444167418107265450857161978990655227506819026353501858816476604695373937825714306200076588099070571676671007625417150416668632552176863545892643690874655460006453488917030557137103656279554045635870836896317976361413336789472199448944437145874454471588455892592764544448101
73 6 0.016216398220460262090276300841904972579942348640442135087905378801779548014784676634769647659584722496451686594917304111985091423254059099604044852901587686158594284318137897937426589268169160847723685845999609028681538876689797723587991839431408228525901467145760933105435021417547220721726
73 7 -0.024341625239013066303857681782284844597068566515851093713880003187946283294867745433638238611078851371230842755728720297259737039579981021419370764570463322083398009945803435611851730762869817077331045093353460701547108179238553420784796861203258436855229898613620043859567024679641842134859
73 8 -0.011469792353037970053154149712584667389427200021333542949099917637339932749732515160497725830271080346077731539240028010873215385225323833730361815823545826392169017529613849681429112602746967190003900324397524741902397280816405135751839750805923140613490253627951218798790314963668226107386
73 9 0.075114386499998568104897692420532999824251523123172422581964302388648423888175080197224364990901623929600154775466212079625276221363552212901074057459034986123760908324558962747129882054005045076714787382852672130728194192081706812542126602749490408399245280244239605543084587281983136098044
73 10 0.062702957490302399442756454148302055009281380317954534702021793539084224198447323167570547325889927926733412056472175273612978341257459319184266229638112966477113528868543339020032860036245664470567820672851962550583767163466766638025469495011386570547547527647464039732268986819591058490728
74 1 0.0097529232791603054603229498417423649703952752372842914292045893483197529256910362564526195724552473725859708608905605131721009522100495009884635806617155015960050481316988396616726268802422918852893176475413060679610696852877610431750251908976357946318881642409116976684991576899292588791405
74 2 0.01368073571665797269712765894003259264743260761994608454793460209254967362852751638506546326488500539415853626069233909190814056336507415369026190998303793265627426923175766088752071262277448524639770784294155009867785617881238530141524948258420174084520296171162347754745384783170089786055
74 3 0.031959719496929837098602340736607500011482632465091674358698250267670877212201492203136767596822927662691619741659433713699481712268012871615513524188340925382025712376805432712526189299009172091358611016858462176935168238318682432233504212237147815106506837733847348378271839018482303259341
74 4 -0.0019662896175942836746055258036381321784139197091361191464065865133033963250089501784167760080411556980921617621503840530505299008293204725085168801160513797274801282148803031197926952306144534053025343596036272289407457251319549381995998049659944895784886216806281530784856590267056284375021
74 5 0.011861448364961499539758027154927738655098476004918949707571031985059177615005425453758646401506526258525526954589995633168315990277863405720883475985592752274257033059922468976636501891802036183249517246773081845306729059609405304321430586775767032174543040659887247105476266922019211684408
74 6 -0.014305718962874150348608995783567733283277336208658352398246587196723178716992512385846953039758771911187996480256101549275859485480925538350405556030682676479667094475772464145463123889359831307212124010985037406257066025840524967182927587808287406565237547912366347893384159189963066754923
74 7 0.023420617361408843363341185969676375353769084028988984333634853389419952476059760839739259276343468909228016883790635250771139927799800649299599893073760523590567237519655254217973422211311489614028397160494650211779053893330402360225360325291177297546055536607421595685449680912704232989193
74 8 0.0088634697076071474444966559141801765919198221639629333995218429968282328992174500447288994957793874976394091743137586077273726564009193325671339405465064544552530840451405215375650614159924091846993453982258574598300536923079509452978850573518350683441323064068055630609657397607155045653027
74 9 -0.076559927265364929872546069163795435991882131333191085929728657543938262844200295124928304279320435650416018990682883628375852133657771414594826248887483605583283079097226450771809463960206086974668566547794923159060873963481237041564242939585255038594286508898779682570164502574308849790769
74 10 -0.057691530819400578605868568513266280335467632412987365865469426057251358096776299274007419844019935410079329091985477822295298992498382679989202228082503902833221601914389909384069645996581524856015124513586084192287453837687327999043174115452531773270233149541022301476452054742523326993006
75 1 0.0046352005463519267309874514905149354622146890695221724655582668383599346212093843361107598105491789973767602534435150055783391674005603435885958213681586479425445830208038340751090850054571135518133418497396492157920312783010357781342771113171509501009962932530731187385670850298962276124893
75 2 0.0058260351013013002702630792191638273124382082574474176615074210979798975238976524283618648963100309605635878834704079589026936452206518378832515526045593430847733830921762656138477171947949834004109924252346575698550857555808147053300840786261524443256684667190033517311003985186681680837536
75 3 0.014324023437753905483261704443546314629147023906756779357849078095183794019497686358720328632291711455396376757784011760371014484731923948204529702340996175132714533447250196672809219937483132743572145243229094061888109711865738109456671706889503581364017115456255285904460786148679248146299
75 4 -0.00085833260295228451130178543359605515179308469808264682599519507602838962813303146846203187505285494214935088127686895812190921157636625179642474755142307662224368994864834140232821956774468321592567729496912551944462893731388034236241288868454026240261112596060658396668238084688528603418303
75 5 0.0052766804193065245282453597450647440807043797550953520984096743305763796969806922185052305447581112572724239884654378678971626148870993558071282566905927062440578120274745239191370445388043339803332477146431061298500828759601507455723308302694510327983525913212105812493758348331058118144789
75 6 -0.0066157976155419633814750087804773542925710008098994328141955188327644154155762617500186013823242493388324205234572349181942993230017720388456307854585710188013187459189073592506513147740983489755934812017527995574509317663964085999445240620925935449972002104023117832486179163726688383994969
75 7 0.010692110444225169846780282699241827430784579314592888978743227074750089411870319782110702576400480116032865968416959567004779877242213179967166472783967074373630947259638934633547991798503875948562882101255802440018773049082032696277363827805832422106891803560606561820654119500780469914185
75 8 0.0039738929000445947345918927872273446066955960333998525103820158365562182387231893464809882640471090750446558760261969649135977591731473361547044411655089016464431645567261546375297932466534563902166112501660765972663509751332249251508541677467073486351682632671402268036905873023200709696184
75 9 -0.034386638700228145199630075615104063167997386613686867818121842116087685098782400943425485159260485124683096676935302315504259156243365672241794907774989647230433789195090499984207288938435935216465514602879867614875391797759587963318815255290001404734923172503466714613924643610050385160713
75 10 -0.025997443876815820562153245778216755065735996428596741132296885170016474647445320732272042510350484149359282505674108700043031172179180452308966861619228109649096372675062739536659507987602348348348073094364945823300860688248964436733344336237494232832221116075767591451040489796491786087442
76 1 0.00037741031171418299524675891171781696100685076683203090343387880426566475740656939958696580956540881951431812015394560558621291946203476694293340700947406934384773646549711513537693180076430453937166040170085117585431828938460725708744204572706886392912856713146902695367807435015837621677504
76 2 0.0024402239287461890176497925480287313225143365416674083233423406984329857882222967961847742820410305693858041185887310026597502099601673585624112588076500787499216414559037136468534987937018130156291045218815737778528466018980851139013190106139332538742607393046306879596300750641953668684211
76 3 -0.00092832683606967287334823810341674577799728314711009474068796598767907232292546500851791904369129770616128602852564537129929712485562427647238222813603719687938658325079457051561937829899748603465801473258794267377237079261971898331027296991699953968168400323833965671607946634428188950437618
76 4 -0.004034278082590399901286007977319855167429999337030631731599143453859335630190714409671874873003958125814597250903642186058535669915640010673107082913533394803951724965131288242475123101775645179421662033054539646830802096100023392187772512618003865517934266562434529183081942431997516437051
76 5 0.0012824061008012646118537998749512576806417461649403377133938540923072193228531401127439481491124172082875135798624666190796201708538280321602541536247539111400961783435954865497917462042786958892479614013258183334413121769598066048699020986221958064980413176764215155504512815081881010920566
76 6 0.0033950473377089918845533751920349100220798738578715889057164994505436536917858343346400496854276153781945372868056712319270085113635000943250826054564440495241671898489375330626280243937479830289634672170214048587924002448535993473045519703677735596130695001940900459749556296481496607834822
76 7 -0.0039985945664909034875535829137111571092181936631937801633774049101887814933383124234469134523481613635352856603790170914762589029999511484837502695260610252486395979758646015255581189559719409551844329045805721498854800782226395859606120890138084043861804698757549146450219028135881919264745
76 8 -0.0029127242070823656354281872095738653210661095655050407165994425516492484672962701416149115553388062678409198537923728868134796937588895757131433438701465314801826195702244203916289976091239102153123384616067149875923649203976416360681555297593251393255415082745161047520251096740978847535828
76 9 0.0096176800667765183632205576754912893022857380836905497263974184454484670803438433319716406140099093593404074654525478105740428544226624491896210083278555000482299072334624326488216200929687640741942926604383910363074613039972374413188474463769817231841707067789363719797557456456780341500082
76 10 0.011304593720868648690318117280595973095278192543207653134999395293296130734094008445441061820595281341560760779453064017261220212384523233707378391001482559247414752361500399432655888944285030301857604259566865319060253209484883017679725637525830137284306822704548715638187149491415958616564
77 1 0.0026892949630247134282746871628329456881027000026519719506555011469238845913427396160984949602959035178883218936532731296760107232761911964740612649519106063404706732435380410438539562044897478627580630142694741963255003885260581222615627422485776592925090691046746688408022221043744519913002
77 2 0.0040706906578176366715620673890137606391062830381455599438101353546709302147786940074040316066779574957529345667619424017029124811875171807813184115727970440863850657819959613956909169865574847607514355801975505176436806370970273089872986428104026249364906009340514997836225058878727310367788
77 3 0.0096134449858581365683544376292776216608537740342319369705449370865454245025204575745555851070120834491347075649528726185139729108671407578649091889616609395043615314914690309324122316881868359530953185940935259489942084963883256066841351253441337091902734759139839020326972004191195590870953
77 4 -0.00023171554003520533341927729409456621676422363268506089349871208961332369207885043422152885244934605248941109248457555038575842163182719492527872074891701091235939606247191340250186464487157085980167524161774462239007295678123068896766288152170834696340763919457221236553059185835002154206061
77 5 0.0034435769321362051478231727290302895729696997451476966663243339589263605516251170019961394794307988233885516706352342917350492617992972207482615665004465572219078453598292742401676929214336843752456953973178030074055626447633511250220326738831052238433340612992061335162295398069075943561204
77 6 -0.004444983093071252355871082078241464025478741723340381510689564449095988761913488142899275147917755951397120806243380367136208999407198337122215736851775092131254154053929959412988129127855250414647171058954771561117563122820627750932043082103166997763293177178539891915856683809775999366837
77 7 0.0072191114226209105074570598223675224274211566691513342798637855663368819442658013519687247734061892245987014430343381199447440343927942073270249089996923930400611250725804800132423749025860672334737882931717181359491905242752760714200688821155869275605155098841031821075457050421153673460001
77 8 0.0029112545732620592079153776645688060888409194045236671075561258693646194626521499571209288142913897194886242788826665442075812565847213809291020510717687940200225101004964804373182566331542723188676858486057765399672531321815074086529527892507420234712725581094676814245371702975710552343022
77 9 -0.023663333400127139073981470857377871090144921358205862311582240098041212912868150502867552378385912841633192008014889969152100466941369648370203639144094459727964368356421139378781874487260626217000272059456715349708034678969127099880495635672037528567376069142195854775596665825394470653043
77 10 -0.0181512752832381036026033825433324757121952854044467774811932689403835489899779032289381253761786629359265000191234421242361221403063881603848487967239633678765084419737816734496018221644528070785543307313818243472199599615227677604111139705426319137604513565161048760152760545149498264311
78 1 -0.020589529820021985318414935230786396241601079228229733547016149055256996213012733321342297640857286477172801973431439919109951333665637139472041168008737809940935560237537911103937483023853614599749878142304601499857185726663911853712879041857562263034790665830173211816965480439547743220735
78 2 -0.026294003074114167764158370456647021241135259313005635608370017350381490323233851504014557643849450921625816687608392440659732627301445113764087107756009838109162152889428071481989527525615305705648221694096465317792672279337331574496928901968425615047090640177772321164606220464956567213424
78 3 -0.069996395723578966729287293630467491287597452074613143147444965096464340015360717948572936397225966132429902470177133234603356598123495949227300098732259442920465259932288246193833610411675723118184492508328875397597614690531880356719393507625899893746792588532298706448085722746154083609639
78 4 -0.0008964908976320916824120391668303495791938062675954040125139984089188190218845366307244643818923360424118769345023361404492234737384055697604040938488225621193299398969107482952681216626800011808148918644032723012092874374971871114833497092858399036918693483422420787102902968746070630944696
78 5 -0.023897834326361717580607920909837639896298822319242047276641383004974096328492380102325517063863330593718920136302995328034987762577830603023689925018852103412190205639280101575160033424158822921937752654361832625612600403498284171655345344327979080304772793842354981571589443551840758832939
78 6 0.035214127431642733584080790764138654838558550165367053443852090775719876433727699927601816576438257344127929809392192362443951693334575609352783729628094385371954135779624506149287988865041944015127556973723407105390782305016598875159026542014546487359338511211079110553169549008846782582762
78 7 -0.055591502618894260607077821994316634798117853435711862568557475098937772726329161654816347398229380503783492992709698176113128707916596770345565764583608739930531211827250544291017592129375357993305051034968671631127661985472057669013863429136490836859278130521543771657365651280569395552623
78 8 -0.022799110865487481916201662344813636498342837417601270658589153571166598778259355074488863973236502914479579953666624319327354744745919548829636178246165500876713608629519451059379189707237031623671446715628941551904140740328253818752123437905725129617690486719566271988913262047789504244007
78 9 0.17711279075532161495639822997182019375576571634216662076686839317805795862911520685552427608051703769640697766781936080111495315034289186542031535163099077899998574768249871193044509839888334968770596936037550041795048629887547023183018103988729164458691763136150862679142776784833755615336
78 10 0.13867159551745734769568114563895574503816216124240702393312277373220190653097692419666828962149932049849440443481753447225505694223219755977307882462631818883875840098185867333360121949322864369358331360430244637256453608641123423458277113761096958414499994372923382258197011158005667875099
79 1 -0.0074911815384912428145176254620157938910975950714950473979676050837715254481485754526244221456005000831629868313699089693499191394210575783490305237501490231950856853045666806700310496452778381404075337543068731124468506343776156707603147140640356286566104334223312512767252067594273887203275
79 2 -0.0072989317479430666716196053334108719987898078763101848303423407023081809063279214403964845567626423590496352008305895117669958459638690670996588992760521797624324393233400495442099213846194223736207190258794875866194422765643024780529452890147072135329305316789741860660492088310169486652536
79 3 -0.028073338170548799643982066076597268117684699053165296096682027221204334782492212822791179337302402719121470808401296978746137452462107770973161573557330788020095021171705860713984101669193829100269964650406140321850239812068382063506430682274246665673071105642271312529415329839470956996762
79 4 -0.0050353000749338265726562505635053284010340271518349602055139046320781758709170727989344710417614545417372327533508626841647990762695423845430324473110905365909957983424517053227178772635120833560126585840267566583653489906478888816690261839001692977470812696337326926480372713099036469447714
79 5 -0.0077289818119130673618802320100507361119825309750474817560847746520870133548866903750985058469450497019291403563137721085811912952695629974091089336283827541904364462896093659879472517792128212787233669692727781470797424000879866104112909866469701635535900743619495823487983452177749890609777
79 6 0.017473780819991528378641467238733789508998069298319014119528839494414321393615893734970603854491356462651633149828448067147568166631441376241254999410503779275163602105493492427052809349376379084829059599618270680422604237253061728955706156204537869345837622150697042290837924386520788188968
79 7 -0.026046598731650863979959376101137363569723261939947857179261518095716024144354275192741213442002379034845286679860640394657272942309385631334273730800198569068924993523873028662697459624117087639942701681963960712762070168267999903737263162243227192820388128336079975173019715668705852389329
79 8 -0.012164065240718941265188371661249111125666272012308072775878855599332769852220923845114790190364399048541852135245954132407908348507014792523513549499569717992576471413817993989521961275211414166304336932138932533068549788185460670133729440691319013390959197325719474583345474382816412878249
79 9 0.079455889248934589142964549947799859879861463413382549437978860233598331625420779443935050826430797406225655442847430412257971196858997615255506990755937132212171871912912625286087997480148247140634282903982470044976198700082522265594199584397977512558595997926463509184791507884407775826532
79 10 0.06656214899650199538938415148559594876459202091158282540658973636109440065326693396339118803711045031030443768807454512459037691004312477902386377906274500094218682883746491997699473574510169553343739799484726143344753770449048815811967891810278405817671083135073606334537807496576976514595
80 1 -0.004361888614007569038628900961356677954138137319551160724288596002316653080690459889652328055704227890136450959810865050781585769470265951487737442895968660933369113788090987334676772964455998514672686618282023188467080197649498931094311287430598483847840389550056980252868305507759779009799
80 2 -0.0067160640504011474779374965424530394720080046360740613738495570180373594890769126282362231903765765128475203829643591476915798624011522600380264323027191413345272070676917019327144184984295114469545707865104428441627787603711730650388757271322961063204592801153231751693292463109563086094783
80 3 -0.0137149681631937677277022653703777935448871281582713825818390046815097754966246942699910061925055067637093469507978530616706553268179483629334059400321762675957109507717500322045657985560771004167249428982692655424019473491228288869657244181763385389537957798302347798676159857125409431348
80 4 0.0020347887736760213572567159403824648772684830928643081068080725919942819214051820741073062382545278956610613610743534089814996659543484322659987727409009768114824121965464750911078475843884604048474500343599479352103829502671476281082194536824898179198994357431818076854014505446042958436273
80 5 -0.0055629985599400918562266510823822003292807832250565919206503090586944102254726763803071790254816172199638993750805918025139095887940817297775153996906377158128445569922649023896347655274626935517483149668211716420912635587254059797231857870165403084654894932288758456865095684590315126995545
80 6 0.0052653614732869587432995882797322406474516832427520905220128146230513922622601779752502712573458414660055417582671751663319681539712957867237514583616426907960890312472904698753728715994323951542164148375424799368667331499279267452995686488439971491581474585454069394333664071804892079161647
80 7 -0.009074991643350431648043454750678803856777574860305247696254087858900602427718124286243788908428952320023737598783611160392003280076576276957324692939303107201927214168392703519809282881082688343562302884660735480842131689461099142381747752613753093850662526667095576615207341463390096339782
80 8 -0.0030317510891560656189121655023142476809758119141796989317589023171715138293826857265709728367094294019727902379723524301352349629289310215010690229120343180304176138083170101656277178132511207218733846417424418695118261810154938890696363751716522806892535373968581215457847557399636585772914
80 9 0.030704240653198864357451684569995693875571786639780582911236595037867373519535746945959508552548497969952517094945897438337250740686783588250966100857744750017077939886228246937100701553640639884587898761916749889046970395811840179069660652712298020647737041759131139619762180746674008244697
80 10 0.02195467978858550063686931001356997409255444660119261855104975410592380878637254520126268590553837142676513809547207286079034435547135171953849761613722131809400370020646354380944048452487693867408780224267593564950621439344738451505113665347058892521919967948803060714974813371003469897698
81 1 -0.0011471986824969046944243781054030119900071325491509535329472022592979661931117542413755053590556325642616997174934187752043258907869237497417793157055865701294386165180061012584334419787618028338756643115330478562420983838329842174830840342268123987863325331295255812115282407632640718542001
81 2 -0.0016173590408096502395399651631123671560630800240410829180047423952528752416345071679717785849816592359334103823341994064427748629582827840767859541137192490953544067711846970848563150884857201154953040651916413263962290497323645080788537997003724304187688790471075865353765220725196848523354
81 3 -0.0031525357524729059574573905370538666188396090613248870869039062404611389197719534158560947105981070574183493916459620037890025796018174756726517776582661809455886177662452858797962741728414235738482317624905277958305905699402363889217260639602357951847701657623626238185086130498700463476101
81 4 0.0007273107987927230196933836061959623888638777460824432771421513363662927137191284472659426307416406926978004538107208613481188489718772780398222794699592870652556908236204794319064742736163992901043563331477891456182360073160716022534098476143212033808986402010154429623769070172894203906103
81 5 -0.0013716216358283261372675060612913930981823405852651294244534230064897059810612717080708923316525298180633881646084950426214795658132604561987845241982234995089284468825029787743526984119590582871317756235914286294932734282453776547417173978865119016642822368257578314101417889517778940678934
81 6 0.001107350441361266080953778464476286420294479242293696013354435376443851904457478208144601099917102846737149973028421290758202932618628504213612764128022470148326011198307107708672363597373126577165167420727133675910584652614301213041532858280789443735644932292683673617793895023349613266714
81 7 -0.001955917208364844553542029519182701639027856919620667945553111094661280318286821318638600137669645913050549355866839766488071925551291636458664475811037096751095451562510160333321578739796893995848176184581132056097395394553223852833193791187870773162917782350301971785455645129166288972899
81 8 -0.00052890934372597272310560926763137205003332432312249403135881873427120666118446445341636301565711810325400381355363494023541324523841985610309753192333965642151335578229401111519117787503970772018132830384916551099463436812726234130371654099469367445333448756719110427339665358075624014807753
81 9 0.0066078881697131163254703445315309995714901543254559114335750197373257464188853230421141452596109880721328587777057448065144816260421813799632974231554228831552485888407431001479843475674918434061412048235672771996451129182393470687114041750724636244295500148427192489470393538843538753201372
81 10 0.0044858322283564453673477279192245409123626817772058765928693286638130767788320714960673618380115013740608479553394046134073508397023246929516622844228714564783728760151448558882300199130038162954142182759325341296991761153372982892739198496007546242848810904432266742074060729843156413771253
82 1 0.00082288539601536095326020986758419399579321463109758261726962368771869617339152972077484212237027354119062613964920927838334347914297877060096622199308602208387487640807023806452584675304927891746131430117740925930079162679191091960023090593926255408278512983976917738323419139848206015681272
82 2 0.0021106990886448020106829091964991628340739514235157104870917408223300127064548744691429890267791538689500285228935533358965460709104784712966451286488973959299061568521140167265233020394606418169823522156827118879549715019147580831207663434375442851811714244426635765741578823660550212715415
82 3 0.0037921383558369571327942907121167253310544125616794149762082958754927504221435301868008422803853848006199014578348263562658595905446016905367890156212891727035917589916226466638145334947602912570712182668977625673357744161106132104323090916879871003172187084231535319589443539131134766783588
82 4 -0.00037914886655700268413898137853386699470160284737072435035712794171991893822176166170733087476408672105337789035732596851393742318651824754439947555009561553069764936160472816777142311184001009371870964816661913735678094666541794693727312254706313543462193094201167462691788059113332751735178
82 5 0.0015056058135282960895084118605195803231176738706144047946620356428016354466012140807508391283117844803005931175644575055273091881877593815618169370572960816578755502586906606521021839012762765980320686668256149587030869461164773442627895267748457749242240895732507511535192521835734831053857
82 6 -0.0013378398908806263354630488789477539738728931494576180127923802207926707572849557344118789217817681831073751263281450428892416395085501537740150966506628635477791431995228037654821234882241232629165500536738069143473292708371978092225791039338706681694284763665684685928816068714074765229695
82 7 0.0024218426023523748779642441444297044693093339634841449160983599016677817387483447125809206246311587582300292268017216273674265654233325808976144902168329463113397608893978005568321425370918760161816387989202533171779215143265818260241113619798421684950105927986800924551107595305569866281244
82 8 0.00097387989673375871835987827223673990455627447745459642482404530335490436079888686752703708784364444940193187672230332171224885981403765379290413244024042587358730437126648913467419224939025742138080407765587703249908441441047971583094763622708109385609147218719290992202715055040516383095876
82 9 -0.0087767574003596164847681453002410170435183943939986240787080098358914306073452939801858539096290864792829379763188860976745876276733032173463611194985053721503536760487682513342173681141179767694423204665387171990562283797998710061882958010526226166333028811572249658454032843989379835785452
82 10 -0.0063828013698808189541620070035546057815174976078674885509540712748052601258354806427896821003585708471961742943446628141089181576647497207868869692634231325424136679749277613974491331854013867069292097312029568371282190888475401806813400373981832805154614424779481379337641710975615936548202
83 1 0.007815031826824236821466968241807236792480174723402681436203041874192135502198732787507765493925888984087263808511396564308309213918299856474722548453278992935973216535508672688043056857463888233046714004204317555790512756229018809111991794506207354752746199787453582067843270991326932658441
83 2 0.013759945842430519917743392052553636838265219248408744201205041017843709165301147083273339375753827331677144376957207106103728364610397828655762494788284357426514183727958722948779803649035075915074496778149473740296750203870016109820886588855150596486595205377879664644321691437398590447795
83 3 0.02454198655649293196182796390597402679120543475060692174909852455044451553496202923683469423327882549259278690464057752401226086423455499798988308762587401137244487801801248938892444479806837496199359468815375066247951912656996462769287632029203309832254314451018479826286538463920877892461
83 4 -0.0056402026702197790069819143458313348885697968099243772498294815274030914786162572986568081372909614635001213075000878948552260767712301094789148237570440988295845890192411337227789627539676137935319491342226127063544090677880244277289190924735260661107991969457519805758419992006898712217775
83 5 0.010787417372179003244241735901520853017173772791071507601142513284980688270166231973407807446810268500934229054557007395029044088798838855402689244514821340450829354309651757931617365159834233183502598827821747097488292769410027569227859714347974645194547949026886454322932805019394165890101
83 6 -0.0077984896524130363329086112442260359756119811142316638604709191863297208989554796952159173534978722577754083229291650818023719029524607518682791039138489965098749507000449339397067040791686336133383305077312703257595413685209007396846126719830246427278450667176494181823685725786364440715829
83 7 0.014454479729454024432210535580773036949650891951794072282379972005509736774209345800997591677994152745751668869044216190518171478488996486311417742618228763542871335581741343127314287591169748941698680744698060101513933659411328926988670290281898995928046243705710416125004429071840118158005
83 8 0.0041627279600385811854841662781637658642262698943417076579551079420237908818600792991208369292401911101701728979562408753503794592030186476846030514136219471905552915572806513651277627945845636671850197087469061946006907806536765731883945753368652824436671188789631378453901222800738667949791
83 9 -0.051319865817113573380164310534558601125382804926361276106944259186248436921070876357353147152856524003918960639598827546337297248293327487476298899507049128892138607507923453115742390328292643036751373491520327040797222860404830416433459492381133586522373241177940389924188217322403453646062
83 10 -0.034541195854700718130127409964885898392631403118255136102291291608573440920331191316607447607218217918043301381421333551434048338995874513994642705545874266070174961403869732999503007222542553549186517970157225475963136462510086127367289587731225818963785687924599266463589240977433297822875
84 1 -0.0024439697938029826397860291355184754296071653881611292138436954214311500162028771438215064473704855909149174816949387111452444082830490048596752443986340617832558341758889224649661389650942313162813721257392917765862327518466928042310269509105900362101970259731991428609557759831393369866419
84 2 -0.006506073250966146745897086280201337689690643510782919325612617827637052136944382921707072484745580719229587815095823906666174875225245527122917385689717734246681252775087448711024047642601067919096802250195341617184335288249026946645265691074490959071051296676884450980848145572666114161996
84 3 -0.0021395261337526566306223116401482485703662328337776508787077580759092939915093445041095445826686828797260141054065576825689584839895726908734582035437839006241606132504052578950789548395087138701476412636381369576719776311865499687019185727393897454164272429243025670314707419830978760301493
84 4 0.0087867258066570020056715473784957847562146982704661765680443254772712362631092795880896537984479574225269444223223922145261053416477733269299199339509668395196308832127005076974272696445122180762674130499983790486004555276484036548179896379140211413103541890925406117579125022222155684512062
84 5 -0.0041919357909195697381614834657856840017597217352227336908412187976367354751562619207099355811477917547097955687183043232851845584826472845514971403990304661751915906784659133316925546345156935256684550677426962499463477018450730601775748895507853000505597668863481041645949654686412194649791
84 6 -0.0050339962743644026902486003184699710394411161699272715920975274152205232170713352375541259417118067544126931660088724389497288370261759811927102831623803582088639447367318139560067917548689796120112410439781692593974094219245951879727121043694974790742010409293395727476766486379461716676651
84 7 0.0051630423762351292875748659382283813158628952536041764900773041604170849356918868605927856232344388767958745959701779169624310249062988483263271229071726388181951533776068963167533935354556972331842946745290771039039756746936311513629290788734071352506032780734436460175079496004206290730817
84 8 0.005030489725699798435810423505002144675948559424774464998902673416269464023205578228956422208840805788803024482852047791299947012517494719414857311444676175367986081945060643891106238485059079388769010147774437512223804820338894671665474982599318959431239697892220128462353196176912765266838
84 9 -0.010448453828039157740172338025214859044544238830606146550718787464038692602059714353481909702743551484421677403957881767280130561145090105510618353430651076936240511618169443927965582257836574922996707320049029077417934043230933907932006747444438090280608407498309262596756244204012852232272
84 10 -0.016336023621911856456083622371923642865582728208979632657279187870392007379749302598698844623276411679258746863048523199326824360027822901944734917734405587908506665836050953184807187619062586782766884919448372940965323541422379302390126964505350705598863613343518964631056959153433598296956
85 1 0.0029671562269642815534010224770911615106713162447752739853385640589744538222789081303600724588877304603127886372110047710269220679496044627209514419598602644028562177575711671257420484655267224193390075020358230233496697914702859286360954706023196406916405247614748339603074342049531461786159
85 2 0.0033640233531129549561091223305794652546417074443275106218821711464841606406325954351804310806525377021106611854989401436375544162190227415975963346360911671982046769439222374746248458683791085471502205180047370030799968570114659769633256893152072423805778149611362634770010149217228297523495
85 3 0.008461685581524158739912010720298118964870526462611308338545748132143123704248855510429957887331787664012153472634079783329476430501651317313022414871365098525908936778369959436909038150788508784801785414910784024700682528737555003431117397168774956595684433165349304116223878654997625995784
85 4 -0.00069733166542987938967193735018674655971641204528517756803552129291050231439855876753583299554360371446240168048758436488498433940879075554676385932065176973058166474272989201563742091921995424482195225875138091137980664431314425185947308064115823312502752776681364358372830777056060921340498
85 5 0.0031704642233830713622700106201082142100345031362235954776972125428311986470935377221513632040016967476406129435330563954056892252984699817437080567932176204359038860927667576698540001860022269862009892929342170273066286310875326294125795073806914208895790955022610895221984977234216286609094
85 6 -0.0039233843829859115341470482917116219875983250862176752197293470018002795505637511397390902775031344041566598062934398717566496531821183082173181047306327574950483102452996011293072645187284897788257314236603257191018193109995644161712855913622198833736595374841821772491664498066223819176626
85 7 0.0063047174473763990855034240984264249150798294302787716997547884937698690322335950665622925682648469031122680696012447285382860677813882360227401930510653671675284540594330791971013270900307437229039831761701842531127554016200422746474815050618196910402384810520312977540218243979095822997688
85 8 0.0022193498596472038616880467742106887387928218566920758083813985178502306980252181995257685053879201499084120514464146879904246018580268821380366471204110301080000030031956800278250716023348378983085073982444197254930100971269019008526605189980911685724501589589452373993754004670944051467846
85 9 -0.020000851759994134878234109607486549980101295419232716706826143387153732579194563505358352271508041066553410295265813294869234439595202735084961876648681122121536126557343265816376407863473998821855801560176053307249325423296521464624231145415641686810019217140069805030376408682729184105293
85 10 -0.014991539424481797726732073918557160259977571432297901814041291697225489918318043976753153757160782259276666156013064389643591675317630525505130166714935805014690498699785272179203428476000618534899529482427968818119949135172741129583778109001254401707260772211509752611320381635208631838762
86 1 0.012353619824650739686794445834872014327269177091938678179458782151121043796211481695401937428451114897059261981193972879390128303719565138276348544568788098736836797318804142999845501463007055501445504936221503963690681853574721574762954462886397976867088718399470252335644464959293504610404
86 2 0.019364487550166717316957843494225771500408793695925236586868896951364102294662886935506106742482494127414109449293643908353431358163907524696339716230542560383920333286857471273940395062012624549113466645345663737252527053289708294628729259282369151283488969993563388638941700232569647473256
86 3 0.037454809039955501911059508878470925371290882323276445526376056391590597760961510942793147376923836635328641490555679662858342390552179936475273962062859338013112339386857908950209076101495961383273714197116379703404476664667864646670607904904923288221111564362824826168505344969338961020772
86 4 -0.0072663697820904381319820700859494569041431926402566435543330980972115743462183215846244556893107468224665399199388920957633776404406894493942953090454724865583674858961711985664454246042817160746637087523917149011797252199518708950564732965797214110284120675200668477481235942044793878276705
86 5 0.015855105337464770215045168943796187263310940846147546004167048732348597658657679722976492303537271547781431728232513363359084909666239089919821946010044698127112375541426185821594086891657028318688833531120231480278657058353573417903982441271821314852327397118393338834577998791483379284119
86 6 -0.01330081196063605195571213313332059975100067903576639701609120950637838615903293515486408107637565697054859703143875744583150363906491471523217314229319542707500140334474099453713233708370912379244529349666348160674942940402253937994874435757143443648359268946296970067042174651898967097826
86 7 0.023547970361097617508595458041953905340208164842701625229495696997207755361487554723483458344913479485193866773200476013541021960498423480917907533560445116107885262354440380679154427536150679350824527543461389920683379382188375007055943782957214668093898755436921456773522906497917688362903
86 8 0.0071803778150348823085649727595037964678798738308817791433857807974192349233443666876926909124907444215958247933353661552552975560477036649841305788003483813507694919177185381976561748020344465076812003113900580471711552475540289748033165549541107624333892376999909728620915540849763109562231
86 9 -0.080808384661724922624841485751592950641468013099633185494576733962428782922621469651032934293036835546161933406778790244713662874644878972582339159027185846253949408352006436509679026435817853968087280047061398118870395091165089263891859681390406148555425090690648307945936061853048698838418
86 10 -0.056047255832491395964611436756836079460625262003602779119875617088643860406151724270565018994122954490085155031505034809400247013864588788765714485187308096732657586230313115645881897629042166666503010588527904836963472576355072921760790616390557838772434776709582377407815351060477117283215
87 1 -0.0088258851538547478430799807030225669795419169676241189002178633809820983596190902139693874816340715106348393241133431166665286332083451130732074432673585564713409200818980634771149624509020666060872059719421240180552759050655886819654184174443422588342199514031630340278631983769995894702446
87 2 -0.01094676573539658217945662380501164535330281715968348600428612167263733157193285970485697927641652382295556795007386158740535190027361762222818820699348010220254933812745546641180258299095241781857849506914496396356222905304098578822322032641413529803255550697937397604914992742431656140636
87 3 -0.032161899974995627770636957828415479317724239223502015413663902970417598754779410650411322499972212650882173477309986221696397589286065674516676441573769767204247057731263905395795638885081232145029452206012928280682624931245183299192039172736502316523333460093920868656302666113522704378256
87 4 -0.0025091966553210684257316444781892865977581727401213490782473891927329614732249873074418469350372849976804236564339443801966229191401479813313481945684306827980063202577633871623193682628999507871989160183061048677349366942733622632323887072369871892800907170586835079857804691404952067046031
87 5 -0.010179909028656736630493198508662465308364823102080970859608424081487382226933642098294579531102219985317354264238531803997870887418898461049010423494047919362543588932372382954107182258944204823049771242307936131396810251606639061308478760237851440719705218107446363544093239045484765961312
87 6 0.0174997544590921344751453290576211858704519798598728855600744255286674174762144279598088624054504880841333671957025838226133482710992349717404974299740700190941325731870817656960506665542256203116883719070435090348883284997073562694661281233923626417640003863338934362600310559326892810928
87 7 -0.027048184879032440368689278323783221956499146592949523897752213077435442287868191139647877044800853734041051452132070008477141528170599351520124210351561419876549437598963075835216177379114006934818502755803711758443342005787230183313515682601491213642880551142789929632066787950180464354743
87 8 -0.011851410394504229331237546693235192259805837497409094709025767592849041451731812536727815283552337643851521240480572891777228382409422464304352968686051797208432966465853731135078756477949280971548105479730825494780215637362777638401544105482449864335987512503990733711678660370978593126252
87 9 0.085134257106052993747363558653705236040882536758405386144656126165403927984994722850568675846566375058097744518773973397178650537936621402946118968131962499653634705578661481973007851109364946254280937822404448742128114591770020380549328651897160279123550227524957686462359592929861420398296
87 10 0.068555843535548537503695063365009763456011435757897855917694339058842295250361491936173722208676706094514724919594240068753181943112939678211407362921867094630645358656683065393866072212601415291383814528547207542527369981616834087941751073836964218636887808582681891337440730678556564880276
88 1 -0.00068866410254500807217231396471923820119529297333607138276073849224536480346716166015844583652441829920822583129728953270280827459992830251071167780370443384837253385322920991425303567498417479555156415747387601931031562731476971459813104143678222609343819801182615647286466882451076756174033
88 2 0.00059758390203531732903958081750815830156087660171913753040006083020478648333244993374723490990558478538554561359464054655384601956540207571805217335633010204290012205381268109925381258744789892066023026550921827999467651708477743451043469920617677569741222986976436229641020670304325653560809
88 3 -0.004787147518417237346950713371391263980306485271523391383435054894665998675271261315888329299707973547028588826444943189076704304634468890758002327914215686782132008211458960257163653973080735756291759381823551166773671945065392051938436941321800782571543554474912035431597555358796478842785
88 4 -0.0037253445865178174604797571070945332268453662855738395725560665605200806738241398970763629008781607340797650390946683411189726648318748565902156709117188129063145561742593450208522301005186058888061534686944319072091099107298420493773961164435658515708791446828915839341403034116843383344752
88 5 -0.00019032658602017152136145640131715588074806756016865917711624672353385221329586493897798803674131519233473297321600851331225775530883901443969986118753265652201359181837225160005998398794246785010499349565280273251772779699791252646905004257156715006689077769393209172261085914929105878025492
88 6 0.0050070813633172705841638308276642332744647437661930552285847652930695676469658708850735024434339037289747173296712974230611080775170412449853489513664777352368926364126582196033487755048451610584520472287353252239912973664409711655302459234880093123113851054504222150503045320513636949094305
88 7 -0.0067032687850555604286317962555636773385968528981818455772883359454451360064759951359423514323078146765201128203182910035629037994181562338242840153448025087029968961417592844057902146167212106778003771789771999954539331730527528507755303717962719599238074311959916671698546697080790457756777
88 8 -0.0039497544883523403821581005226041576552096545024220984207767098914262127019027705018696824757298674282423464312946169901870583289728370997921601433823046666565373010082075679173520040447333467680216147373186084781115091029764275368067389237918383024655821723197864033652604249694126009585662
88 9 0.018731174123245584531113216545860930516908047741019998981820203556677048772073194679148980719242072727852552416721755422972340898936381745755066049597052005478809736137202870351669115394228723305851489945651951453462979844886782326940056734975375617999139749984977269753186150438848917874014
88 10 0.018089099801344423834591961261341351946718603527026182437196808867273230063494494977737469644869129401194198674911164022711911699832600253484150097199277192509624784633444705211767173209654751009192321961968557937780391231712362303138027608825896798660609912667079221217010000138705174037129
89 1 0.0038025649340733777776553263582872398665958850057377580330110785009209958037944786943868489806083509404480305846974910335585441513904090225744991517747882232617803199182953067764826935383888771080507313989000651160003806811132933039353983025410729217410595425206015066009789682353614158475902
89 2 0.0053815767688373701736784484746052656645315014944915869552437254154825267413395774689911753712750074365263404426538610305281123084557357695819136618308351494987905426970988883659171782034362368242091924310462318184403275922322391675801919783164679557881842854591415707384872355970015253550751
89 3 0.010332535447511912450311593055820674555632298678807926367943312246171741056464256016606362026697802733962390478344836321292699983065576054746812619842601483156004333067007621219731199264363861469852137920034972501285655459039107117266088614630620233123564784535565511240224499996035824049603
89 4 -0.0025546166202559242889699772004271941039029226092165305140410439221798363788037360679653017251460086864662256869670525197856991241208803692628632961327210427554224936919770492283705967957412372646178186692210756561556855400254780129279782970119875131540227556704367728377869734279800734489605
89 5 0.0045595043374822819940017411297149506973213762223919606905006876582019019419358602071152621924814800897366019272438780993644749894966471952390871709195010574466262546783028205366804939137542501443362591453895586065366366760229422549801667639139841104355004851732818243519568848620174172941737
89 6 -0.0034519726030412959908420654119679714995482911369694318809569451204028206338291173209582151646297347379611690111714884125002635462402293829401730517167276266284446095225315697193918758785057091402629897583219901332208154799777818494144412121053596267962070951033098859144881691380462054917085
89 7 0.0062292564473513923752450525645734303877777540659735668527772595482650291411398206093688508797698059440636430513610262907932948890632447396620903854653522455054925463829380716071777505895903940844303815361941841748445701835117571224990771138941917383490409413207402140235400103965496111761974
89 8 0.0015984634224220575776130509894003083523660112531425646291665484347543302167927794996939370549297703775964837969655502561224802621713350796609021648325566364129470946446367033523925270460744738115460507862575142935456992316510752467588628043768036936776685720242637871154669649480639911868198
89 9 -0.02131619998247248811934958373848094591905364879536910253994472284774107941909631051831344271327224049522123357238200625604562945407494595394520607899094593957511658300125491409406541145846038811028681914068429576211851559570755963548573578092949771610215943602782377362472440914905706986863
89 10 -0.014229308623563072382537451933284026116201380903759335494271454359668908781747176962363159477898026150208785331362181769169178426331664868932688420350083417765616627839168242802251286834349356407677828179640430518404012969926067085463944062689169781027683728764100135094810490078873804922597
90 1 -0.01021570802895003890779877857973631114877405246923121139077901796387969672890316658362106743527542202989067174681371831554120600386946993192373588296396580115824070484652571308897105768653314084059022087330277860575117447561818947675839867638407889561296999993272882359705542541455061293659
90 2 -0.01519072676244309248139628298910918585056994293371171756915261477420368500705377994322814696904185672431573299184242112504832288339621741259892106598946687579752433028992429112992857815708137310607040812035402658845347480757230628480309324476699724183872080838129170007499163407860520219438
90 3 -0.031627911475911935060202519426679304871316690996284578864042488800753669844308145040831130146680149792206786654223032897915328360905233756717287802860359711610794425274670862269387044928617476525838161502713315354931409058764249619421645709326841893790531429257550192359233290197985059168607
90 4 0.0045350206634250737011316560317059077311574242977269412936698384035536992143061064988127217956595449111962118725109594230213213329519557335705344372593265263021327989988123847260097436372568487681089058774118669643830816965223659787874567725361616069898948327496212910862503628385605818043818
90 5 -0.012748901035156693350890873357332362172659413433280063739037754439449971540273345357047121411097040845069319485696912304164986154035030961179059241288265378389086017824431522260808553598636664621605712258545366384239841543987957361509980603457543924962257708668878071105140796962189598271836
90 6 0.012414719967177707739498480457736940155424381231724455538658089013573900021870061960604320261930716491974874803903813865612487593302795580786927834088347597007606708114032900947012360653408786981250247666701826040956730416062497419757824705831107717230912573296189888976690899757716296955247
90 7 -0.021203332436739820798512056379725468843146372723808827562110465381056958075536103391989527360929068688895138869654816746458226441563137637211866625961459977124957035066265579164911383231026647279430142612178869188346498695695042388154728489528312227105809786052383700238264558905698101174422
90 8 -0.0070967591352105154002629178882623599467800101432426151358991529087908457690055383430279765730699880292225264328393032241503290131505423683620102370864024663766456876067933442152054970042434470389509620934119691512145948038852984820148425054430154105220647098038987413183302682095191285400127
90 9 0.071126761754558164247176792213570244749004645766945427923515582385772402586404729600934238849236936368769445422744179868826781520916139271466340179709475783366729605258242242083347642383204772502238149072290574622227616107412721296831151134756551044092121319212440798483219458248749269779416
90 10 0.051094416143859428668949879606418559679264542835939595428489212592097967785606897230753475488658009716639841470086065065495890431984476289098454418326992086246133332063444163577621404845793517141895373002990995933880161024474619322580104656193655801166371014685392213951532668549630067754003
91 1 -0.0016112912187149354865763902443430444061967386698065823529573687194554544774621911840516365246527722141643502335199679689616913272171360544055042531509681510946250437779965833699823459459156002278212468230927730785246283361067021153008961372074709145202848409072565101113487616224739681821066
91 2 -0.0021530477333083286090778011865826243004005180557321781985542446585235910042880245460896739608062131944409103560272338673644239425791204211961702659619620478740422186395853058839125548339320228745619513042333212759027230860365194236214689989697432268822204156260719471390299186324361416858896
91 3 -0.0016482376609452183892326424875022110549087590251750613133047158522617025406401845509129647538705003536848760225462234980564303919395095863464502914035354886971448615163408413639198893654165757576207583476484999410069381882720254789877713347689168561915999295375271399880378090135419423983849
91 4 0.0031649094132655251103088089083122642134404826711812141489326044699740563922573053100938790571645862598819206410775117686224396252923309090224449712294615181680704723284411579073783096015195488049263538806705288295643717822543607426237898146502906104033086167998725723315637587350107724039624
91 5 -0.0017620121625340078385103858616673354133848236846120483259677537664834365073226337330372934272336362716554877017378424911812457315329916952171630864937272301992078838705618384007719253638882539184843533377685784446537730968238971329321497266185486486752069376077179895959299782308683679497175
91 6 -0.0011015378485932632269383842241207787500656076062235573994451173858988111452741817295314573852581240655863581875930959318809338570866474423480639181618150973836189274500195192759007608098946650718335933561097855574242923771915763316081728914693250777706181489381055103241233311713491031687223
91 7 0.00089988793133261086056816430480893286092012651777210056820530746816953192620625457093475097549657787319524646217396497377086702901830253725911776868013421545667918529893973475418877381552318185386410550948001565379736045779487164008682314938984182394403553473959969485327419958032659558172814
91 8 0.0015743675112641058114453816224525347761496407632755976764821830271548875014663031403696934548367172609216510754350674911754641231419450546046690554245308557526975132386291546452463551507408584686063424723160244333379895631855674348880736902537852453804579008619560826207325632771860422954405
91 9 -0.0015371257492990387125092764461810351754076481611097799823413426583241270800349016864287698335457404669894542181782794055845075407361332942054879623308364494830640362205200639627623778692492657565948576718055574037050061411930974059298447162401066398789712478258715232535277712140291947810316
91 10 -0.0040807269474084098130210407589662467708640380362854220187410938797034135985898605137856120112120935681437022901652516082657045860856258331432835099845691914923198064277680533424880980391180955353314882893560698807603034699505623812888312234342116234443181145821713228694214903450105297072017
92 1 0.0090944477459689796717383489766695653666522620287398811297304135226671151068935710854760350420019149823590887697226124003345608164454848986576074545908180341337623987672392080882133666366188395216943377487829811118170261127450542889501743634947458183822426651921310532382117111951010156936627
92 2 0.011951650871765522209470594620632723996795690936891441872275451160346117278162015913081313369552428632305994606334838725905329361714407247482787430613292611523291178594691906048800686560749067837075454919246454539508840784385147658831210981776050577480290555887097306602425054077489369040714
92 3 0.030600901583198388536347148895710333800195585487447991473911078894895723373894668409666599431597482335911942266048404957444156208243551717038737023555304807585516590176876302912468878256183762459505683098686212256020392504999605597720970552999999212328803617057489436902047164450274115377974
92 4 -0.00026834557970075920262869833934669589821879041261182512419027120322209303050016523176398952000561725880747076059314031551440472655587979110485902407045003436402763873012705127786726145469833892491433756909857528099375728898548337364109437827776043617100882157728612526053633898054544309144664
92 5 0.010713522391185533667827694289848034495020813774515657948495073799279654109261603523459910682070670174708513049086585517666451769051256448972032263737067312997691071636973966992183295960850327674053171941587445631343659665521877927171032981600352429526623617028660791373789461769849940286489
92 6 -0.014859260782991403647989727592806151301521891728377963593359992723032098722076365231520744839718228248688744236308806135669374278135165306922953714172691943510406424057766077588743596891707776248740971969762121449752211255260199651929948962551979329880105218937377258224719915913310530677952
92 7 0.023725365299588588435115191586759831963586008218292996354907614863203275478480367769200445795815430683648716001540657157320812768996184730911781605702261006356156210514426075849876250423124820435031282301246754634584835327420943586380322535713844535947960957767950397698584043331103867408919
92 8 0.0095245688536402672640300783516991111743733712239901749716042711028150632761395923379808088854174195471938758071416003846600036543920262473449477181036260658700268821200166531552187386058581786906640044639857255121140343240774010102155901588131074149007624094009075106515306053001521282989415
92 9 -0.076208800140562875717568577708218243195643980723558596117271145196833379056243016477277469426506651619346829946651112164203625968408395977045877715007265815234838889623291635931831918264944732782639293144478650932738495682252944435694537596448484492439244458539756476636483660668059389133151
92 10 -0.059012178940648958351432522938230470671505183319231760351090538516708062253481335215459561362436634552032348827700051563171531133982901637344522901746108178704935833748641805241720562347494394393268274445480076689044316481545748613543589595223263146370563400559602897587891174340873723871039
93 1 -0.003341240735545985430290226722053168842673469393167697911745586159962508619079776900908821161372995950051563991876804394622991665161399119815552355347127128377674498739311903157587730117298381810301130860121374385334284890764980789280521934960737043029881293571445075291075930560724725211889
93 2 -0.0058957836060363974957699948241883915754860115427295085910527355301361408027766873536067965349765786642499179168234832051644608208379166350452176217321076781612610433793681863571474633494097852394072083052619876800232050857846998140802712831765600745388863681692681081288022531245741353780664
93 3 -0.011986813074752381941209025618284932037047258021079776921508546972004861894661369912141512531526982895731282119151575560250222402438857805097142036835111036995210127075451206153041279195132783439355004783234120234418309937452715784496815637229426386267609006253253764510361035780039171878128
93 4 0.0011958323714030676123863505437299553359604031729358365586293651560010254963355506209812959812283050589993870751981731199376991375053764885144555934960313520616453361957213691491054592070832340228271951843925767676927388735272390687925452293336845542086770366657594170734317267500618938307597
93 5 -0.0046740602248482968776793715520949891874995372895633180850383816012779724135535042704600399317892318013032201216525147956273948228748395215434032113149807029435781286823211906558098225768712698576970908432752049944135623584970124321649469112264340310365426962313324604573160621127699419645992
93 6 0.0048270684058167492471443041397594128381769793795440675428526531872551428005588023754147211886754034040032348157911529289280536339269354160375887139909922619948040916814500283278715404920480293417357384766643746379653732855462355309171308502968338139543731876381842441643592359806869766752271
93 7 -0.0082074704016819677497754681822421097407228022811782004575314548143717310191988324995651089349592999702007221271602141071528417712736582150495513091268516670670608127275134567284616618049016478985154612048606524537349012688245467971029183867604528794297009635144227908092226639627029153047248
93 8 -0.0030700033240503686818538526658475127177719734072838488210915816135690543338543025556913894045811363160746660630209113693680393310964367497642641017014481210255658570891033943989735845429303694008596530765902907424088968512558714810065939923306031667278289450299213932552969384864877213926152
93 9 0.027879129326076328419578017694675957859683087174562458765346617966629671261659967755613567811982953054051996584550359396399035561770128206338516206037300624054269707645928081443134469682317430271184594329762413534765144190058670294414238207493655996953047483938644586779537656647560462498948
93 10 0.020514551488981808455620778311483800949698983546108457724922110395228030017988765456513593637565226027361420985322884974977534136838616395845872580470952488973702168751621925566820109128741139654160345458467147950419615424523135737261577342368371329805914344424582176174868971103642391131506
94 1 -0.01263331048751547311276278784813506484123706100751397639359533989707563303719867946886891936450742760016993123121187713691737863253935899892181794667978657504762031047126976828933110904308422160325795559310609173269047053650031245296031992864475155679868835891596841009903306930705409821424
94 2 -0.013457081091146442486828262108322842907354286008861310156343041401401202928419808846625841918437497232934835905928319140243427788823834888562546186428418315294585082422209470492071975668257316174406842388954344743093012294320732889403570371301843931221016592464406242123788965116000258203079
94 3 -0.047318670531279241171848171408642654014305517746598489931883836076809973478758344853409947601172267939772311124950077184371905475787012339309031953103897029391634242823924372484984297241632068320459169237310139217363955584065839878131522565842022032424403798450223088416874835613021897910984
94 4 -0.0071753076696466158007630795236719330891790809347816288391383402923188879708948174185652803023705435061484730901877400469380897342872051467020022018533600942658834791565533539657684205630137547098145191742703450784983012534368812008178180964532636396054587523699690533986389320789452170848497
94 5 -0.013567199900405448554354221202247166000276759905513616715124510646638773725492762796771650028972919078894741251474606063635024472705074800575312927052096877301801027093222327605890102922594506200745733621346878303799707072501585302488590842209110558072335654356983132744676223971841317236212
94 6 0.028416709417663622644692747361622565154205173138602073083980298601161119174231067427407043733517532710148048557620817437965095654403168691895861188593576155771379882847761183511989559187075558541835149245708996252083766344468382523814692244310166185032769170396303958392985608813129408319993
94 7 -0.042746851499609875301793051750969978909536849096855125032110097039182164054231306562145620991316456485591187236662845394899065646463283492285499477539395554890702662046984049251367200293536445867231860872117742084721848583385450859739192052666653036337782226253031215524576566351396754964942
94 8 -0.019681207487517930364263964432548819990702515590857169469955814035228505130695506043224988514761164245656689671192034329483028107578377736854969996802467314031964785151298405230164197755082822469985973365804436418717058385377547882627576632927956256596313066199490195421239201116792609020472
94 9 0.13156839946459798523373304076760060354539072588041116942109573965134472966391141912909587562845261590049383516834993884588128419984750023439855010272381221710387367597545602612361349286225235507724583468322038733804498700884329665013313253296895742601683893978452187537915058307719998971096
94 10 0.10911346316190670509688513970784012766035097989576018130967981338142010288711404401640738415788948960890984401908816957955050767729635766957367077890613298554139914141797086034008965932580905363151135810731048664330128139775057881027485936498387907550587990441995162125696641277255260754645
95 1 -0.0057547800423332782989029553633283847393677851309037052247669249143779495311004899388647562307003073090284076549802460248219228001633950848180782452200776044976849941339827879704971555156135736184258933729173679369160150114183777269952562684523580633257923301342349343703440588486461960892854
95 2 -0.0065350437417570483786379814564133551786194144839603209984268242086501594116949569398898853479640271526228565865060197517147886370829713904986427544249111926738697651592001121806701336274942453306060028954181075988332471043564984460477170885501279579923743437063844746571103207507551663631722
95 3 -0.020223054517620370122910765245375277114852509303298371234975714243815304239354114090073872677086408709654589072291856922869716305431516723613629195568642905624658505611807794103647180953449326779861032104045724736941834995586505744484890476326478828965351928519155658260039793536227088438217
95 4 -0.0017100190552766573759342405181908028803664070888669570084256712255898977025564674680515748476600737810300660871372419368101885173454603008627925940433211758703721590413764038755136529447201316692468516739025824094547735771992962248173161480157282044309762449655952486360603169410653285595653
95 5 -0.0063228761366479914935773117301060717329504740212681340960846993921873244821847894639115409161475030976837172508552501772142517776556419553189728702786591411515431306600958438363725111782434572665167332382120693953611461646398543150370962029519187356873491940354015984553986306856236277118825
95 6 0.011225669007417469811272599099459365032682657290590291873023272410366415704327586623085534194238137621007045665467002943426303180346254400378186517367717937545625445166846057463953708387422031529981681458240288594010389311577420866593638544640699129973093586804653184144435418768418933586097
95 7 -0.017238533468632778147527289104562803241796528645396979071513009238943003672608492678226372175917119680530369327695611365379647793150842052721405504951995452295288905155788804828382100827341019644384456065019852501814967228773776962274039958097288395009553345812587863569505484428828028827183
95 8 -0.007515002884513901880713323412706190688647809619495473114778758440268349222080642146494189039129404713853252231903914802425405588466015253935384724118973960071745049064156906215177805235649425898257055320246894065009376093427058994495656215656624300404675256521945107528351771171231093335221
95 9 0.053778936980611905838937149806112519367734193093201025566814159894470727130933570424378321726722746754372982653281953142523675650273734424179780536764558226425424044847651717524269431453832830621792667739550858272331285972851947574196618096990386994747742370934402234922855905584578236146029
95 10 0.043452601621001070554564596203364724641349456473739411614296161114729406630469830851900156259657959430452927416828505386282206303727187289272878457233081162988688709463141775135330506078624747008510443275365068064283142302796820803353117838091449340412536641281938318338807351202684796107216
96 1 -0.0026437080460324894858189997037516673855393860521753426757575737906856985836482124577422326524245226831885466483286343465214486075058714023423801382044174900078058463004440694297029776815240763411527384499897468312346889626296662817942526135310158091773993793244326594826422275559107432296357
96 2 -0.0025190866349371692864025224136383537940895431035520986603525790143168423114475612274361172841081417780899830979723279923772787158347209135431958590636945089659979077209968229795279994455382568003047894272015294856737772831171448931567353577603354042276649610786103296702106520336522751691258
96 3 -0.0083629400813652884973633745342022866707679295802096311812605532738458261525617524824009683237928190063819645902492342916109363677629508570570575459876418006252827366287273574542220194851795830969724283668181691282299936897703000157091119627830202168471356012035918609475787727978175694197799
96 4 -0.00057703505866879815453127651431042683943516509384915253234517194444446228297923088485668628250979439838709169003555071300091674678844464673670048545664911528112973276282941403113149342096426007902478277324610140463646213852494547609974680249794215316016554931132826084186502132660534346512185
96 5 -0.0026404797309916311978113458947218524585195029687823014647873640128891547549909767608266394681882388533714852224661130821165772683808690247414288172784032480534073314283034915878808328848735185452215741639007582673424428317446134956988213908019031329277949185167961832226662586573008098109606
96 6 0.0046874508786324309013233115717688571107399527655787554174789913585630344216863455083672619350433369014728358153913473689191068689670847279300800785918981203776623553829443892172003119583146740070638753445705066507557531188740305528659909961385826563895733393742324563040785939834179693144872
96 7 -0.0071615931252053941684888301656496233722311766365158881212540169151731717466198137411623672007160985385019358960505069815875880874458209267206095811944056804868564100999535383259631809500545084580358912136477855247322813480775844435968760073997031102284848074465027650246400386488166597278031
96 8 -0.0030013443598576278406709473639253186071660438345341068509663574351469616703344669797559597738602018499318256751456193342016905077378159394853373577302351699084806884306826379201510313865406992703572521305063449580816321590032915419789481340808514806298748971799472311277043570820996784182096
96 9 0.022015280127236653699271707640806721950733826960027582704715144472904482946343567658889273124002566487395958461903920055697795185614430134415348274066846456312450283851265869989704917011303028444930952675137002915290109067371930796611793695905691491766884460202785275779895439286607149425732
96 10 0.017705815864499827925497711492119241394971036961771869024809715596934998311363906570754374643364090267080202612776455728413864819333390321860895850525310165773915739415980925565547091399579662719004386092004748039649848336038541261684438432714039867105974733791490852280179608856581931207566
97 1 -0.0054374585819687803372036418718747876479511524641685039822846325443139556412591901212682001139776145066654999273336130856127497776029665375547828765758427270648595748622928869638773299750069409312893602764665284705591094787348672583683942264588621129092848764059612031388301465740715108617196
97 2 -0.0052503614793574084263901152120813310968125422239036646269197703430861353914756290322177548886428017999727823748105639419990164736323518802848198446617997510700379665266467798022625906477670796354421956363772587515576023321083221660370307320605113178151013814134867648590497533447359132974717
97 3 -0.021307426490247252099489945198462218676930358681478394000799391115484250115269920511783768464941509048357369581857284038058708800303193362641378739442708464871099634933134271692876340710426637818597571493407488118984095086882041402795307929799057531509420382387990420157765560040191554520451
97 4 -0.0044936926622927793886684510498781270772243933121627028011282618902404028127239294189164645661161668286542133329503642517786205946418582377972181256206541641558668380801375433902929913724019175180583530224362192047130930807723234928859652841728094232072336650500526274939372964186401366484062
97 5 -0.0056096543372304149541635516440166691916430013524985966052903360483858031293951211944603682562663738397884378074276681759896856497049698469776841124076933647188842034164722812544759371739969218152005964041337340425754069955252965326439357663259271964429789821286302540934257212191114351603887
97 6 0.013723819930446081784208952681959654747869702347967938737560550035105014862790415807280692706052733228975807903732308386958622015937910113848418679297299259637192858210171086083294284812554596030301544624280663461773947714243643087098937916336741461253906802915549125477257631076036106798044
97 7 -0.020271005362166970422471510430345231996730235671617030263166167754636172605825019650057415747658482418405164158904314919124437451257416939765952291098413088144066554173798299609177204366122519125067162154554898247253941594379082241356010306864766012496898647264222450795577696156763426752058
97 8 -0.0096972474908839904913473532392729331413693226684469607473925656356039829222309176843192722288048990810307085254103081045167811895685712117541537658195758771274040233958546836958123661029287890220005792740100021428727336362866624868670549836781430649232395687694656023583737098246205476688777
97 9 0.061546176191839713044199631227381395709937816348659000826336808545640128298179999135498724987712782792374386976715886612404238541702803494372380911403104318629058252202354275579485620516681955021346388778461311569367467990056556827299403375666208692945500647178055799347503822574372768058905
97 10 0.05213914496593777818648002786100206568761887559747995535695559936404933848603427198065038152695108656884164161026888906962825652231599080644128290430877757604555861342735755760147440198723853664627343698341892101277745296643573951699772660906226968611618370085062278019935602363869406510269
98 1 -0.0021764947965295979371260875597012531544694811783978270039335816977176852033883248066753047776730251945060611652668254737612085588912104435049992004063812783992552222192525673336801212342435539457471052845907102611478720951020203334409738504601748382839057966993135691604030525079597854068321
98 2 -0.0038191377026849090460188163852763608071583673287052460424922901141092198538386470167341485707465285018987256709304296745277686789550820197037905597908047554758093434877569754531472265888801543925723744639963726874661124189240710447352501880121446538019130770766095999379443965985165326941742
98 3 -0.003373006516897203080559449070929371724546673690385789720602013378735901529428150519768726660625413740533411702439092403821296247200084161026818498735890432588187402616616533765207761133209267121426190311305487561099841696565460847354425905654366313594955110862007793788476584733226998458295
98 4 0.0043659598475951041923651354385014187823779797977181674296786102997858717832324365864575925708580736525210341729242867368863445412321973881282721909812058837197000654951959176734719606510817922922494499946635821549658588784368449735580148159118872307955000334288646695083003787622742951759615
98 5 -0.0028529368127924102475344580464722722475351783006184099752381885887595332904067269335773591955705250798870517494033413650205156847917087433273118966118614419971869365429981223042226879006774446722839135866885538698620227355831162294553743323827426613845472679356529916881209465199090377302469
98 6 -0.0011680006173354013346748484092993038025015105593189071753821039360618170972407572817972303839576792546803545672297690672969603974070685870993845188641463628755690670618248234355096693787765625939646683843548242803729443843951345921056988374024417467582131261586654146136192130795698152313325
98 7 0.0005715533467682991830449108797197455496709858923826894040170255893438723546122392376790002279520668790850382988512944021474322878041342634788863954562700974471665659728468267831383396377851797780673260681562524993038267032013600293811903984369979888190335561622084668104537699846968129037872
98 8 0.001780409887713992645505419668226271916286530486873742531411000316971033787858806208871613793964330212499751514511899120721368026046914595351713986183520189031328471823229550725570072568190026142224857435734337421884247670109939279539168840611399829596324605822284729749764858609536834327225
98 9 0.00063044799986657889073205761243377071193162447200447565543197462057226858267057091157997775018565945710429936285691909697283538299179627062807441553685985228272092861813066945308340016625431623456104009735222792790116707558447660261068616737534688552380647180238016244552785693047547348168059
98 10 -0.003522884482958565411135650175588245905637714401989542580907871760203124790134047219945401948689199086512284076851789530547959574974589041516390779564198787797007297319957334170098487355118409159640750789501527308498743819542946532229084801702382271935729063515779916676203055521843342382482
99 1 0.0016565480279242657639103179664056789056938823536822237703871623778638090594836718288643667914828022261527159489081687017313398191897369988750247430727138543516340140289154127588406007829300209461916755962585537437254006089991172609372462000084455675711844209586894949793493836367012089551233
99 2 0.0029365816259647677919326378911825879194459411662794879386902868608042650192223390920869347673561433400584451504598986515407715202144040093012610028448689237571057707711189264595170327637591572055919751985694852042507209585427706881591926925407151198594652909826996044817809318465745654707151
99 3 0.0034631595251591179139566380492552878945136682519248369105500743026181029934708356137710652031749793803830399968560047385263235542247787654789052337630230741624588731375846790600931154719826244289184781944303585835435129628583335488376870148303352081698695251688121227093485630692181654678039
99 4 -0.0026674924719849012617994522521418036957347127265512866924993200248548882935765793900404307970333466803204432593892469338780217463005190204937787723909089097182350772114983849646353966706783887453244663384417938053998008224780616855051390553397608984643285382022943059473329014302909889307581
99 5 0.0022408064587944186772076028271404647308913633425872406874271041583581927633930580775073593710523913925921855446833444266633714567135988707638225429053483687931722906942961073153976928997313413175161987165480335118203994210364179437583333722119962168947468776276669594102003238918075302298743
99 6 0.00017327518402767159025296408847073737246323890169451485632850582951168969761708444080881429245504879202103303439485951256246949482420074513029444942244453816370293375092792233565669681638982722417089308514226293014974924770637642987186642992569988993397992931626099206025514657725548138831533
99 7 0.00062249111056474674626952208533281721702165317197872062801186265864410480737092625818698013529471780413375552534927138467322635371331341017804808147125457176447950137978168736205690217097119482024936803862514601046872920212105619504958909345421076784981384658635057564096049495496158583917638
99 8 -0.00066884600229306792427548166363426147737282647722048422418222597736384186812560938052944260972069388417926322251780746321025395551697780924947239257873204831966096904756087836689717724106656516904920034697262264877594854552811164217563655725160059034077350401617570151010509119114914997758511
99 9 -0.0038385120891737000320346765541215084807002496559189042071519761372164181575252982809102114696620087116214915204664248805025999688130228109907256334679611370173325110074404694349232544868866039230740922563493743807047224707231392139816475983148423069674103983308986255956825348894820130864091
99 10 -0.00044716676120244332835123516357270030815752548077193160650752303862117970156954551400648880224286010412845900711535108368436216636138455011763470694935788700151978680519394183417036114657383503837374264239925303096588790835117685053031499469726120828746121142974483603926292698115504205957658
100 1 -0.0088407585408731051273735803870577410419522156057278564073556068407668542341107095721179917318055722151241919450476748516842972747746260242908239561335071275093040471029338794852710107233937940046703535183558701069007657354495588465743674854466618054422224142941593416920128265292800113466068
100 2 -0.010564185844989433532737526112039765634686025889585237315939785372829132681427925409868282627386738400543613814316709456744404299517360641551782112886529235240592064316716512635775465681822355347563023461944283563984199790477901455812226371829714287306927556184609601137136254163652837862194
100 3 -0.031039536698112615871240123175479324233966129621320898863881906252929984925106443553525045486510788781403872711193590289965187907666804907004021529727740512150185013578053627958462328237505562373804559636700003962449173331234488344064261696908584321446087803207737726699270015850436573595207
100 4 -0.0020268726968969851963067786781525705802949861922445005860205020302799169408050047057094331170798672268081951789478366700909090396046090485183216025300591415503138514923501317007764807278022423826255700900484338282320495859959730312538721346696610029760997688950566774958785715099639453017761
100 5 -0.0099502007946267647083028514739912200565660302204515842190317158382837782413803797536458070484331561303631822367679001639346291139088519005592650713309247009527761640473617873673306362751043000818616583601641706027057921367850031003400083156477274730185566040393650593635365695321170173709705
100 6 0.016798411850450887263243177698685335147647229638693380409648502390826449111897807449610175056972061327175679116693346045683399656536438217501776090715485752255567107270678531750977274116631863771691412060414278953138288711096360126157840509110645334737751951289533377448159453918631017682858
100 7 -0.025964901225355911298485934035629737020661726405953403778239184087618451475103442819614309085443683264286179275439780149763076264292362712693615819668372882916486789208083799196094334086053837175281694155650829024597683843730387142391538524849074397730155830385103174830347835438118356399934
100 8 -0.01117291202854304686273666012679015303090365136630384148237222390005813608403683033957233283082928631458658566080256815463668739662849690155554123113095744091922359505303518445821815875899681969776714106156388401037147061720786684342773012942966954742961789602496166551122396443260404027736
100 9 0.081490756901128681808616775413712225649142253870145895933390704094234370781942035499156199628239224452525607781022710780667431633044512552412379054763769716317935883691670652965151329552635478182134103202202246351711410986544891269893270363709123988885505495073568851599746455760776856786446
100 10 0.065336763954076540591642147965341895724043940826765280496478347267123149952363855375863556146670681453190774273080319136720904117139770763934503900659436192034596116395519646553980887963806090921096975316568003303285532753172821513376345476733506318356982472975539565437313175182103309515427
