100 10 1000
1 1 0.0053744415245149128425589275307424130481099781381474255168950287926262572064853225639369919905459058540002213716192851260615036106100886355198445579452462700610647806585325009865168337843353743338661066845973504927922927962039719930265269574751710321240156638686142581793448062015298022831076
1 2 0.020989544971240937494160492499446291714010217111009483870820145547790041482984728507621972744677804662495549730561038034809801289568835730227823646841646533184869099450479051323895627789484433360091913721256675774239520332996361508463151464298269878317437088064383753191249894350097051659902
1 3 0.018500074449322250778105674162289703466854168907324017022608423605829782107748898805759575062722441121475904673693550939071183263678599376999041318701127039853886529878253299811524209359366349175355238894838227489207617470392809589551720930764207414552357844466409529438648339331949377259426
1 4 -0.015305172938560635632298238554204174678578408057126248919016947941939362415155412538141084871492192903907287835715019940533067663603891268094918338190752988230037345059632618668901587659314721193177878259927333598839383594726513640074779055191622302254699107214995547316118429243362341608214
1 5 0.012912667164946191446983681936633663874368976087282634085203011921581060671330127744888993402124524842264967831758019258745149152669326881747998934207074845999360043532241924445547963369499884727932197091831937431036875149894049126333519373553558435131100094316564783691393861316464189787535
1 6 0.002478573452557540179609579573254691374235710562348655684490104039274825301453061263205624420605280444607884876306660595295555997018599764675111292266802921860194372588642654028779949513929960310519660733494826730619132498151634260452717930653093960261461511544726695235056644761892752646998
1 7 0.0015815095085555179578623362365261515912364336133142183714315321322471621212275314010162173596641980461864720138469034394554370068538071119081090350622117597510392912080380396288012441741231069890732210113841383581598829678372184671347680637236989856701527657097012958466608996349617875009906
1 8 -0.0033955673114589593231322614850019997708238698136777264625275383579058318356547113433639126453122239288325095058784340739453095571239764041658301752585037000203125777631289177601884399433039503163038549642657593166736055949454116078683725629051725043690822366788242708178179421388063625337703
1 9 -0.0191581025688726378925835385250387838530909853119827334289799699075823049011594657773139883487945747091635712828722667198661308108039565327064590092333753204402636558693444800410266199644974397663856044392913705148001110120047309535545918435852414058417050128182219067285642328966718177271
1 10 -0.00088461782276233648498964765210414960803915030154082961019428594929496517593240825565390119635651525395667664479381538095878657817276357177965146962556281989629593166979667444920611982263069516359202374457748904290349761029829976224519850965645625962811477572510378685910298006269538271566973
2 1 -0.0064625180872990006978845437657953434914551036704189526073211307114063683793332619541075801687787979953454709052365950690554126180334826882658661867827927338794360626857312938680242549358827121987919648153341194811447164653677036021664602742899041772147861211335950694495139171442108925843596
2 2 -0.010567888877353438116493759409864113699037199633012820831982482987011921101344429968421895136679969928921480508511968282448202767388463998523123522517747881287638597128157196669468371240141517273018506784354309227568349920378313433695228094004735226035966305799961571281428392162819459795589
2 3 -0.03676599645830385979266951471197391622307658046612727244085304471998352868034109444400919378765937418129995695762615742453575259062890661592722968886355064003052549981741964393387153543472035546398823411890812955244092872098713720192857544339573575969290605576064938107389278350280882942422
2 4 -0.0098783707981431326679502406792538413927580122808129341648629509186569936384507576231484323761488318748738267838409877134919393037289839682046171669685444362099590484523266153504603819563269327881738743858812329732098560079098685980551625510689927730389867666130081076998114728989366674861357
2 5 -0.0091088448390669348794161635996623563568077958321812155172964331070135466381519242224896640242387538734373567506754330388171811597183636484704130140108555065722800444579729645565578870585467587935934629863879212655606601052004920691954169402393419704027778536145948265597848936470960239192961
2 6 0.02400183719925736264064946562988105500984063826297636019063673032221205227585117736431263122585105779324564903999600670246968125123771569058244325290775447871456889926355722560298927564773117367672077064733287953190455550507035020875788754228338105821527225318977933514559134726365285037045
2 7 -0.035458924202419866981718348203709098525680381446212489400231605832989220631236110249896682491406923802504631560069149755463881315556468509776304822358458194869913966882985652978059397006932656207203938467840958465115764729069154998838686937902482695774154465581289756392510038559895735804082
2 8 -0.018448941231816761836387541463525494474959061944060720312677238867447333503564031151964944147656960378087666607443262383503348388163798459686755129926039744616774885521888051101517675604109739143212330051178387452185600597547785277111498081038764105033362266765155817999205021041512021205756
2 9 0.11008732063584919438183327081714041411494124720458793869408255712407209422884455452344875407093730652472285373844165171385451569952872827263275469236045278029661398744440580019366417849455562236751072091656439848768786475104511081023858998307008567434651397747911373304310544200854623257165
2 10 0.094856565332818965512261965334894521833227869714577599504120594240746635078596171449628160220143768354149291813272692617082088142787516700654967886854419725830131210588327193354247283111749372051927103650467160080059411606708583355528250084823784225567676908671644540171640364969783279285214
3 1 0.0034926806241497003188584191537895328382140969307910526005331532378317837455489600654036862541213473355296263040309051786793908839392371855512780655866208548067033595636466456578009390525072596524988407672259102370379033096453035745416632282069026725384614961612231778425983834960277106795457
3 2 0.012824315530136667288541548042862620447155012895096135653001051469218636119675845319452180235270416807957166668015811112522199051413146817035173074359877329837360465571738168667515046640089986516718555634233854953790992156669564044627288746802768254798852408560504801690585686720531374660898
3 3 0.033173456469348575889651471022479409460714043769280438613215656587412262592564189313437703053749050861397216865570222474149093173259083668701380978524523051303088398308800303670541843971284179679619450855663883707817369388626103113234688422614755448688187998077438438368418056185228927106355
3 4 0.0079668928316405655233232316124093400261273468624260685952493468608336972588617694350568260962579396426573479323497339786692949711432179152039998777669082926799709750787239786426776770150739555469425806348586671430857343440106190171451393187289668152294022035435361955496768133520619038399414
3 5 0.0088436961471202893274342155601511158167422517203223298074977424990455750857846791535383526052577249495676732367275950064792915887449948816663490019448861076912837851679633838995884861840659381601055364077798819989019976372769932448940770610945132859587423915041794313374865569850187983161518
3 6 -0.018903242917835373009719605556943751182774571837305071167098567141383151487809411373128172923808149874633930301153975491676055224161209675573900266316655537881605987916143305357484073937497904902667915602342130798456911897893515094934662623520883719090711886360084851455251288688318809521663
3 7 0.029268425995762362948902537784264559649834862230123381295090535634501592028543012878075636763771041860954106755888247373812938814598128507970851608749700455012622125027652870381407182390885634511539062945347412277446521076562119894695439469666249666975751011708362462231163183249737509990063
3 8 0.016015677091618822464508485428835317617390768170117389507981822673895540579813024479718408135525264419474797872040977446136537923524751952547228676207087986901671558615418499149885264389013962914214275089894704692852903700865627846903671058181976242382530439980503990561691051343060245420968
3 9 -0.097202418463884600698424822329472919640334309020008393400165495063550529022682303241756596635006878063756579104465382180425942317961056716444813568685605249766176324609545998319227538256238286582456598283896024440406672607683219512626066823703974085177780945421737898555305474039912222688896
3 10 -0.082176032147252377773972964188706434489345458858393732882146125993830669282800169825402637330941315256102630609504154682732801770253422254699614491657161580508391584960664037188465962038098886132091551628444355293633205032020207821060081718001688227660664201600188761505217868205422591258599
4 1 -0.0026282911980212442295898397804502865247299841362934667813377843446451755180159442553902040195356112951614780064743453055454428581420419639933933893811913220765038277419759895449101775658484197146229075696731608385687050775745119806064095175292423744099673179132288210498630115640587174681951
4 2 0.016172446896707129507562304085571434457980716693421685195034675505465509181599006027692906046194066485562277774953840529429097288599227998390412799938089798588327590276085070849264183162166290264271751539491370354858678919100433135700652587111686419542225199879082037087173620566592877035186
4 3 0.010010178296848727342913891600215013660752831936252753839655377296635181208222568157365327451929816493368651786656625857015622711471731905028137838673287465733538260351654996105654476389224483079110727747890582333422306976260658197631257310341530960646279247001585259299287036564120713515219
4 4 -0.0069121957348643194823482782570232688018644369227671150035565073031463114836780563948083526174143974537782062763462133317693632717776466867690229229516228729571657570703749940978638403547423949792303959988845442734038879620025267897799110596268181209418461556142052918685810584006368779499241
4 5 0.0070295995318566310596184672854892027674259762766797875762294467159733425828366518496424162151173792147657782101936559046702585838105793699053514993246848041342015678052013821326962643732788183526463822087821745939445340520771067485854850478873890777530875388207036156808905363466657892567846
4 6 0.0040457359014515389962153286958450240565599051535944283027897698021867159397096883149923262332503419123723533038989822890591214799250556674782805947634369273851372784100880170562377365097812296013795624870246122662216630447367215214437637149087282993602633847558870902608860391798836851305753
4 7 -0.0015385839138585217606544312694856767019806261360931639865891209095452501248116265622070929656832029491802684511563664989770997895854373006532169729023992690751600861125467456523798631550202892729958133914736935196279591938950948980619677585667469117517816100123045632596208009640474456446105
4 8 -0.00067663138018121343378286611647830496393384924835408705163012159437620140349741149612748918945657603798821682234821959028863513370069661284495087279865546536717510962878596202255845012366401552361170466008389866013404970549663607640742615703023676047444324048735022887178122575480989950679865
4 9 -0.012242392591410550155174205363438409423579854188440619552232581168988704707653304496108827908322655057672012775492430285592006953544027954010340835207425738504568827559029344810069466553530407484470311850320340986665576483191177823006462789374966464641511680905850626544252699396987070478454
4 10 -0.0020150525211808621661936082276933929150692193400851656413535484765201676988063774371131890784963287536123602527817833281777803759790984623520701689362402948770723070387955689538987400814465812576037300589057932105755015136579487690120800575451615211516736742275833993789172851649927582752444
5 1 -0.0073898885534116164356905177511302804233075688774125122598015184671886951323972008962649002568723091185724578048339806762223886947283902821525834605125579851951134487322918372895048458991680203923309483726311242320227871261228914822035952378349711918022910674597077891541760125600319875994245
5 2 0.005946770899943063049359833609673667664949540326093173892958547179955202490704678537392504583563896499542697107227561781327693656221691047896648356355449442779917571495163430089730288960675124350982852218174224884501354387262648163553935798820406729798060523366768229601008010684955998233385
5 3 0.00064363718070670381074311064720416081720702341380300068805806564547193308645809601150426221668886594479621982941311305497742223145795193296783143531555583729221738572935417139225183672108504079121647678194330341859852600427926367471910366338412778092686569011252374683830219846352974174893227
5 4 0.0035396203801113320380763662313984520188790807521090473828984262748241143882859227294507810256278288613131294786410399847986898794008529983749106464575592172143366131041306498010151911319178301929645947983794918875500237383334850994946248900158987094461762737990077869038246802033914428449143
5 5 -0.00031296580207658609412428788583373837089550298423082728313652618496676133553310826591383470782058053037051615391697698779237239901593335716568391797956150327871513953988936040293380923864159450412420857391188813671701156275460988066747045602443839246808086474457160496458562599768092784479771
5 6 0.0004561128567997404551746764236533422508967811452477753575861861178325384531354512972117132212810890781127804780472083165214725387330826632750725493059681133669810750111812212336385309729433979569894646973593576683329660429352412432382224118957566908271484797193777196567677810594467107393236
5 7 6.9220771158411478890544292968698670955682345324272426546000475515712220938418295610310634065957156153920999972155243461328960885286563959000441762201419133474064629052940873143911786957717653956632635414913997077470124759340804330990093573409457116346814578234647276765524113522956651460272e-05
5 8 0.0034483472075334890412507062212778112866069140601662520805790487881787212143730041717363152464767470938969063292175262405681123716356742720310761284926867170350143894962234284365206499926828918581016923703635211510174290635789007153203900514802872664066038255001476561517896176760636081785387
5 9 -0.0080994695738804101667127768690387780128546992418393335177065135924380191977203930271827246033496506019151138457613968395102352637404908671972352746000296015850182778500738489008949230017572976457762472343818716975611958848690009288211519074762239248758671996809560573761167659670948726432961
5 10 -0.0092457961760844609302910249725017341597626058100530139110003016272645895590882645578352299469843812159674967338387446311491156917929671459674786240594747752483864646615198727353304194854503644752354440378075882319942320027221503349392220774778438310910397393935804908450983118331692067353553
6 1 -0.0058266360603878800017444895759424106263762349963683399485109415282192724875323305024054704476643064980225940693345676357428144503358994568043306012715446130200287902151263584299254098791873617704018624448253093199001417004610866373607843789141376449590899263905396996562810589998039655385388
6 2 -0.00055399884124491669166092254018864097756383144472613084156296291675956592449289041254047350884669608875830703523914304067852368625845167350623834541857249372843385268372793946748771422865621725843664136580894557037357474225803886154677637507605836906008174834184976316967582905394769649840915
6 3 -0.010248523713670949187325804056125533725648219693420392373542477980496040933875111023638376196530869052905278322350083825312222135956024957808439828257471070316530421803556038748113288281992970712577781651599013022645329010456868508124648528612326398071337173787764184143912146731549243082773
6 4 -0.00034163934250371758567570714845119179323982558723589086253814081648750986280627911319467093126859667131932987602817829172643243790183769101210913168538095462979602586690076206524978968902740655039092588580446287987946508333110188821922670385047133956003552549885750881914882809769419308599894
6 5 -0.0030389440172582487550836787627632135233129517728684039297637975025746877559826042522816025244688050616136396336321015729401967924341083119281155707796458231560905166438930138956922511923799131850369160869494309374751530800836355475073882947160586946945408553380642569207387574296147270061053
6 6 0.0069438138065025244024845011145351418008518294259462128607147210754538362665539144065273046476138072128047296353305515161330654263031006777065865491397696733457298727828852524807350970124057323769090359889651012250935768856052019753213018610797140660212602358831547999544915587109482250356526
6 7 -0.009833520738341970765655631160770733171891055238069761055169228822787783011530524659481850395191409496128531645449714192246522337626453188999046373157777042630304165437182145829376591829408026342755001324849497040349257560664609373722011031979374410769184634497219355942817548778595643127852
6 8 -0.0031737836589682566449405303183728195607234148744991725741559699582958347239954519542044048879850916880012594423014406329334608233991048387046076117914808080239116460702385038191719540416292720697723535693533892072303020450812726578533368570636843181149099564638269209805065806537615639876299
6 9 0.026539710748407592521505494464054956605838604783716196971630872794837373504728825211316626199254819363923755245817834034383627568754794721595833021877631187191599915395431659734127630152401451808602854589197773306230944675516473907809143436450743112685965064390170162789460550609345987279451
6 10 0.021323719097065165493121277643405362991903937987171336619572871644273861385248349458531390929235661948793304743792649045470747848174573921987898439610675799056797155139737870487920279854975131122475907539653150028179532816020286406536416730852813346950887783081183977169164054864815583250344
7 1 -0.017850641951374209546434794397328979082617228404207014767856057791193876437076003996036255165285535405515507065869166414409499544569562826801987678484414955619988484463563922500411971510496097171938114275709922545671437712062826839135597175198568502532297973173926650682963062220851427902201
7 2 -0.017624814119137468923877555552911414379330629539636268096277273667386294927429675254339390346199930757908530932575480974122528037804908075027130226238079585992863314734171723346382128902731551014014611407243155083562552180839380363474981617022823689588934912090300866274821422111697580298047
7 3 -0.044558789493980638349809560398538976256819010825633497400843015862817811246072780501428345231715937119676302868642770405382296826416298850042384312105394469729517026091172472630941663355223909544724090663786365336999752705554105150073332740413314274855534346993861829447748127417035522395793
7 4 0.0069383278031582408446493659186409599878552624676076256510161759944574420104996605664237715977911831990528835657781734012905781156034026490344203042844156355495710563120684551992627478848372053441728466780157977567217412117937584118220772937178021599629058318082745096033303002724730751245631
7 5 -0.017979123482240553624537383815172601140798353203546245501922583091203711304664538392024456062239885073808192621398687129343459889377529007806315887147424766185381850916723934166074473022514372793408262603618604534987168318997689454575593570913906925444295163516965219972542872663961145425258
7 6 0.017997544669814904552718018250607956542483824894815592107296996490674912169963578687846856350387471639031866452081674924139920406828651373519778950096168742657345650451041731625477691882552377219958504208767207428710292023243244206087629059054052564454982822223968241384739697529263483288244
7 7 -0.030713615446142112814063391148896729453297663041885934063275900817044910216430715490698939801448049739539380957670983993653820952478690810621005207220163503268988569659973270120535600896348379374065617454164078013613290034163681528343365475328737358199690543256360718250968378541609547675744
7 8 -0.0090638940270992378269781853782845437132298493233386766456751742944903018153303288433319890613666489580591159645525030519854007526116894716768662268661517867650865409310210207689733905801160438630136351468872221103245722700882978722152708192382727076154406406576129855992623093819327394489369
7 9 0.098748874483934412366657201350871789284816208706504550869173929877458614440150063796358243987517661997578555792987849790288619275415450645633361295347226747337113720845573416359459702229063037218415159067235752555947591724842233326325803100594175570039459960245743596090853282626281732215384
7 10 0.070101396774102307418236261412315187241807648657903983408324753293176184026689329513114257391073242415825904198486498235944194646041657150854178496700031900650284443555348090510036397511981677974637253546598865160391013537830073685657664477943070882903713250242021663328821156390169142796361
8 1 0.0065611372067008543466245954807664227849754381630121361392534805366566950482784410067704287975505519513027902558338799436243273362016901891257959447852183177491225327014715545291894542628694170219401654443175315312314628545674422744497811973901059194590034967770572207495445332559255931087103
8 2 0.014495635944556390520663549373152367380298821964121726471788610179085740517483967408014050400566862330760419827433535320466798971139346191567994167170980669082345374698186909311994485029518910016419573050446977849323965844901703361413724823210550732434713034035569812738321917454042491625402
8 3 0.022802307030344475741134544473953258132101675186928527759832893578538732744583586400593436724855712881210700546289815599601418550129210414868914877472620140037564114486976596779034785635928067238557183506248352164522986124269391120425359954326626900668363371192839494743640031486633776558953
8 4 -0.0068255612655287745478414877400749716453116511286679741503528134389310119082863468557937980543962778306190725028006276091313107515482748591198599648086211789790789357234620202030542091227594810371692185165422583130300055601983104977161040052035561754550669624545024893499595526350208196070645
8 5 0.010915955200469618096161249821781100164895409685718942582671226848961619894933274290178743465507519889609474673200365595350437879733134420937194147137692742084957465563200289215566586058696052587250036240585884331173899139583323789068535684431824874442735138031883216362165094084954627246041
8 6 -0.0040948599512818955301027431554719055860000975949620651453329016565770181243565186087380671989135179713189253096581654709924087757635339713875360403000939046332799287312107570512051797995013423947313938565552555874122270905054302777411767776152014756332545358690673597558456945066265308137386
8 7 0.010645278558128229005044839220659305728007943255540974138669617588648264478063515856640185874844002824091828372865171582573108740393765838196553217659905741290408383255429947983034211017765703238182594102227539529095250253086951367491684374924768752247895361319359550942223373530235133705088
8 8 0.0025152248513448750854861129214457559084772518420511378456598359459368601410558239441014095015604620852848462023383784713855444100054591088700168709053136967056967458660313027711264611912236058316350639751961679002751772380003793124606441295171397788702591463114233622138453699178881095754428
8 9 -0.043994754883331114687687946590876128140184735680982520561708700605923907336432500100084079504553122344490789069003592947879984687439102732881901597757516307644020633470251030391360922671638849634335508644155775959973448953936591754658886843348406166611448768691834887082512358446259100522521
8 10 -0.026568325564449747788647199569030014967982568334102498214016723238706680747581726775709079526999241333439744515156576682927881665274647013459181179980082384023519196095663878854752940067393288872533880355215560387107816442812101011429853686818958520722169782829164655820861936177900952983939
9 1 0.0012313007556045866668795330548758186858866464881061757514230808161333671701900312945142144493404811516538320239352408633102491159272202224014732720540885448536778360090172849008222490728092977137104409358707752685052344986816198051036587930240614063303520114749695090541310827253473520735446
9 2 -0.0031755897302026849908597706050731943698985594641900324613189375547944538544551653362148784973345292968806250699643839002932864916304925101954780796456254064651170683235609231221996971988483738247232952930249284648891563435300946060589838302515403733899890101164312098334473055762405976193774
9 3 -0.0092456130000733294140481714827407888837190626277497148000821800078562714370238466932325632403774955659074569990642565700022748650158917675597452460286903064330719727569689579036584908253492549459096636283049564763791263211672863807601034210315765933479939695745505174904160096865862229625364
9 4 -0.0055879140673974403427188152281892553422058972314185331132627965994333068504700391586273184401433826436627608123316893443024168181390221811412421788113319459027520510240945091189338395341172260338680660769753660526122141928511570838091411231783947065005227089242141261769548421947534618245672
9 5 -0.00126748440718934718070015803299757059634399649592057309356550399026749519380942056230266650797146961147365184678916266929693938739727975348182342140049983562434451826909540799717535014196649466284842950175819132547309870390584534763084569541334968025041606660373026701432293590280736258456
9 6 0.0071872297011712218798156886880826672957962974697497021374373943469189434296101805273017794856869428131810261865479870523156380711954229841629050668003183755829052790984010342147297144956012420403764289822005167441100290536363181141239373284536223390713795715232322890297183457083429906313935
9 7 -0.010248081563846382019765194418651781464925680053631226892392491132499966542377808376117814345133841709336104264454168313286769567683676076492101149281450964796978436195260310839110022727393954645336022487811745204699208418163262605669280601574683883934938491466512407361389328109364872748057
9 8 -0.0069279855664833521978450560984948924325888658871846738891487672838831293876694781658082309471869261404168473603613316769707590809476584878925315616182602565447786517138701857481917254474878022377126199176565593451397893868546221570686664652703979929396901336387001971716888668345159326405238
9 9 0.033220363932433409701205887265146717044960984658000488169047300043367081368675378030774131156442633098106585396182541529433070961880263392828360879676559639341440192447786320010626914154480374481628782155388098120135977379577895041917221479553686890870222267352067492859802450993043813440267
9 10 0.030950428048273012862928924725676847115302451886510696497104533101314806050532593210932912841688932112558185931802036339314933486410146883933890257462073322292173528605897201950211729260538213192611243285090248677549896821443279200305111296976297667564494485026005140221938406294564459638524
10 1 0.024070955077110737149647925057132332223667249283665418068103682260382989300399998612612786053243045192863961692497034656199169467582433169034006284134524588568689904815702786612073765204919004870904574490811162586801265296446185278101362552828203212359743289386993299428305396442339360196253
10 2 0.025968679885636698901036037259869554834777255092372900973069539351548841272253877316178761732440219900337337273809850234234260328872541782871474839004707066179867708146981366852137703110118064209957654679160109518497605396432492908410251174645498106888424713116200313793505601777122480186424
10 3 0.079389910473389928714018155148859480358453571124242120788933157755570976465466982222698404013562726567070773429436796179889075368384923750865852326571139320706174229546909223179007753660771113362806084855759275780138998700269820651668343694915633527491467500754827365315389864973562191784126
10 4 0.0046861700172922316362696067971559373754564644514305005341482651083705049444645495007777875711221748302266080761831452703838188263147160198832785584410146730242278966895435523381193477408072148472066847634225209059417114524026117266221696925915608188841393004796856795049488641789166378696898
10 5 0.025522365968807235297748311126111299977825601815464468355589952749090681354866154546022047005926056635845812903783214929989013777416179366392258953330252198665696378323812111812264013765548504522020049160501037831579572479150909414648134179941562057720069089465394904443502077580197127900513
10 6 -0.043788462878146842019234548775784197705860463188270102238883958928178140979834017376202768778968288185741793128481729028583104934410181343639394654254092176366963263652369603140704759723890838588522522379805255037274293357493376121180340651120813904054310585729164399650929446053693888386424
10 7 0.067127160093187246217185725287392046134116152519824663440433144459035545624700074798556729050424135351998361725358238367320645213714040616954467202060739154457377712375751777894745730533134166341467346255230043683186471965643609051340918570126940765145454125076920342911613745522544186484497
10 8 0.02828194927310981092593763030888761905340286981623647776683782107319713365133342964884955009309242358337639587689506380214151597239522753476071633204339299711263826027262449651757584850577920046797522030634027132105755759129792848096951857487784155878262841341018845067529130228718392555049
10 9 -0.20784386524170013180058472881278686776601309769783620139560862504683614931125367319951072951270881344990710087912002226660648187125501190444946688539275182196417660130574023207461840658317462871051062890124409341442321968929301512005467392136094482521784430837535482427248813528574293141857
10 10 -0.16668366592839276462464685057307917507021497015646597089518875997256375598959827542412780493274404653173611518512342637548880900589661432627584938928583726353212489244247326266995075884462961871491945526845066643128209713789339105595794640679107607563233798257814857386997000246557487691966
11 1 0.0016687933590331092133291235405669339572149949832219848774046401831206984167279064149415101483242879687924885615900123735428964570179749687381354333568083310961034377245732664102599904590384169219621507557714140516786169250903206193983139270755608543279541426260886540003640196678530547838433
11 2 -0.0067220954527486614311863271655814980317529169547406993598532002508883560991372088717819905702825352431468920132765451548487544675713962470199997335960685417621432959187231718301772757495696368980309320223916591965781122230881795045359560870417875882396484649614405439065640754419402791182867
11 3 0.013845274340246523856282847429961517963550942631254759213742361529652923412897839352225313658811755705747254059943633071957811235280862517741588080651795467242882954466292715999652430293865260694514807045114318504685808928286929581142998025693537034045859487851661674608784264698203314273046
11 4 0.016794279163551254582635992393772720211845304455770975043039157844826178404147983492515766174069844595917206940233794953817410161229079655631166723693082431248485061043268170545362990875847308888301622996184932830233816757207764218717716383195932016376622388111081913753782593188127991704542
11 5 -0.0018961970409378456013892223238430668825693003671340097317483514558290588823130622947701968270813752294440066030707055136884545015886129779549896886722280559194232339142529572054469172541998014825131110949689781424830079275464843086291732318498695404547456891072961926461641448752625094520449
11 6 -0.018936888375367541552919660686341177705397744441377155774780742796132611369917322547000177216530114335992175059480075207043673412025210177302612512788837713859281051420233565856609483065586149766606170402116265638813522184136675482075899717525821529492550352622219051362450585008742353413265
11 7 0.024417111145765590052154526972498844779794563734889944865671983579075373406530076084965309219055567513846784112615429441229850777989842476184859602424693896774326484142064206418445542043833142101627960367390859564621528769903012012984967451502576668592527710724751292792759545033127309424693
11 8 0.015174340224108788657203700395058578144184461091329040033434045469476741128093159551165012911878201748775458589259353483102131288627642366575011491493443905768108304413216323405380581298216978789074386048504727282636690595278320978640408298872285550110257291981233226871921594613508447901832
11 9 -0.064939071471797674915678159028071397446844745824833540078985512759105735916030202691857947056496972417287610928486899869282606133621711683869626016077730489975324195602947479409010507345424334232366550686187089713042810465311676090564316589612176811616810697493509408388967466556996002816482
11 10 -0.066263383977561011562264635610121618130011199863170277707053950641999716309454642035803340637224573913638141291123711399227968428940826971033056044895630500689628585353168668175823346272953294734312838956188642897449764863459520291406043552569030898525141518297191265948850459869788891819114
12 1 -0.010519530565460777493842421821686203866004481107770969840758720065734458414923788974236799903103993086457282785130997022308211646881428519157509892639505759121217023572178068512634629741882905114625877939430540286636147470768210410401079130406067184943613960124058801600616142997974160952276
12 2 -0.020934388283615216843542505986562336248198357187984779556400220611960751505224396748532112361246051511487923196883482476278047509763150484959078701153837750944508497570371090191575604910156256641334737508717477100099218868363003726305459509788670293475967146804762792670856304739622360729243
12 3 -0.041055859537053638203338803789998980590550112652188267744017349876388680323212822071844727494047872732708199744397476758384148085039515899145023086692407450899662460864375463801975818674071991490093951507477974221813203208707902303063667755696341851767150613283786790366969368638762300580757
12 4 0.0036649099820838739613069187260771763450417332558633304947844568424129429399253708326293119984341505817340037953530650624521576083844262866075770941373970772079859303290143697364284551542214568603129605135568315688642225544779115624170222569258849385091930743683747143329724237500752814430816
12 5 -0.015738268153744489933940283532800906862234331758307736470753506106729946144966226799981394564115321037592782701683852735591439687840535813828232461944517833870645160183302592641216465524163357963408901180191239100262278765759030618259983968182777098413968245146378402766688941012581028211128
12 6 0.016604191316944297645774211183329842618262376664991276830931776753029572269063969238655803627772883663175740561416872104077950390069254639409948116463479160083093575570690365609127747993432793311734076499761844355870258775029745139411304067644468074792315598067071976343672097799303455808225
12 7 -0.027945763785533481044776390472664729971774922774659156023313448811970874306203740814512138554035988204819052201450005412881226451807653558496725545913133113116450618827423496968279047937263912316082370334543466187695509859141460992980301285816281368078745569890403772718616522022250322151833
12 8 -0.010848043277382542963875850506396307449927040299094818625495526210939808788734248193049690982622670744536389374605289266487720961365843466838164877988253756829404293221600101142987136416240732434486154198191638906144294212302645944171606563497336894845746704756322402383750519996896707380453
12 9 0.096376725099153969521987825604814342523284086605269490625875682376139730807468621625546881446197124707386225982522531141460989295835716814126473580750866542353460196883524086944917292912949563987602913419522550906692151663452924427390350049135744067790240926082743193961893448894861504306105
12 10 0.071333873835085204003023385964927558025432399608866645845745026399698607803678059223136430234307381938780023907345065591249810691001450076671591141273748947337243749204310465518468831528363560267824899168924802620744737293850668979227251642809370573215147150422849377380745276577569702010362
13 1 -1.934156961252227649681664453271130988696021182044431323673492363374889901643848490599688173795195038264079763244586770736364141716849989100192585998715309350600082608075813518860916449217121716420350294887578283797204958595729848305337756840527774452089366043127220528487321988984677114195e-05
13 2 0.0076634918598808794295783303243506588484499632870101806348411384127693876358029834616361761624238030966681037612940884918437131517819255736776026046467258500196558980480677808235686909756727503601132635668765531365553542400031163211403726497465897819943478735300218529869259918679399229655177
13 3 -0.0083417135627813783203613459406324000696359756204260673696501124732401892262779532318719428764191994183082741076175385234655777780997146502452803571795042599569635257077090124902725294292414328344597559721730310766824070173362628910852992561011331841211761075110934892051090618674665985141389
13 4 -0.015240709508516798366531145452094370224176229528193466666710890794064924111853329271323969866936457245511798539167234243872466664163673972696017639590725989879486448563697627353965867673502698847279848911792682668853040359150207525702185649727013213178931477081405234984289013125936671273478
13 5 0.0031849397461001994124208292915394872315792562096895236377570934256960677166693886198775555280170974857581651031234592342563053482359139691944404062901649455089225365796840934312064164540833226198376921419617912802604475945049126203869524428221834412682063126021905765526316463038400169763988
13 6 0.014333191219479343432507879075098776362249720420917384952020184977017659989699599100648109054418087501783561485459228956849132066114032008703723244426734919662157580644016519471901517994569582944789166948436046220808603400516764995637715665648866529729687628794330463135459134217153243898126
13 7 -0.018174722615928724231753036179222973854261568787179781177416728089103450374148696208505754539322373680032742934761537791477088807108779151155215931378129224407344606153854862667559699949110703092557526619643876825875188497375047027062364653686007024282112766659770625278198345016218792414542
13 8 -0.012211475914099933750695107319653004999198592225791487568034364474450898834294093058855910480205028610584575513704639749497139463302427242840894986730393014282337176377938342747148682996261904700820088396332717593426425313674085416549961343170282477751847608121683256626666313761173525195995
13 9 0.047976096325892487545447148207951179321483354108311595492493655093307298483401398310418855286994556401164329668240354303171972539257947325698232962403639301304215848659485541393754943887287319965322328967449366736572049102106011962287539682770131143777999950986930949436228800373245818125923
13 10 0.051078595376478152611506836309739953321132552095775903971657577692931532014737883910793816606174772188470760521751607376424520395158651121507403977196634510720465980906270360939205394614622262092263453065749284868266375305084119837096625823574376359275538869958355722259520451644855742475558
14 1 0.002305738716230737783747571327326343296974666198843619949223486957865726969698996016696333446491073613823984603617790989102011128498270435192981614138106513552435943290636330750995029247642880217710481262637493011992157832748756507888799804269054555224671892272494928938804254225135977476889
14 2 -0.010373883437593057221885354899144062328871901220015904048352572540646071766511955184033365922765780801255796617374811102737157785247616767173393839143298715552492129747802706497023524737791932559075320035119615692008300344046810375419873198385388656308726146979369359703950418398880713486159
14 3 -0.0047991745060114316782497436074508604896859951322141402478298282254490279552700627945000300442017268280157820970224795879016805051382986874308990332804466240560811427640022458539266359014070623755140246811539197312749179259381930510829775938930317355042370163050205250753173864253721977168229
14 4 0.0051857869845609192119948539450215927004577523760748328007522944978444250183807899670570701175834220116522219052411444773129537069080905121173303905267946782676155705640454188878667461629050735571385373115950896111932667972587593123673177140726659629235047039902161268817919522358743459389165
14 5 -0.004360611714287671199222682861900062801374075924057421557344880120451445937854910801108874090785270174259367018278561942688236941734899383021197230686645067851601794907112934772014135133616610549143689247479552594154792331558249571679353880269174129226721470156352731022105525385240851432665
14 6 -0.0045793623239462794271762992229983135505991698868568037248556203280220399145311437523113867294613682368859774731670219925495089509815142653921595620675910931825482104973319583627892182368907732690924631290340362515222810729992722548576225927660566813885494535299183272838183791098000723707951
14 7 0.003301073021721284522059596279562931940200417969420764555438742071311915637646943548087230797750152793112916315330389606355960954456344671875241116618855700798943126083451226991925034138939347477267599726830015373093801515571058720889020432490230166397487558389035339707064102540526690306319
14 8 0.0015402061520264755399721861890359817459081313531282121995717290679797306645354470247118729229006863839179966178784434387763423273676191170644497100285202956149654853154810486215235933510902807689188066428946514091109565558094320582784256972633565495722059935152426636147074225723542057719972
14 9 0.002089918784965899124562981352308945323222376556699602149987054072223462314250861900010277656281472256484486747217084442852190617084328152241842439935298911286758121019091349812481961873003266893930669183916070639473381968945270651533067243854265987241506285460357376281979091486087148614257
14 10 -0.0042632726917534402484122916740363453444977172954105583574011258660469308646696305493852971450743715586605211321248572777177575056756505182008761420205773015656263068311845677662617081641494797965686573530639225235716097484437658297120665814590788319066483469431041827295381510599718201969049
15 1 -0.017749371036133188036653512180488126346268749786346869892991091837784711243690551054572853080658820853920716403375841709771513392427137817801594198283986156202758001471276463798333968031909627900125530182252735922939478495817220756981573852110889447535434987154794440328522606749604918423417
15 2 -0.008579919369068525908282017579423733530996264111097433033937761500928873025436110365892444122061534528071768609532126660547822925060675827371334145398662711483457594232620139738250395837445230204960532250080439135678323351630806632966677716360681633172963673441257655651535354355008591543879
15 3 -0.042962017505284940790553017750471073906325414273754691413526133442452402273119132913537050990619413096040374421189240589204698151722409241878360572917344155845317592427180492120804002682591015296109255290070996043126507819364459862580933475217691668660423563938279686451764557656746939462083
15 4 -0.0023263542925954127638440544126715564440557470839656617732834009674307838988335045989665684733718193995198285098498321916205201703151544705148795648115786225679904712040124175246237723023813926244535034249999574516548452205970916180118469919328729054790579469062847888871785627360799254579303
15 5 -0.013494686739490496720837564511902903063865627074608657233621927027621867730508731243965671818090651108791411503295574924264000987504226945474853521813912488210430977588336844276045388602902094286324021300559127156531580579021804277112351767145789370354577634495228109364052139936243889365024
15 6 0.025404337947510566480006369290062776544562660219445201491961477517311250479442150381914580855555267577957696247618619359704016919401573971566159907278698003959137867429710310000102931172274362646565433363331598008756007570020469468482356988463931732893865475660037365660497724862521610054835
15 7 -0.038278002077305703075418560517757996346248757700356210540640769398407689122544654662832783065752921041204813067670425118802513658848466575494333108138996515953906348755882421838358632488313988792236086592111039599305554691698381885282944391573315008824109689482604547228782132354673124931089
15 8 -0.01450082615370280911722263710853356022757090976408717544601802444669576317917147455978064655300806761237186281009541088070509926311205759676929655878323557128167055256235833495952974374015544712144786671831944087649690206360690865315932048815777494820880709614172425360304426418144945262515
15 9 0.11173469082300817906227503451575681466204396822775322532442933000953121039096996765741110664497548367883560868953555867389784153409286621861687385212586916401107028255254791914114614298592866653402536059838892925806214005734863889269614497151572894477936281598151924738679376228017959440796
15 10 0.089506697834373378598617198590787322748859508729829719596544762783621364523630337834536678826314818059436273459995272975386763964858870988113014100778107873806087037693446453664253583200273111372141381647196196919237046361438573638540047492146862891608079381832760854346933794845435844399462
16 1 0.006730184756252425881482600329400467101181640632156271357271361642066275046844036711253926321402999119814297981442801551546635736203982294107347112921527254578897574811929714517926958054489555098412692415722938734423168585831218155772635759403577272312323840430782024151411002674575192493439
16 2 0.011027730333615040536930904421126786663139561126965175842232856474281622402061482828883355912094103090019949938579188165943890783266335220063330485537698447424568026955240384325134164201208315084529374007200820937004253383989328244455015940658904568934082381317917928243324021040867366009277
16 3 0.015486485114581268772116514400867006199767989104413431298102720580363193018509635783682713471789728472478846321432907335456332113624634675299976115667964188921262656229452228004644474065605209586557514917699127252004056810668021910668716689548505480060105981350076079914421596334580517602682
16 4 -0.0085831463037493942252405797657718272480801789499561785023360046763532863556640033146101416375227718709358424418656612047159385033058281642454590477183764516064164307490448463607383102241521550793378722040000194131560170644559504600899429585877376621903758394874045826236693274350761391842014
16 5 0.0086844499372377244769444009050224847432562848951272030763840399078473672882262774403961257653810312857547363754863962480049075997172318732382169533273158279575893374426021845771349019147961421021383844020741054865029571133244548736386503048204811408830286832793273136525251810179854698304279
16 6 -0.0017285641677924587363646420345458368726105678535793230302273596999607178260574287242089629739182229499793931327615884855528060451556962017287222424281095272821124866818544725179175667404000033524103850155881021160297706398345601818954563398442383700849526927243364255179065653517675989979586
16 7 0.0055096199770642371174535547860284370679994581104445102431305635315355502706599927344366219287267380409557819053063613140120128071776736891843968563361034470089284484461298967143979405268007283664276094399671225399028960687491898432350034823438313494132808437925829213894829284715123317159106
16 8 -0.00076719439031451805857614607388351477390186738153181097692236860895296029090860776535177115601533863315825390876706658239111321304874729044196606035043516260875451693373291494255262728465506863610131223875347286679216070671448043206181243614222864926369386028315043391392275374957562173801328
16 9 -0.023307746951497377644736034574798236782038369262618676650994286654740150056971813231336472679331821365598438916738183652444291963681091701237251387562456255940953944212828390248780268975312580042979530986644523457635666217616637505362642312450985337461490470108095044963994591412249147614005
16 10 -0.010027007492869971097796487064250221465023010158877659690133001479517235973572413008830755197756913083736824384462459864508876018376417162041045782105065086039450064030022729557014129139629519482347238829924348931399937037127032029267619680940354451197906237666332589690347032853493182017871
17 1 0.010040082893851125252511007308012218709523147633173467828124985147386320356768283498075208115940872091044692230097804945426033739518020368150784250779504864916175933564911542746176475211762238765505246117552965188843961718513276106171376159262746143174138452948765640602668412879095592627321
17 2 0.017733029955402581947143050886707360336977179272111901936059243908498808633415464815812822981898128735810245895743807763299931840759782108032758597248558500896652788193772634672996050491570251223621915295916346071109989930689073775192672291723693827917804607264851050785893242850644526435581
17 3 0.034346240884988964595603710893294889124141411698015399735382139455788234076662635299371747041294477237512135814367490921046985388317552860482129680769568437340693271123404500126537106243254880658713529488569360647529491477523126937842642460346787892202373281641112403971613930567366741536467
17 4 -0.0052131821075478485039220104653170124094486808687672216618166687480552593118310561663459443951937114452356083602512591914727286684063068442795812255692567820740949314850473545926567041510147856709677311686825221403812205085388196538516164593501161428177530404841980533332821691890828278796067
17 5 0.014145402796098067637539617188705086121434924777288120568347460746834433993283727983276344626105497795066920526701910936166764933747075438000545473670187414467351951932765173694042381305252874478020079879096989202856031560737968358913830650699971462251887138847612229039015255502613784257272
17 6 -0.012121386495592052196876578570600499891887337668633547669764286594748249434586503748063532813186701158177338546676449834008855888333256398135297690569829546202763480527233613470979807833846061202906263558127638336298256865436411128014353618473972930477024061189079171223468465120803207242072
17 7 0.02183039664853368730786244541407634244721477307018081459197529288541849714154460794193997077985056340041714027837495628946087798792399599524445973313845984862425855719555778235635510364425504344099371223393637455467951167656503507504845613831675273602546535945083185738991052430702653223086
17 8 0.0074693138986060379551006555723643654122404418892659366903958686400763455731355193411197673914472881459152729074417213158132912201142850006244889030542926684389734816518383344324165744258275359361612997872723665762961757304837932191262241739332571525693556359328672492323288634205889981717471
17 9 -0.076313475479802904177873637993561429492871001170976892820773542135198125957168358978385226571387453036289038803683453836250268882142436003675080955229357041980013216445536514315254318835728906947613305455989769980808285546328663402840199675668231777314414026920667424561052731447069238938088
17 10 -0.053976597995282226397506023829343052600114581832730770278752486325167257731711513199082189885019926475837313737774376018068618091983126506367071599409435768307314257357991690865440132152075248437468443155595603157793588073676572699691596368235044297589512079455024455811505912539298428195463
18 1 0.0038131176130182570342461693790131996671534708735598004443253987653087179853049816294838546330239046770495415366413284255278027502851543525587858172877121715328304435039267145694913754447946926030158424244906098896303857149910444931271073705379837858559386484853426803361711748985260630378963
18 2 -0.002159119925194070240642494489290631120112794459975495379290362900167209211097552555093662515797851245280821173937590555739919982358318595901433839994301859894051496344496365793770041131170201487457363870783458132328797698894134173700665182935884437350332561594684956357197674074018052522032
18 3 0.0020434711194924642180005425788924648035871055830365814759401484023376312842799723670087385778831185781378907913943835456672639388998134181135515255725483217698294923791559765577264658200235396904290200940646599560195921302935702944068585071647420748556015170290761742423421295313070582849374
18 4 -0.00024828350176196350578483164636415464989790466896537986338580515789176510137333298174870192932980590812463134592150877515431838600570383447453396647670335744286915026625161449152553028233205967893234549171110037806144981218238128538303779375461186915467569037441005826798897434297535497339403
18 5 0.00034674895802158434804746395831861566929114673246803782900770012494823260634049764303383243989796855905190871618689749416083569634893125162481022643583201658985551173891556415315641629236110255024479781204615667573499347502020639511985633298605856092714220953318132651426126968510480579761946
18 6 -0.0038204603817884058520464507654042046970573549459824955636430592800342561701489334438902218877534578836924207099906882878646912837606732995802643730967909096759293754850096926197073880740256034076530034074341036176750218613154589247986669310739758632500947824832462416891525941936455825594717
18 7 0.0039946141806890823651160174059359634446348503242120360273923728985109364241099330425603096599076919029946823014968320330518785196054745945068673363696339854211405955727742752999585993390868938202084812697356264357869450599615562611963485210504672073861334708712806431586994118569828380152123
18 8 0.00055367599220839695955761239139971170446525210918087277086262618451862855914900961387807677357653126241858446682224875263634265723800606119958998206576534007730072749976141893627913632214345779628655597059100973435838195462691950302419756735026069055245693121336727580020442039766177344271274
18 9 -0.005593864469634072572956946092190503562797417215690793767721784707781091391952636096318921876458986126837444350211571615462041291622946994238638412942609806771544774482304426517752913373295857490877190150307752427202453070409870725242830620959942172291642855162359594715176870040772783018913
18 10 -0.0053904698809689723590863285764990117040642247616415442359362109517655933935778483029697003510603517424809275763331323212885185902010097643935756149762744321819370920093087040592774051187293940326288856698626952097212521836879357364227955158067212005167634174845504374589921334208298086625313
19 1 0.0099912612806167727611015938133248826423911462869616764449879233732614187196233664737553049937702313827295744656307054443680386557849052524516098433557545307717151860124608634701912022587443841972883260889188953917244287303335784298026674847467076525406678591899063346941914673664389692993438
19 2 0.01799748141406520617334227173271481568640008691165302148691040896729453253579548663886792139109335744252729958377236319647394585882607303896233240244045605122359141577673540133796375757371033839846270097867547621666356140467470083594862737344149490591317928598543070765560536751174030710282
19 3 0.033919779465698236839925504390195037701021417807843882820620961511977139531577451638467827561083366385812239801810331676355936199913369008181161614657115828034492093296762498571331200264243880795182145724899955629382040225121338399616173197309981041402908729335412652620829821317122255487245
19 4 -0.005841359412817054568529422595731198373559172847889795757503901683697411346541195824418834232823697360770052020408880716328443688319727924546588683288517985449624682919095408384818296708849705008020434781310513594235511441690266920708500830072987281213410781086046951440328671626722095705368
19 5 0.014049121131859455665840103566178369886950519977691966288705563135390144246031175337788880267248127247691718799164949220665115397020957447005775271443842395955607614535778322099914941146762737443606655064927793388052082663256614319108201897195029921310502613046999002092226242542020416507465
19 6 -0.011043692299837036980511883019677417287585079218002704445505064500101600701700789168183845618444191302184807525514412796370718028971087195524520776298668664029468676122506296568982265127813457102350554823557000281627030675201272351860435438004282064921469263880842472679161135283576766218615
19 7 0.020442047574568892280629935663283947024078604409306852388823469403713229585615254214320849134431184796471793842305492978387074909533123039243924140059616438725927662423396442527082106847004387267573073651312574038798083589362452239172557231487361983136036413272449319856435124790413416858877
19 8 0.0067010445683075446162150147370736360685919287561870721786660867791243542189099073985720522273089109201033355995898995469225342571627695544161973682904072123599882662605560919252806428673378068396661264568270123982101322569782523696964562629904437713863869894803679211149916522888191242062586
19 9 -0.074121238591030286927412969586350813011192958594970863296506178201168282641391134208460091414934871326110897098230094082895941236499317498908074585719414960668505865898869441904824179669269246390421940375793857976297114682843511158478813133202388999239965609543709043609606939819433931518933
19 10 -0.051271557256697970389917912547291437755001093649511013932536838165036196783539075275895791091791819249622843261448077124037369381503686831565398846453097738449371241927779143394186449235674949113841226017303979070896612718470915079477090371622432400818798197101821652060494472150607128975382
20 1 -0.013858166341664835412774527457268778424858792202146514091730076955053883036275888986388489288977135126020647020734506867296328800928940189918108938370823200947602852530974923138399433269915097120945570814463698364830629323619947723290209846033545527931128785333189850624003863179879699818553
20 2 -0.031669585295565350910096100221376301714099096872381133627052594966535478704776162798350514581358968760680057456802870256204893138259112026772053205458156104868606804725374939405796823140924471821521252203187889093920933272320550304546002237471057147451818143759501499259663051993837063223979
20 3 -0.048733561700442722088187229152714172389334836688256056424049032187423933620454747735898168572492607542128719425057355997092122534484419076212120151127257685171731756085960430494298128458311142120363050687008261467232965751370687384296984328945904526661442658202653190649948847434781073508599
20 4 0.013658570657365503514870681329567517651847156128635256654481472688242397199743701184598484959155015441315597693777191448150050206047492090061194851921233111745075498903682814547496086377245021340750335785721902510386666695537585135201218364119249175888513688213849542717192081850212731765162
20 5 -0.022666574725753450055099657035370542682733374524537556600889703364179183476335561254890689416590343182895679568540477819097650332797487298600815293759961868431701899777421742830872799117348588659380632960266996298833026766996934987639734784911670720787406837480691311641964152098983340456436
20 6 0.013226751975017170370782336673491975424159732647064138452365438651137526602721580948820576296438799447050414447512269528208417354212891522338621218504681599675040106632814975929524004114555706514409417254350298459101451348109157050665157776742263597193638835728610336650964943756864034145871
20 7 -0.026146459036492666760072200707200418592717647056925253317788678988462822279041541354616799958074322905647746396727031895261558858104510393508500640310033967197821422534965604547928982545401411477755862038125461763151924337866047484753006226621870711048911324677129037667800196627906888679473
20 8 -0.0071370239004292824376992206048612020883786943736033827458223185765349177152362312853127460969091895324590116774747428742383488773103155470149565590934687034265587108814444200876936680669407065718620822175406177470898701464285610909635415734221360765090165656327683109038826335282772797112927
20 9 0.097871955944904703663934427520079985999647160224251784986963407912561414195428913613582794238105381728690263280232153483793021362999898532965749090242206568307482412252943945626078774541085988742396900853894422417076868371928475003347277679476581736205858192590244759137127769809675265936416
20 10 0.063378491524195124792063300178553975713073172824120337675941425669166966732561736973945756134106276482192178579173753507225430307643179119840641233699651521169825255691096305090417913873156772062081487660819304095063813552382735381705604019157332260078365699418560106150200684142339567445335
21 1 -0.0060677706499068699060868869688758514449569997421668232280162730983885691628576141727914558851761265175209951049243943303137088429858811552221506365215862287614640082522724049761184232619922223112291240929026840434011136601313565201179467813669638496467827935807856813296194069177595850528778
21 2 0.0034984947794074928811916901714681685706098201058543976258063997476729306283957724353970892337919073510919521671973333256263564476304806003626146196272173262439445513029459617429288334899831764148788982115139233861568546634420142933503911035713207452593500272159520978173687291471106181185411
21 3 -0.0088949059012209803504610475406883775637843758915098417463512558465289088992856527836137527951217571683035394298064299645556244844811255247517721416624068497043026137789493074346114523650903176975573296068891655811550751158438783528746973953838843436123437086277682360444771628385796518422414
21 4 -0.0037450834431488362967752469513903900695469755174343516631115255537578293828218221907639041618525963794874195847347408740422882586116356004716126400196179413975003933931213007062437605912934208831851618605628409645519726832980720140180433047786410287699914685078282238844057332960107310275716
21 5 -0.001325463613886840233281287665790746485219900304704443256425185690848406522446704821550953001138773192822796273877294081123026984391849261155169175613117643785302865607580480442544548003507777493455939556466262757196094613888310544618633644473543204240598611741913919542733657086631698071186
21 6 0.010092315617884833853079864801677281300684058816855047208212431389376900437551494252530360690780737188275491683219959937863747051123744329977046879628891552103943700790880746805336037434645920703701797091063745821761989910168062586565850845157952555955109253134708331134471445970983176863316
21 7 -0.013013412609131901306610906694665169774739476601519293436646619324765495935262940031466166764553983582954874501653316712884581029153347319312981287132909338185040801187126692021068606342453469740596581855480912049827904160980967593308917158643585794210444475416729046343227802497405010032577
21 8 -0.0052114346842686776869856154308053494521158959626919132524227288433350476231595839854141411903348520818595921821309494375175103730616525623738365483772072197591706739265705540767545415502139264018638645769641919112147522970915944645965676781765434174814782328242674490411452947740843002801692
21 9 0.029593164357746110980223354319232172697816137903585239891675593439682655811866720288607770666283986495994260893078411817803752053481694978132304792333245444653685139152944755476572170366424824766438482470370695256213249371016361053335030119810554331421958378981716947007388270949571000677783
21 10 0.027718726831402279685987062180452384487313618735682502519920462933697275616442152215392153903312160392614456032590852518632285671229990884663724778650467201478641010282666430677689969617109123223957513867077619965721247129261173737722826893512949719048153628777665650237926347058852866829625
22 1 0.012209322041689625694302007269927867282443739916194575680788882758642955812524867460907076587975606604613959236220687906232430720077487457040749035153833539761084900830505903300170460121613232812021820473745986056897483436841480701335730080233116576836527935917160727710004748167488977607942
22 2 0.017958522028812249916426871910427111312351226572149996454898692095853622365829509268563432623792389000929147032620965993477015470237319969885101695879541660367918007629244320530146073718741468261507835323805763716736721235211514700215187186154820516680858226036225164209088960415611402713044
22 3 0.049899773032242262324783580283982957964040376255919604569194011105817667585867887614473842973325841717626303122189207757630814165430022752642624190132412403899882669289730561025949482336877087046274856943634936779720419134206099009581924401008819998488983397378881554103983679894929439200295
22 4 0.004921851965769656334506977311467906967602223529845839827802136150117531214155857594155688103160138191349930524391380433495873297177231225920147370959747562652800912547640229415674345437161539613176954480554549094937298601696438811643984632999558478390788249044065521756226727820891432653769
22 5 0.015442247946086810737039633674403472135744936420704422135159563135497996030074966198743905417243339689125233011510963025389833514284217342115372853910578525824862861605571809162255951066388406948246734737331589573475664696486747442354436252925435367349145303109832450947705219734441855094288
22 6 -0.027752846836805415929944918276221115292710422104513296360410203031572543342778387763131953060402855199480746719180526062144125195777548035556253051447937747634870002982384666882764202705096082058222406594346009466495033401150646979550446482408437435598325277048769903242122442463002804189191
22 7 0.042434706102642217014895635354544773928407252487167821372432510467603829227565455462887990290237631386443122803310030435665789878311913379864652876196927224784192319115732736646340545271363689338328534857653226384073555593081791531453464331315745685787495447970333463550414293917666784073773
22 8 0.019341137874837393101328252325688336421678812098920884347282130463702097805056312295591591707006499130396296026948569865071640703034388237458219330612973871369292754823697625569036990703494636688591947362120948827881482736034171018009797451860232343555562089028113286844057308379453838470639
22 9 -0.13422548673278868033400441024315881601113080111052735302963975098955390809096665670613566464362917420884818237385405269097472264947386253812995089314493278723921486623220284460797007013052201167934868621917026715401085874682958428621143005859332289454144481302425199829057930549711819390959
22 10 -0.10923911675590868328322600406720424233119761995816672402206483383722354178443558247631098854119412080113618498725323694565545403415688038544814028520454184041395268167056111104541105349882442732440748483036876500183942638263342320609850906746489980884915644607566016727981954157989705209304
23 1 -0.0081585539236705279809562936691684647727809446524397344288738711330714862753179433352474457136794287940218898019901670326371728923124974719175049311255300245954019293167063685474950864901064107719940894529690777113957168467129417786678837454364699545790322418894723649990262799286398225261306
23 2 -0.010014082112546887046634341908005879267533388168965576677780700681687366257362989889213427961987576289530382510041369993465529347425520432159424824604373190240019422061408145491946358661644347642399692738779128056227659686220864605182266652272838320321033191507134688020896306849745887280312
23 3 -0.034450727673427004908897501189097598658068747732723594411156908423600461616489680236021424610245900447874312372327051810614598450808524532034726983370683492609257158620491280279690592807868499043391908742462219904623081514144261394631034976122201303546728190130691125426209264977956677179678
23 4 -0.0067052748087551683031824935975319529961213599352800707795588705128830138254004977499785353305264274888976043207947556843092314609706572393629398610128404973364070969441781535308999501513474785427946166180148884371966504461266365810770803557340231171950633907634213615532077563994663997785818
23 5 -0.0094064788871295300254915945118548750569493578762009283520412709564279642382710627791696184250442431273187265913767259598344903381575177151043400588448588637608500341244781502896723568650252324780773099477351640779831217593398461257761638582086604923199776674263096687957797526652197645101228
23 6 0.022385855164202175763319763552921287402224340538362964645712265755442729457817412768012028232132773064897247201816009196760879882511964862549382302680504403470302790096683194033902878105272037774222993491096905013193177614091249689634366569728180416236380387845702314098418724296177202365212
23 7 -0.032753554451106417872433227004068748275534077200757838257978542754840156834076360545466985502015957191089269092851398563948575737848181432121608508314111133621290523342582810712310506337227617650496933889892323889844298708843524385699746783068242606440284411240787439163188595769677372414257
23 8 -0.015753664109815887382604062836583636374626844901346522519062547491064368754817761925943027652406241584373863392526950539909057831082366979764960454482674576815718039230312733704936538945838004202546038423682269167182542267401718012619788690099218755526845786057013298544997366733002106895209
23 9 0.098965813725759711585003522673366971817031277359609359670266677088294583101089736798711942340758256412599003811354593045459816336067069791395392022893159106539208874043133070889458948120460600549081243141982902621646767911672594719235110134623165997876279035378224195109511293451743779407114
23 10 0.084036669628433671348339089590290304287641680593347417338771369980126823096453527671169573933425575226572562131961982982014519455960871724289778960948774015960107132700042596048157999272665735431214570309761423419418142451541035283911132169380549313232811139437383530955305164333283377110031
24 1 0.0043171914873403767215770601041174945277090586625747672623946672778247454677180230428534088678167732981756169166538253276564358847028522290830167620273056960307762356461505958376416783173483571645175462237836024586731950459426653501571582792190428363185336108295968038663213992970651212806849
24 2 0.0094817761858037787573817569554866894001504905978806346984406641741212813887479081547067169820005484205902160850556096169417206007872558665728212636672024287675512579583879230639034035463039418811912635270146775519094989447666534657174578726082700108053979915104480537891924744156053212384326
24 3 0.0094954574563180079056018349117181876482094359166123579811564028624886102764286796086927418489304583988509964224349482436792430530528883249506810762197501849857418335920421867601411203283700706624956006296584652814646167090986371992344821945063408172736575082613803213350711342602367297270875
24 4 -0.0088283461033885929536297426462422315977016272202504832936099989640750336243296286169019968558402633308881617614241276799833025649112875884408852802985319169657864464833954952149473960312872652104882229909270799708791193446904829282764656823745704758601202495063743247159308907590888476660093
24 5 0.0066665306672721921392806879646190442332462144550788212219467433117389973257251602761049489510163669054088909038374134999222521581399763472627653750442900438006863951940711146278446378877123795754710121112159026381921872911157203281348509115183707524695294194478730836967077404418314907060761
24 6 0.0020909901317193788523382340393063547745837906066910498831828417195372162684223789776527229989540766486020245573457573572127616488434068556158096764318331326140377715359365714895630732775014582901271846554902479425480890594429495564520198387574333787739742214097453328710575784868741494648626
24 7 -0.0001162614279708004433030525611640792915064262298648735586131472964660454999131863718314500048117151808584122684745575594073476731982847130475839995806676341431086429599683044888653510482268750226758207104967647424447853589774506772729286075061935968481176621445331500940720816144289005044046
24 8 -0.0029291858985975016808213135892693884355433250485761169561756576793239658492571373968327112222627041800922099951073744331854382351762900465707679056588284464190138785584999466946755736582154039575738494749306674669052267152937588738191869424044906274094551794314397305150915517840053530334021
24 9 -0.0075597050178387554099389392914509126100169351881549926014293674734337054021301977473413166374106548915192111699338522450117870723502724748297127794395964377198466936023380480386060342776358880789180942037048269550371192912112050810450616450040503814499756915301726814578532087399329230366149
24 10 0.0028110219635126669653846999618323891196547703473522542143278906220104323438268644932005857699079482323473847309819269631206049552381434703230155255719734115322921262393794827872203509874769208298426068300690447253665271488911184336627150272414328325881317619547893542131759649294593857909613
25 1 0.010706312525324965924122128940415454557244543377772004952551238210854866782649402215121067683461601832696765373536771898190468177986816487438584518393559964656701357982276159462450311517120290920447921270308106321145009658707761539721599541305922949720839508345414778906797840365941204751825
25 2 0.018562716655596631687920309353064742470343568351424309632535323682258409588207995165198999223977740788320652175689575922454983186444614575786339712522819653309329314162816390405601082703557391164631749700972737396877210849182866624737523363723305627406685974273332878870262513907387852885695
25 3 0.032560271147206072174334713761872965781437067459005760448516024951189724072532360941884887749373274957894155466687561109121416974044943992113324171984283627385225750759738841429519227703483609774089298927358977562123104814100435567089496887174049973363869841439719163409357490096714674095158
25 4 -0.0083368113780878510614656922192714871873434983945006934625319066588547496640656112171002571470153435516285172864103659622570220384074344281061333224710077455827443271679074254225727532132599782013019085907718331794548082941242801458877363735529205652501898207570231691505672454140283811402076
25 5 0.014863817667886340054640945633142056265020534370640498466443056501434706743751674414213501576108830115164339783123458297774302785669604854747368055813733022163937767718017444963679707970257027380166105766894974690441624309211617687869711901090073898706543221839730963259289078521627907937328
25 6 -0.0096734764976698992148889566499296375643234419334330489866027347255772857784902381982765450751101445495227316016311066817590449542079897329070147961202540436824690821540063112427637532574212405884668624782208377320179645297527992951330261946484184506122290884438871097320056907592248874868471
25 7 0.01875189362136700121665404220883238564575399288784385800109145830368505653696908598177296727110533386063633412830305105141465253506028999200914432201692007750178856481638277416040830368624580687643819305990321539053624335772370216958159729926903454003267123329369322424152003914464352663056
25 8 0.0050332878013475587058382985338472259579011503936746822324018390655561034364439752188162825379420091687198845321654183013944109411356115103668932784324943029466702022396199182532224326627518523189574844584245705857411090700515612159098964807947533290335571477165368895903078183158434678425195
25 9 -0.066438940523782200002751557047329410860613866069051197134392006403779992956019482379065321856416001358709564803874144159646425245588646432539208227908302067922547413453355787125957582015961644132323189532789289661020707511820646953143949187831588918720979294917104104804582371796048180769099
25 10 -0.043765165069565746422751422066200230607567181466557363756240420134081319660665541186741997214500742380562988308110014160217652765195535250165328165228269724512412036553176801534053106738446539477090799565916164668484824730420302747090099442283197633192171636904163167162903556828173688958348
26 1 0.0052100754679184796272511408793331926771088055584658594694048767867807258746123200124468576692797408320983593684989089147920468262724024777748406480753956841274838754419767269106193480110854515904399104971047093528794535119449267143332416021133503969635460195254555476489432743129306851811661
26 2 0.0071165772126054488231599956068945779082857603562008134158330536443543471853125004512919818338877755301035225748827752248891399999350943310345153191969092556629486338685900003501496327820195578844388764933702630260159938448668689632865204343332160234993476402274961821622749509543704367773807
26 3 0.031497562387772237719307650534776767608351139142566284117866259481782967149762496217057076528432954879271085068815330105283617779844769261843295196370765891179225583258577648915821752917351193978085254182988907984613944229954858587101318275511198283619673759905562229087823885460438928159829
26 4 0.010687032483113914319521927648700216626595625897385436858458474989293238061846706061049116027822765151289680011565500887091434904402011187706502933258445847325495655040357432007836478414763096257205554450074676639699417601519678468884387742249303668412792876502693353746178093145744872221483
26 5 0.0067345795030919808945998968453175932686146190333894115903323661157162790942311370887268762523173175252861890742984947391469647995034969554022613255050391549448423147929079794332258578820702370542882154126142885639995324921214766702772156100680925878229282001990239712872446560701641690348904
26 6 -0.021330501385612517464316752981350436131215947803140976742795566304889773067535381013332099598836873758064903029688707126718547009684743349657476387596642098840330194828654097640937154625900341606045201504834668966095959497944477787912935635197607991816716099728027310078203177933897155044136
26 7 0.031301780707591180280171811331030979113061898121681479601297716097176685628701441577862162014511133818303233685514146758376215736422020341943579049339170500300191802633649210044145208011950290273789383063109903413243935121002796152028486830717917171200935958033497275777256794544704711562756
26 8 0.016832112509552921868962983986524916160263329948533874094565478342899404552466755705220604754607263722495382048402818983112639499760902265585692757413030226826424912565689897568202265821906520868075350646857023851835578365449335146832716987541169690653332340699125443351720719053795144069436
26 9 -0.097772432441076413755076068836816171360719945367038037071171326737181591877651870349653017767617841383957009144339824397926610583611339700664211280437127741658484659905600039349480484223381562972303244314793433903897554391807218593018601139152387547885352458106868342685738949005713770252423
26 10 -0.085323419195102321047881944905027315521305918012377529923095982200218306632803878386241317080726789501024713328760867840709132539136930922894478248488932681018568989600087870822775485840610835057223096588211962852264050210442482693311451397175694868026049227266668950005405099301210164063379
27 1 0.0050120971732510420360788966932092113268032055243259636432703692434077155502200162457880204834948922792867606232955704178380979943711663620094755145754056164924568722534457135777783100449148619057855276112432558257789454348124674823790214149132894251609825412490609953604679110750637998015563
27 2 0.0090184894569630838058525467982353266487234115953603016407675157141835128025956570706650355024386754106397973176289727299470520379251889394135480816449983998922781265243444401405659646387484366533513465155290938614569389990632955523169181490076510730096766778446369736393521593540513112167342
27 3 0.021240878364399749339838650111364134467934616773119869946785370614372019973657265168832154812636241033868446549119192437705978806224745902491362730071422990655850153229988321182917421507928779933108991951663904633653040521437269091080571577810472371072728797287148041998966680493444885598479
27 4 0.00072179918060290843684998515307388678114538880401878009057443396419795919699690420652710064864741160372411929685197445150423636379064970631187891970365200361289088303221566980304292371093602491928471077616626900553514277586339008565287285043009532702194071495114220724143634913935493336567482
27 5 0.0071945056239292611805656971881533207322009002197799593433792575273438065283786400521850109175879364743136248150022526453808264803253098442961639102090335540306684405814908994803875018946160699092027875412237545658529877570403293188449459683537032996152201665775616598367202888905774405983204
27 6 -0.010296791207803632347981256572476053022823589125452430071038411801264576358266828081725809002478823601790311317729812768727613410427854233346353363450719557641140791949431556176316557645793522482657299387190500122540147591227775307064612684035501594446051961336027947406634046309636111093575
27 7 0.016525986616780383950793956624335396942041027815047902700047307232860105767346629291978324914902268123422526062156046304300818973181326972336672556270471393907996820679277654980094489346937548721804237637619723328742108976579219574983100014344112069688595218223755732848521358953035021834765
27 8 0.007301847651198316893220198786848609793155671135757037404263670273588833698952657286745427986162847621621219494847479856131461026780242776573304181743774298348887984042583574488383988038125412280062155193703282307900591245859627302367432750627616790656486138745100608030354851301262200756681
27 9 -0.05456680463148672607780164716316858311713818707092317476359901129525555295594751160089909757500938043176529403303330512076297824982815017082591789038759274316077492458212035941029092607120622508495795764064847880164343111368847810402663973223442593772415232886002733228527348464391083489014
27 10 -0.042932852435503896053625925472926464017247648144479024544413291129850368646782810508040638796486129952810530512987637990386002578123794993792659602540947092778540880355610776349113546522933099104311075244196232061338390041061226298659608740993856625981996316225165009554736422618648802713754
28 1 0.0029199303105650889180338043493046637306428995424987377001650832287297623895096713014899290595861947712007716000383149713242739990504941881737976002514011745152370535552691554647821549989016888997446286617353599054156430291156343528590635240119174832101974036962644324966227059568490584492511
28 2 -0.004506093238964092936771075416330914844291206133830278945813312575547915235307509053320514889553356339448987911758205087556973161654065448922159894608686085266359572610346927818243673082409125254964541285162135573686381436554360717127243942833140753583622130937718369370964202306950539327321
28 3 0.021529769899463189641498723589597633226983520711182437840893928321450800802498105345895911589272284257007327192492739100505993250647464306876632792706890551797271949575630626801199831370767125742907341762487184228427040265751681074779790015390529006437078341644422059462584692536541313904918
28 4 0.018865544441879139112431646584253551616661149060385999813896286879352530426951628460564117422711695181764582497760695982672926527231809921121520265645672962779208590961742211071422776775029055490479493012711662634890016837431160082859445788050708961496041259002248329584468148108472819671677
28 5 0.00021600027569246331150882579500414305616775708263598960546364127708333441117008166528774194584483280154474837579310434072019546131562555535291333394810269697577942887185222196090148318224687949920308296934052384296099077037855363335872439389969047471562940877265316400907873169986044372690314
28 6 -0.023494233790506024843248741549169275346841762377449509629229894769430525713069624675756893596120809784070996647478547223047450275488686490452674211522680120809153987155934003738999687877778854854162443990442685340804928182670665540059101002752111453265485451743815683000502155340154688519753
28 7 0.031685852057911322679628612429429710494764591281722378259435935599435515240092640538325364223219611668380157500365531342366654211857808218432981030520599673590160037971509146751024220105877731886307004355730059976877697610225591681550407757076879805698597465291380337931940244538276228206729
28 8 0.019015980178583393129488304902589261421353871683152568968563316605774863911350679940000897083171002118148312210183552427592660314396195122817951817570372591262023121811381214686917395281019592878671708695987906650404276143334989943554599012622836878019069296110905272301129401202006831387822
28 9 -0.087764852763757015504702127851650027114864215296235964678148310617915318419460328506502308891901050445970807749286364004733569554921538139225844603886296768609424949190514365534361535548070989510406533482939645487193529692650070665201784781472550661625764793283472387202827514641527237134725
28 10 -0.085722816271784327691585488763202628328321885620496915838282943796510690750534360937482947792573386556245888790870979249310947331537199408215328249759221191124547491637186357914888546908391547939166343688870703877313387971053490896968823917286503017331937666901613703261103368268010661173568
29 1 -0.010310980026692153083574130909786067980020152935868494965150155713484164619470774756113625166282352158609757152995344055007369408574026109376161016060667144213910570930218863133354059851304386359474070018964446378475081074138610988582882575117317910745113364269090406086625389863224205415863
29 2 -0.028306015818709029924915272238841488356796074668837705723514948959176764553864862532808230162739951485821450878481716969555188371043079810091121558009311985208947108276622695722769618923684574984095698411149546544100651600320224981205190790888524428144121824858322913738108451954470816223723
29 3 -0.025808032614848272333000645048592839139822994124312149305496649131712854824482632757115970945680288663387021978481420778592554264854698254139778117070078926906211813024455786858316996467780440805863699734357805383342282327657169541327011637919392728984971627224297043704776718201175577178982
29 4 0.024409513359201658658934552591792074223336586001268826115613364985470197636475720623049814469684359583050900263377775483631095059839434218019782728311415465331335124461503449947026110673238446067658978990059521678807576382224856814095054326557381388533023815503753287227130080541775302165637
29 5 -0.018807087359195980795331791817156677950231234206168173113828618072396686123756225804272717019838511389677530073947822280293038586071822160740388201427701963062010078282859217734930403583790104486606258477155689697367577271999071328902424134997915228720153502304558332821118847554586676995995
29 6 -0.0057998135520368434859713420774615471004946598147870573119685132423119188336023340248957053713843338842734405576805450533068769979873341026725617118095770069155292576450541240781177413819543551006927183974925431114798751467964203920362824642900149173355133975408137857351889924396565625430713
29 7 0.00029510471924892854473224458017011536335472781222515603219784303269905393276250830411728637506199915531976403975615069979044574381438363716426493584053164882857704001750731452975297139217499479262620941714656443134641030001703515261364346832745645275843305463947912338817409212542253141583697
29 8 0.0075284063949635603053137903193919998774488451150603016135497105842063018499430441904864069758796123903645977192887907323212943656649332262443675690329286846871471638869579065666356988011809966692290553796328019777872668445116568213087975861026081266461902606754634078940075711360521363881838
29 9 0.02055411676457728950176583000713923319314563744090434721204973566579660891311122994471104793311898021586295283854874970092715626978770605979244206317905292583124937603771883999346220041438112584535034202107220133821952890212557921207034788765228863854210241283118625437060519186152824365922
29 10 -0.0073232482147764415405701497424969594145782106954173736472782152154648355086856659684669414690450658148956413827947665281327202103931434735430414372125510958256607922781046996639978165860245618910841572641631602604475252143734676563646166759555616734764446823406375797735355398139600561122675
30 1 -0.010919513684454467086991438879497726556101783194369324011220268808757989864701777691797450738145359815893888158668371988525652832699751313587343771377084484338194766015243552062270657068431527905960243538015880524321231144707573711496544066146979117821866226572387192961017092951887079677034
30 2 -0.017532420666615293872130213761361766135862206748908924194143831568338353515767663440523333461794174310503231826881154244398561375821102416306097382519395492287616000196301982216317173634727735915926784924903237802397925925409291466707845320902361652238164194932065122998891864985759085844968
30 3 -0.020128563005768556044268494472135705306310382554202561971467573292315880769931861369844791881797034717412712909454327569558315067561820014123989911485282224759537917225739676728886247002836825432793808097206208558657057618076891731306930873017424939598380615119107567856914763207433551819102
30 4 0.017407556479342266287334839379000418364281286100686402047576698267500249678139434909278358714036239053891662608029497860345579793842914351628547682488017365757235276615113296400513662284286073266400630797252670055075831148112591967905710710686850513033934009445310519777503692896407568186976
30 5 -0.013816380788675408831158303262317685375637583330450507969512769297425411210988271449652549110487500246938661641833930818429851176353551122405104783089997359882160717154768344712131381327159843440889173039495775784290340246752644357370846778989577650745577086490730128723043830891030998408803
30 6 -0.0010441643287218298441391407613289964940520117143264152580556653316338139884619760385567768994295308996233762954285169779995453316164902613600644132551830077558614364226677885683032702528061533772657871545786034292215291347116853469544753196693944339283908214265267231993004508189560917432837
30 7 -0.0034193613594454155548639528764588774646382179922764163628452515911028254302293508528064180857710095575302746043459172809386291518158779137297436790697259378827994980701998121267772909644890063188024148621910651109016071116881104765304770570545243429731159952604684302599489886166962909408163
30 8 0.0048573941873982235125218039772983590790590330067313030159765272346411223988518760043955858862247017743881429906459176503792273251456231521675665056857122747082986423388655170843500767867452366238163125939729432998784069075736411821978858609564105187752467609677176894230341759937468796783223
30 9 0.019302141866587783914152950533335499457962643896814481284213141931927602164349184596495112222897319117944402832409237148363468952585728382939091018091198540875060580197028189118218066308399369372464174017681518372471262343879471576509682863988287006458801198571630243436710160423503533929472
30 10 -0.00073788336267120722304627264462771394972485768805059473307836842383916043075109355421409764539597329364487614757759944453438033930767754206740926593965098094820057138553177608101708889184863145518965949822392066635797828684465089123211874646584151253051268510795204067503800451674890027089848
31 1 0.0078517655589254917262437267134615324123739028367347660359265818918394431253442017378346354383238418048463039903179510091240157566275200001398637958045882610432138254688056275986639416420451566996642715024612431677898192821364209950344713632126162146149189987435117444901669318747038964245954
31 2 0.003659777322125849958719793634616264406123069108802272538792650064035239344829057885993208147001268133614327122430635614517436712017640547395788356565794652008068642045312332606602678924177112147592444511344333353949670182641656582536849499997060904468345551060631438713252741141696519008234
31 3 0.00048067273657715473774505432131479173602214183717028735864824745600995711317698230872219260225512618716792728723733142221272177953529214434728902975167974547521558118027481157211470540407612528392793908977543062436576259102955632633856251527226799278976118126151560234839223209745128584320185
31 4 -0.013496041648394206597797440245153043781403617062982360640531583509977979703025882101226607254304562419393908588891256225153422242961554881803596894184837647849176094381371402645712964959095699594458051744260222666286943323330075323531845676505962193941688226223246557318787762191247593855699
31 5 0.0048479679030375986144564448590080282297197763116972657559424428739626200484721419434201424507765614260219340113377677798870216464689803399946238146790685613847913132673063588576540930954523360186066659971668699359755140632024131434396455967049971462681690910176400477892437457367485223725166
31 6 0.0054298936186328025395776800413463110935981001691308854287039173730858329024760457506629756820987528245699557399896225390168354549962682506606900604706240417213245184302222873305128414489084276032907573227562386631816764081884618881712355449505061006759312885810803100201652598195734755327108
31 7 -0.0067680862727663449901597463502165279734757075061085840278697479446554408544924549221134669103050300429105555176622353483548828894880819939912646360544681239199520420919591578418317950053244476617741444616005702490988322388598082548538548823865278959345833685336866334425918483758302540632375
31 8 -0.0088244065936445528686206728487118786308840222774008310843337988133450640484049466190550553626522946402598165514823633891478683440196689085870850823200628109308148302643280458813774684483200644045103094470287246664996110470139509394322961174947453760234919322995007626866146490187656155894791
31 9 0.022372121807952729537828811154407778069731974260949113292223140461356434271399848522583096413923533260302908862611114775743977339511909743828734629253790795381806694304555879935986513781757307834349185856291721187285381956252165434038849477689946215887482600859073784949509039673958509149652
31 10 0.028727520929537935443128485292664822305378689681866113245582768112750627932623225075934778976175033772525075309675514422564885799261694126325022412648579486897045527152603994380496635861830634939443137376507729898325115016700215579967607443090604663323271439234889490424358243490804288056791
32 1 0.0065823264712575126660303166314403906222659056063086645449220851098403015616648503529768754351332658260769390572771979059844406262736220200383353610205711511552529294455990616856456109286157269111983158413428551661999760999656540317776550614914275783264512899891145760478926556561664287047615
32 2 0.010897341454383473537740768898367919816154518376834374781071956999785420878073130889705214077516338180799971288788690254944298195509472514632243134489878591436122799232217726113502143920170898030237146623926766941601962021415894470213432919847126332513500545640977327469260579722254351933517
32 3 0.012265747233756044419937666365205695051399506604212404354613109895300247628750081459080662111510496602796042312895234721453951481432083338340943780708776278759143452876266295954056362698842956883950430399444736341786285354732803668658815163997518943830909272605109158982731031457738312317431
32 4 -0.010979064921600011758908234644054701665306031968119796241235795460673527951929466214332430616985125196655907629902593043089074772544506753537603998101887596253978174646721960049933975678342549336235400089850123072363941198365357133626564626301748388004518963563628384178548253883908362015891
32 5 0.008412889795457326787376249318467476240154596850921190084176331660030335095610229100755482837648194815090051267073617038842558326257330188586147216064206878530322040889510503788813281613810815896454128656413252275907555831080038876416884345747321164090445152821569791438066013517702625038905
32 6 0.0015324623669900841452725981350795607168063590740474282735766429585352772848125895950979749122623938650108437068562026055944658469371492265787901450961033812611461584792720932534948269846271869392539621723715425862626001780353104785380965737977840605080224385077351717470781126979386873716682
32 7 0.0010611547432762033821293344222705538445256864942046960456560871818575726882217324959787927697346692996006924637059936387169747162114169619601938284085100699431185107110602396488697097681342958016768922933039688051973683192856472665965904604055044907908886075876029908407376837528253670102926
32 8 -0.0034901272877439587149657802740257795834379066446949183536555909073268422097997483478554267190266521005529322526597026651869239642939452030011170285218311512498018551898599731014128802693909393487631979889881920625935728659942758317777988136551190499675901187173747692424771399176235413786565
32 9 -0.010776509595610207073105530324378319524670337452110289853218872775521163163482229971448425015981744389771657750783189109825339077041328899627379543268358109433433595102804242046335132344731131655736406589275195378237292743570499119241476018139629139045968436865714085743282880667585074508394
32 10 0.0021012507894141857601332157380574274565491778585852326088861842706167619489715629323934958238376281854078533565281204261310303135042505012898389421702849640677705524795186486122724282239308094327342710973766768895693508434465987365496710831573736408943880544253219564359350244471014214681537
33 1 0.01427073074107956144271368386624156670809117284679812621322283661428113708872634537088604164135481007957118883156524006940395503643631243420163272203577479886562062688790455764550470111841279186423238569012266792616946024926058105602806666399652170265134218347372885715476579303034087398519
33 2 0.013466051605013410866153678249984441869179784597145698136573054229149624261453893638023048998785538501052406631861567859376678767052240428020742051938909000582202361504607394752854348017226462954163368111163241173547149634681812880673016741848488259907451337363090463999991748050013110198157
33 3 0.038755347716670988432424724080878708173278028341929830926284043258674760885306989345308252577601734503443652632831865344592299880073192774422266328761749540034902011402059713563798997054326354792865933851338459577015079043767937409088912927907280576640680874444661027376159605099749581195042
33 4 -0.0024886927395820856084144740375445901821987316347897509421525375185589372493522036002765076613729277557704818709932855487763781103573954042875454140699864869122785518440529084697856860615004001886852154000619848387470401496601208406083083254084783411236956711991208476039501748686031321270186
33 5 0.01425664192110383321648405932027251772926848559512338533297417175425078871403598086219076435931131872569672095972163439696884812266926130032629501967546162379855157088210195346684904781339205169536537335861418130684480188250683630437970191509039143705110173953854404898854279663326992308129
33 6 -0.017271599779912455421484093798941441605021031736728955339377550219496626087727354316393592853061843609470873138954300857211207859238380629465578632542033999550750607688508728759188437589829417406335544769986171319235094917370517212340307588466557931072045810669598907206370961489289434469766
33 7 0.028703178014396338644527517972491972468969474219825163222725781641705860364541922902838272638857746003870156096368606788766574036404054849537762887625939070388490853816821214484074302294052393857539565038633186528357831188501767158457643561580003077921487307941888295869178303195124463801413
33 8 0.010026572844048690116893935231847910910905967853329880382931854854602897168467630371340083825412340975127427959638036736584653655527001225936044440771136313718872244657062008203247881956372475980783719930369680041796059340553435807006955174488141794820293670954841218633098932840032951557722
33 9 -0.092007260157315417513401811959096984717950240936124761088154104993540636418651123499403049758114510621445062361344371467530836841718301052575559136355993907609193911159868410348661295890514870577071059176014633154401589064667894578239437510119883891110407241420592436349773637102840254211994
33 10 -0.06854234729994365301703205928261868813406741671678061254959989757349567329073803986954212821813548990155147112800458901147244194772910539896217759489762125313253250267250659899562962458625717386454989873368652885332262681367996176850269196972156476290906711385412764835392953215699514011182
34 1 0.0047645509157023966765055916431854994374988885092913647148882064988582474931209187379004104788775883322376741262551440476688926490932201181227036675033153942482234715960229917008397330424522530421045222167137213598911827193117225740795035998666960299661793598454740455903155122333722999996515
34 2 0.0051337535893289200113231920968537204097687172124160338376922951802883699981834626355005805998776045766010576875472245350986363998829054261185137995083465212428157629623162895636884105288039860045301829773791770939578788048893589401988494855718115330369612701505089057193153436886015333038822
34 3 0.011471006193055311276918993569828892410977341170915228373512655897910801731677519039307701958602502161688433502601122404365172022323395013198181810445571205334849498030270268077084065175719428708501000889615241774910647213604909022527216443375452305580921961670912058842021172279328169741046
34 4 -0.0023754603443760657110648966499462823984234021324259246245007079469592039613319439968110425696453727960197146487120710085586154926259507930656842508329825360287014673035525756260867490319051085236515251066990314179565669813860164090156593715838705744310287056030041323076490703914129478898931
34 5 0.0046455518626668215124046042242209084811715346393142555424862059099621823672243958537614483435302057481752460701510398559545630663131703718548819843802888067497479261718455913840548101080546098509100947443492940648498436683479162915301143184079498592245939445668827677633698681187934187653565
34 6 -0.0049009247101394824530675019709132596446630874108171179412010535817085419174476634604919778613064035506982127206673983628355929626004447445918632551938866774726370820186087549869800267072494024812974176616070946976411197727406862836579884012384784955081716134970824301594017672154834523853249
34 7 0.0077528805632765650851810982333550152690142750145589319301046550272786339157685857429069985235144773661806552292433828952678530289091005232002949916126679067653362371959512017029401556538709215816734329361760987797805405217877037710984093460804640372998260450730839052654306537013338188554681
34 8 0.0020678764616502396125423265226471081763703949629246980181375392463362409093218984964573310314266825916637035860052497277966707182537378275481873110009629166714115571461697924436636231563249743381250448602703383335734083925494415718103918800791328352427911092557639576662746872724803997389109
34 9 -0.024851524026230431661313998250812758771840455612392412252539335384899322470419400527636118616480631051748152020428281164528535662554657336437532994774094430913265516255888355078730483574280360700669256384339819055326979971720226292876013201123003109630572588243915782528270758573848003903876
34 10 -0.017445920364307836886087255601724396584679672634979983285615089074147703960819206283748782566852459795774706201023456051289127188008464326523886115608724467598701533152419756613280378898046788429384897592199713381857607188582100846234437559106727946960608230295536161448355533726415964132683
35 1 0.0094782069691107665847092027018469331620340714999518452156538529276474676177783752475765075181187314813480909346025517026086956649415464132819173656831967291759545647154127074887650628904881709606841958258632730578660308719772065966573381254132656583978278846317869794095270940053715808570018
35 2 0.0069387807241734608477507424249604265543419938131970471915720276546397523640761899791561854623758916949504784775005382138868443325529270693466319221378056260479745114907959659944628116068923310491703180752720181042328510266037907031934938118454497436042871737446206501134329348407643169822069
35 3 0.025197967021689159759591906068003684159691542714159236962394163233591750639238672035397900489042977056611157413736314468943541403538107426864135380630178179845540043504747476236839448189526498671545135053986951024940860131639978671063577559628333036212625981313687323082526042050478697571911
35 4 0.0001576066086001561037248815443672012742357213940020527721793959970328958656978559087747460282095937233490693872738453610615555451077031855659713156688183699277648058581474039865973304978354886073340166013417711705899428104764629997244453836198213997775641487238729152998366118168948980171555
35 5 0.0084602046318077861568207704261275766832925597153114442159799733525727997996050003552915920344507160324276636977450527260373167205563562145630783888310349006742446174316746096602315327118549026253238040679877023424617584729873614603993064077079789695903837135418149953204936453104202322519241
35 6 -0.012857655898990477765847828726073643987711953020173593364338644310410347252519657052893526523649588875783705082527179208079576510662384505227399544734717854322192401859023909435920218482694369797708990767955239963762289014785196317675057850623835367019273849477337255636543328032366472990981
35 7 0.020352468418645794543761542678687733094352555709651954000480979946636516653964369959990928516471562487688195949679019211863558587828520176540121659626742357797923391979884747829940137875525059674522232516687613411712585933130903183691282842895066815191288616675002205502885426731082673733824
35 8 0.0076027643884848219068085260920757955309378384079788646659325680347702282026187668349530760522604275808172701494487172620337848277450409483436876291979286868954797354293036646501762144415416985641822663197530177075033714158302399771082354354348831694427001920099408833583905329210667614245369
35 9 -0.062976565733525548079624489726266392251938321557075839151000177670712803026270771076290916313906944257913879619067361272460334577435829086865514268243986437381349079697371439683596437254148203644146389845801406891274030216695868477848129429669292988546411267910258984028393394550622468483052
35 10 -0.048785089404472030929558000764255304235107524307267742226833212806430246733561857320710498138117717448288784708152749447775721921347552429962519511525399525312971095074346526970914738969348768601271604968007497603752487557131640032947384548694882182150634074627778703541608772013335229134633
36 1 0.0042766847751178209976227679433104970187806385456756062473035490300628534248720298129659918316280309400904060300697970691755694963422953793231941462425431533284462463958688000338867045648332442865388727410094191948328446709713065609375492302558788582233574978392292793451761961290650320042963
36 2 0.021882613736461189315053073982517909943754766066761495017096188085423798617759433705990187123352873281704185445378827248237890525397690113821556444726515296204917087666644331025148203467919782899808522644725220189114256966866559243106947534158619069026526480871053445639217326721177740900364
36 3 0.013570724627248946858763224326985655567924213742917523939310981014401987397080597008988340051298084288192124283376492292245069091875130290458387468213521307890541430909142107418530156465406810027487646671792787695269475435980263019272745618860862012905863824118578332510647107040080213808959
36 4 -0.019848882416824316944656976126647837568498836869767374967484871057024885648284192578607168467586197765693467232434332833380289009459007551236610901123445031493300105447154690242747444759250255937007216516575652907731729317435473155699211908098478636859155941907440867025584056613118790195384
36 5 0.012990538743005037365730260655168530691723292290655961494962745281419876907588750786835967104023401934654921581907478683986605984387016879011440951361346146886258374427655965395936478235505138804638616573658077578432646484034603305641300957094657506008997044298367518092097499050595951196479
36 6 0.010708103371493062940996086779548836496096470233920622034151947723159738375639583423091320674037559179311921900604327393632793827371003559511119017306019274211154159576766997497951764591528450703650482246343442419252620594006916032134757488415022551993382975296505783767236967133035679931975
36 7 -0.0080574906771711672927030416102957699501889363005926599107186444851672695583794676384326449930672517920930179550350846829755218954888323271662782573104607147598102574399022745921907550927767486645721901659710828076820882296653260639911184847192739245578877601677099647175331592734942201273714
36 8 -0.0087154473935062492591392584388602641224868514858323926095370681854611866804563857065715899910727588055732423740781830884284559439054647993334713736975183040149846196575227244450843695417085900895726030963962804044520725602577489473024209936085926184740659327791980170023229915362314511134202
36 9 0.0027047008042979186034804240272864637847303003779466999228001726467119705570851170888293943250516901077622498807426492607117106255751623448199599353178101849600567396106891605482175835931859785673668234073501697756541919897678793330750700643712098362066069462510307292662213681770617112076283
36 10 0.022247711374635959808098587652095689961510158794449349318407169254871598762770154730514446832709218853909304914660255253904739317722060965352051758413994064360116309820064155969031459033691392324176626030100023152051229304207574998150869740828585090945178027304924585638074465245380629595533
37 1 0.0028463134089835978420664638532984369490376996103429117273066437250521606414742061114586045785592098622823280001237029509908535429630390198777168800756307361221622692142236527386921718316607087627467548737693901484649883049366791508557274990931844153052964622227935711857902055100452216074296
37 2 0.0058652718538341846558653090780149588483346850557483793246247495525318379881238584560239346403600150739733178489561951595948809608900578355507691480542540456854206635290993263606547446624305131375589251449349075736445362250275106147773969242671803519545578871681922754040101500593864569152038
37 3 0.0082103101656323521142231833528274390937614642682503349260883817424831894178237819099218487446519383453581087965001354281830601853312060324580062537276480868928483662055733509470205954419248714992788063642728869817110293308538950267281482165907796947260920055654762386850743978215404118720769
37 4 -0.0034509203090924400985763602009630325975870844268793119169736154917592246729357105400929869635686787838134319754750543460576715515799236673131086473891531117471659190144894114467289944947159445431255148071921143517328156892315470723556226124117212364131108847724508202357025307264096609325129
37 5 0.0042350070617951059302380812064626620592845753171531179562847605900102031770049940783597431295584422410421120301022781640807281358786202819494695348223456131158885738566050897215915778905454548745430041957959709990244499579348642415214312364335515321011631374172867829246598182329080853361455
37 6 -0.0020437636722671383541224566518181926683451739815334336884762265697837894717389755737241271937231611340399779403621467537310248916511501141426339329035624210938350690436638670281135869766092367232757754542793281061736062395959201143751237322469073029909551417535829561595499053719776566834023
37 7 0.004001342224250463431897659197053994970239304245145920772905657261474786802499848757830618311849657704587985569963524030660754584911231393525763349525743008451644584555441829704350374056380983211389531612575093228505563942620620661745308102868307945522309347346774312205293396033527235393244
37 8 0.00056511078804900817031867427894569591890282270823432906215625282045280561896621311538998235748815110849320813602527673051347048154433720182805982018359903557751946858161676268173572434827353116235507650467298855198292114470039544448142209423235488167904010072806249422843599887681283438512923
37 9 -0.0145554695205232862824615946833184077163604235584822230463675668727009835845145888221627262128856803678815375049218765309156029928255843993330109077653090042260850513514446627900313714964717621725379133840092026919788123943791016263838709005190253851653931128192462707226958876790864608197
37 10 -0.0084729044100271869515834029303331395398924800208173044880515335643900896623069393702211236288557514884657127322528221249890082146002833870136582341079821399513183029754987255813719573591145642167181154893060226861248330397101232802644922785572287964401173527939564731068182091509034467717873
38 1 -0.00083251174121792428073367624897265944997143334978893890286047518504804296137212844332796172344997660183530318832496432808629605821102609128374300746059398735520156520431062208397882619462656418603061715256010070169259684954835063791432686441847585166713814106000905819742846027477154089259723
38 2 -0.0011315493475964924204261144898974239543890724468204094397053989484228595171853441879082604880629955914564782798167936424635129135293600427849166249199056833941019336969421147873261174955349252288226917571149853913529624937979967448662201842090846917932016580468560225219702552719205716557289
38 3 -0.001589771970692596597121924357436122380781101032407719342587319620216455183487580922128707329877595401033524066623756042094799317247642561063297655820796343676314460307378104522501413577742212788163013036701940220395162142758379611021064729482042010662223632145868004103353548480953287589903
38 4 0.00075906883604519001182229089251952641063046458675458973875707927305797493134730449051988265291003801693451241038378791328749539225071070890348094030848479656866603923841148302002673300399270664590365510799573773406137179792403699358549399376960151346319163031475228204911785096584194290411256
38 5 -0.00069879938547313466742996566633934092583706670830331214768487778620340824970101372457073195363736978581836880175416604871033664073139903557160560047149766352370714668579188310672695692599232243379211648888756747383238758471546014271286828069517154851538194546133037135913002562818779094093462
38 6 0.0009822382945420467433562536263580609181288635168395690456847630289991949497210214238433964322392876983545907247794895534518844176840482966519506346688373176597363294909637940946942403083994225802187499679127396872992914820250604871644282990260261185886885657239887148560749761281220789758982
38 7 -0.001116523417497933928508138486256301084390862212424756382721826548989794654411206757565401556007869820689339993374324688924056924470125856072006597743586877353885588638755118099100332602868077696610211347825518751871177838873814398852569052071029863418855986585361796458122781603900220727137
38 8 -0.00015092415665028057447014661377468549485638607874586279086573456753534746296659172777215179851616307260847757322304822215926348595316444336093154115875787187250170497798363336671494627002308694602062154187861565475799592201702818882102357313240127088359059942454317373693818576147068232433034
38 9 0.0031019114303289187205167919028748583179161520665862889637601122894898470182641473048365895561951885553045847883654229510548432842844121293973553892116948323479903499742752353510578286468147745695517534201129663256065457071242604295640399017377529889288351303941506936913061388325218717660849
38 10 0.0021340905945198824189102325531739111362099170437039115404853942622800366500018970634213677492942360635279828419812127900752401612238976938147364805296764568232016448423501969771939492295367696109746650304818530668180888354207486661205893057150226855832189879878436504506953911622962066428618
39 1 0.018737578946567887897968965764215586406563065982403959814129239412145219686500424368356598612812642666058387994322179796382388290242274869375045361997210690360356271471367141296854278378870308122035699474159705791466851377311724441814483450223136180756212923075173482478526746898601838947142
39 2 0.02382840243072520089061998125728681427015652781734242821982055706596996988249214098666061464958326038398941343909074505214219603605864596043665961252781835338700797664972245541243108728525928322488103757894340829590277894749043869772575806655880143619129621068948819814487682125966720776253
39 3 0.056095060298782918612995089454575600546264138972562133455927724556759104604734965899669944450806006934233549338662901425961207045210017467205223982003003256252848253307320651898395598383729343724224305943939223479422645827918301208403697021722973707873781922475337516974813634039647132229369
39 4 -0.0050170502389188062100953496879819364869887391887889375610427013194541187534879204539609958919342076965713624421434407826330223594265289627401359584725077917043600162767403501106886278413875048759328620442690832763583144235265353940552900648705975689745521602265867751405834545208117182329131
39 5 0.020945306366920332545668965781610267924715196190743147675516345057252101447945944118118336992844286568200153940635491174593658638703595147909731636826538481630080504263114620405408230817238513276724591356791011669146855463452804675906133713907375678070962336852501804587249801836882885255569
39 6 -0.02515001077317364337485487879609730947081476503184094068184536193354840304421917239295867537263029748758854434653501383146112611924150499261354659466802592242128012879778233164104319080585961672542087152601246345120388489788535588537085632532685635652996583047047335112661162580338003048249
39 7 0.040520365578081688198010590200222038383748820569068914095021824281409914676029896741474311615715135271378469843432033390633060546078645098539450737528284351135693427157110843616675949915856216861581348977983245640254109240912684042052272291915962515363294482965885786652529402578958889913827
39 8 0.014372857911922260641000387447456991656550941862162871175302812835792847715807947811412210484246252428722393822154439818092799817897128337306059234480784151141820412354474389102118650295041204647491930080425221407257388362483086933277447204348343629054038820097321422357227574979804992109691
39 9 -0.13212769648015974482399079807929637436278953041342655445285727233111281338162271782832400360519633675079215456082605364243431966319119401782352360904965458124774909065921669557840404437885401195602774887842884241128675579011400117008080315080973700542404346042225831122240599457549982805254
39 10 -0.098326812991738357974672635178232960345528864567841765345343588020727119302755758181906645188820156624310110125208636872212686390705837442064289372250126681367385102668407054693499869272931232122404385072038928051605943655648863685113032047447813255441020404273625568458847284237690748098663
40 1 0.017064147096646008110150494612107232994368164759231143322347760702864971407331714348465165007460610060725771426837373307362098038303105656138320496536059289056705602397727026410173191887710889299057350470894068808397836765953759764406023229641576649473106830386028920633594438735351049835692
40 2 0.025530273778609149941771217305678057146681040816949995541162087293642731588175837664778600738975924608033583646971467942899701370673781085238162458159709030466732200847690033573146194856921054534564342556369685059844488067549769630755092089858321591294723133821675468298443696984248720561674
40 3 0.054207645908999315549996332853454452173599963476161304862061944324198620093951338604840392868646608075595058135329139841419622809682603764067470190340950981972345955303011144541226029033007887507292155743561935518559115758176212312591807681305314333477122006808512819688499455467782306577774
40 4 -0.007199807478370415841550646152761294406483634157901501385918985704026610417339977103686817378414212473212052839024493457155542416129250515288515751694340965667356605771293407387076688935871706858892357386910113078667240231302303070091600120287665781685181411364251084231388812855734552202584
40 5 0.021779944882623874599238562037167272755770932110110726630027046251869439079600339346211328524263911685556533669865280024271870728832828777040524892190062172047643563540044830073470830147053044771355688867844816236713435912192156553647021938878460380091185890910777879014086127694242907459157
40 6 -0.019929702140931990862303680262453040156540384631460507478917433704923058021079521263218382001660505543525896487037451721861354017411027025650307487419019585951870857912622054272054326486742869752421313241046084234156282133990209506601263388886383000003645071416320046948822455942116154830656
40 7 0.035511155763723398814692879228164825091425486968515593436841529794168550939472024860482306563276200563124102694280429311054686650942760124335888406653843080073910296941197769350350896887027054413079040145668077257291644205786147626280851510056760140772690582901896697021709563819964381153093
40 8 0.012091334734208620157270738921721702016008094917227500524234168931513068167524468886366181109704010970126121567080614488011640910981591110363778810583129326351164003274310363512299371411845533049948128333767993225361137519328451625644295128126468989690081586179072293172313563328318451589039
40 9 -0.12209619522170129768732169709258950005981992531420630375893716643014384429190885200664376581619357556579676611860560010379991186588248415619162921778595331336641128155394346835920274450571537574023431246611466768912863695124677589939463014075078301909274165377880340532155696746769333214851
40 10 -0.087087012717048761037733598858679524656604167956021489371213843628390991500584820004756333952226270441411166211243206421245295935026556454461041464707698817820182482110517903386282225752673490558386749245726156479857352286597898551438072546553405151975647651264279263764849443276157017738657
41 1 0.019497752249805966461129264877337629033981872720291793769644419958823881532489533708238356429727724128546641409146188996257109181283958320510170094112447744336548134797162939460503387390931018934029152599142776475862260379856915303281109004570358039401603152965823256588498193544990355349277
41 2 0.027210505810234600001522625148480279742799552509433899243177496886976036373425272795037051984348786005857567797633461638251515791556910395169298699128216226380253110797545314795416454993751835535626407303701340635871543053593530981860272777661626948463352746688075410749699583228198678905714
41 3 0.05994648448778714387478041504528573196414616424768554377273055693565281889950282793680178869899566839527540641172510832586189442039079483369419363552697809184539529619801345337449804367493325371525142953590965943802681590431583770586524939075263227279200329843152513549673232274971690134778
41 4 -0.0066875170802647334007878837892842131401422572943557990362191152575832292483082108056485486085333984938177963304883344739564937723139572335598893561413819652834654704093555031134114175042172961933113576074710863479958532981062686853053120279836650276244616042117146304879848864515516465951161
41 5 0.023479688423194581360047998331713492556452564767193120688420306050603651723907980106614646466469560526883253977025791153459321518341099832466910479447490343120953232384702820358290607142819263641066912679932720806274927108717871679176056971294351339821249189378502443092862462697078326375797
41 6 -0.02596411056868423089995284571050091008851031313930873524504761893770915159890076932855582520548516446627278182882128326090740274557726542784986324104653017152058624554265209053799717276256920548325499642340258078853344572002992462245216710801385319438187091962171823991256070866616189673616
41 7 0.042751487595610860838350543464802415201423791593315430134691632929124669634779381983454279987938316020768612256440920219190929039905033596984477228985041597968799079012340178450724546066553715804290030433092544311434879166785303041112769005826959908207984751940310503865833942903858626528306
41 8 0.014989515035220824294162210637913214729894901242460882767726365791610637556769255432620373949629181703749148157773237040359650130592565467838349319564853635310333921947810454678891684388634757885230376239080128982889532418354514923341974956493909312635159742564924935155611416328698830564654
41 9 -0.13864469068500590305927546054824290843097491705996122563929392904347706068169340482296192027175127789866915245967771220906103548175756763672399565682195698901379715629339974311888333374289980062404816372914540629070939203600318023511644180686818956247473625709730275416621836887760458956376
41 10 -0.10235675547895390912350630384937730162974176807289530599445639049679345356023449379369299149655266751519134131833287666575772501926068293938502797207925207807663322876291655098500743382971098390795856780352398855635932082725660045459780947249500140011141735692084388089187514991286604651491
42 1 -0.00041923976709552513192194021501754069428956648953164494228268677235131812203618264599230329475951229466504134097604150856861587848316642073102798238322382292782500000633221068866664569335287026930968406379090752772810888826369271779716678395292534230842928134041400028879313634498020168763691
42 2 0.0077449337535132321224023118628924596339504114215154637603553156749675591336236330327600508777182453894597902590081428709642390658400178348817442536201113495888621018354342842593396958351844157262654843080011816822461464439131600619132859244144529816246333357960698492530562207923104244916989
42 3 0.0073072940942178652599313688436453625338401705511702154785134133086260267449271705616204644396132823282005634591451910368500898886633963429101173409330402736060278651695050609926655686400577886088977197068670904938328781267167738182571758735547833625275598218951947103492455172726677179901457
42 4 -0.0025111016742731442425262725240545012572097554531238495335578074485218625308533460274620101924774061031286963004167497673111002516440301108360587762509035010827386534453908409669785006488693918062145655788059531464443290761881338718352523597246224017421455708116261457248562150219797882796196
42 5 0.00394648160250976694756374685199044244077770653896423041986864857225412058876930635304608831942851183520141095149668982306112263199140889824343732094583689783023815675644905731546042495669621020231104495889615169053207236148517207819597160826907158256066759897273235654067928104362932219851
42 6 0.00027632468035156892881690284554466000923923821154511219660967348621865881289630386347196541274504705863126974158345938560882072040750933568763745874747923031124437024674034795669642203210532439412833248499284385748933439712349562614770034160663164373124901857788298001619751858773838179399391
42 7 0.001841020576176054326453308063693280082448743330516644085492658307326177059582836181574913745124400862352645510436601770605962027389797249817080140167448179942337276215789927076077913768791612411315326160444904819986156823081029097071010723041285392488510761094283298278760822284935461711708
42 8 0.00089274116271264990935291105643078486819258604914377528980944718117593630705890761720260899492471962151283001398011227985354976953772565572687729288323979012085036441775742557622751214464088085432578989704247231567971275438044337870750603218995597137464135205563485044671599706418990765874634
42 9 -0.013349094548307866325742377623112381642281326311618369869325744442371855953149889769470327475541450777573704606248792695452806249837155261315315694380071284444523898527548976493502792011042007541844256028084677424866141264482263461735620514507167300508473697741853724232525642844986435299428
42 10 -0.0073930096591184764966473585298648639980779995672071201444011203339499038223468883773852584908895126368263352761523603657968833449291686337029098787273662480527865558264988625299830637833807435191240154414506348567286555837630863046774446599897832572775851609269416682233573734198762434716295
43 1 -0.0044904902460278901348635457981322780463278256943534273360270606679203618828910323664674790523876938648069858525297716807214433362841194738082538659102914227674644215292572792594751272736155994933548076196076257302461462344593387985037142649172376975690591635151702411449092886304976646931031
43 2 -0.0035130310855652976914934345739000516505024280576448773911974364510580723723116957131091152902005074854579139543266192180081949649715851248769212437117116435502439231085742547982023265874127786222626904349197101882838721649043619014075640969418799847178834601473311374592311401601139192754123
43 3 -0.011610264335528210988120517693228934360319064802651054878241171336093855684718291540342375741707565992920014014507109945144152225200740071357620972167010960653160055418908108272040274586960660576797255581448830838805462437252222954076242103895094560202479309418263057010119099422080773500685
43 4 -0.00056315811401682052142822755399656059761631620751213831644783034315301026830651862180200466687566824352529363015606080661063875308183258622551462240258664035326892447061093102496638464064781454270968012164891322243292908192302067738870469676575072364705784762476453596626353882485603279153597
43 5 -0.0035977450730313912610966337270770821287966629123329182924082957158492394969528593941553842128083715738270676559155524757305620555114426303158215120437315830880886919344182781012369149918590053284662546864534809317307148354075102797432357027015973972759211976965540052621129228413004960090335
43 6 0.0087129951846068978105064710028964088756124417430247349444778923084875809056882306286173084416274876706867990040772713590383208078227500904504538162213659713624453901517419934865200119165861626043769991798146913976849795084886842030462978929773523066065146294352636533965566766843382712482882
43 7 -0.011636738615244849289256000670175703143579437122479594235401531381852485383491430787972264459246874809985960608528398257861119788863710901965331479804803761835218397135396225839954177111282120457039002442677350522629606025706446675848841860435100505161283458523385405422045732141373375192533
43 8 -0.0045890694817133744055978818823326610491637364937386325094832079391772820389401538656433841240306269649049511537873903548257407788179348663935901032916929861393537613941756811298475630644430246043930715409320816248253412888787195140041653678758115006372500733616722765792513247756005331998715
43 9 0.03139501164009848410896868034551779766143971004555790300842628118887389691482181816212024548628752909879973638297339139564740579347154929642951603393349567066390133602095563923093412871975757069984892205910541356260754168961956445461496409747058372607270336448457698180291358819911059115093
43 10 0.026535352657914477437318432976869708571621202445391282982201915209012014938700634313450589839241070403370748741549459561620797479610259668477273849255337269569148767906831621256535178396443028702381024929616774312258924323073811523237488608576469277157345759291705412326671884632124093935246
44 1 0.0036797612985130528948917769937128118182127711378103738175860900393918903637967758519145898869843009045780686319489866426136536984395456617167774295940101581853341803608371101810622421836945510369024338350944325605892625584358960975973169069380143977545261257822061496112677650210684629821782
44 2 -0.00022118420048374093201719898775603361383054499143200312034034252374253693659675465717525347319821988357336163142438440344699786606151937091440098199066628328792272453565215008355250115414279596949894597464211460467174370779677142625133562099042409526294408092856546783404382000693353502199166
44 3 0.02420393854439156311807287924113627308661082679103469477650638533438137401062739037528686911054355719141601022636058217508871693893495947545283143309885010485493311711739975974235919327796091908140052977292287348477298979313885950854075996525075172391941289371181658126345976335641542658995
44 4 0.015328797277565177847340281164166858956179470514124184486179334614406483619930024152333402050155967779448792420349017164055568838205407678821342882388210025300403591074175294309111464869682124358458392202316276809164884840519976582320898009567085172140170448927410672704034315757490880560408
44 5 0.0026008716340678417403068920456534698283741638943609180586529375113637899203594381385027751602138754878877856508738150055780756632389847248863904674842917208770080359404730553177368092623772425064818070113983296211865688788891760473117737308062792266897618685690171365622330331157636217816245
44 6 -0.022247472070974790895194921557105061042551459282954559807134703172834275973400362221287738070153757444113053419375767568668603630624523155339229226243016096192778830873477008172798965445243742318879714363632044126601196023082946014630680708439807905336846159416810594690863196516407084204288
44 7 0.030819178572890161590590388232872885867311302168553748896768590137974225346844070211323907261533834964551781088490639200366965087791459346988493921699216419390106705461960129439303348482852165204866589194851162568692493226607420246877000534803064545004960370309980821295030128166354274015071
44 8 0.017730769065225931522413669805002794501329007121864200782224260746610605689472039554613488063031633337498289532691939790582975226892750325538983362802591766411050819985981468771267391854646053347339125926452477884052086862134720587614557644140846234808624593568795968305189519479023097722076
44 9 -0.088221110209037050029196731033324024331023392330534390450450195691207156551354391323244013399930148683174870518003563003991979202541562344695064031486020614443387144026850570047770677668122417816276708354539428020473075530539964742494940578173549973810928338370104548117985928418175626715951
44 10 -0.082892662288382381886475085476828545519824690835678567654906555951232573870895292506071083695224465218234345797662439872240555466359128727014049611422781161210477341873608373125748977891518745376799777316813721481392233802027140423962674804960394809177955947927713707786179532378021096491928
45 1 -0.014326443565514973350640560033953516955418222188956511684358042094209697022885636513898772023025427211581949145702226241928118337855452600495002264840234457735153383453408759918145554386760692528218421841388848122935393437090609245376257137060217224018784432990093707022371062133054173491657
45 2 -0.012067634125454774608541697645537873464509691941148660720706332820817792655614209168631696292603320676640787263026694669757813852558749081097294204437402502596570956972425047017729374010916437702973949333428267137882770474229145348477328125376794566982044958239282091600168655249135493435679
45 3 -0.038572353392233392107345857098743695782275559684713403501789338185585914900434046945947635637360487386354613645651158413337102123112386764795446491128992117299771536000991460058717983412189266523465555789211645551668100110921390416763901600814744491614382582065023093884706865380060169981416
45 4 0.00071600577847644812921097456294215912823850891200582951989854851699737380603705617173038256129986523497794005600457359180854178450322816255415284085913641095942325720844229440295278302003048097657049799022612373655119835216201958761267277100529540320010460921474841525807248634552825140651864
45 5 -0.013546823963639319069791319012682629010159811160758186399528122722839141487960400607970097687302463336021100976337134120296393790144698194590755561196417960064134885933313990514030516863275465075416822147335834894553614986696638111402712422730272312496779959831438192203735096802796884427422
45 6 0.019883421959885172429384833615266741182160116823496759635044985948385203958271623700846658684478504273786566119445965367884102533561599775152241710737873662232596054972103734158917165749634187653142162183884139056921084434667742744835846635960081607789520168230880886726948925406355379675372
45 7 -0.031255143442952625793690220602840367349379218228952711429395967788246106114634403432881292441961547162247700012434322511737603596256992831595444837905386536610560126712449335884298588034797703857104488073100213683947988832524015971196614516279314348777313529530013106740881766875191936725894
45 8 -0.01153245228636291375091671121020032282510591516303761794065854363767840098264810710013089865928820578700545029850450680108973980614958211571128137450644121025754367968470970498504751757126876619696712624283045801695541353574252724843393207761529412112766582498883616159082220490485071533829
45 9 0.095278388931968162023539766096167139294370403253282720096902510600570893066865563142479482214539891550827076305009584940224487490598669624420878701165326658317417242076018498007170334229299916616073557684518182868028272750184242506185232490617079634429946942827624651079771711956497906673358
45 10 0.073760517086717296637256123861965788705474703514497387539821923600905635974683680121947242013078268033770124070773943177359324530390195864636495072220691461685721163889607031081175720677829332702751770756969661168357643323890112805817291313135475100462742320124693858756131739384722902324229
46 1 -0.0029780927882654607649424441395286878180075491684902877210267392938254485847707236947126494144510195769583314079092271418052597897586317716522152825846699850812322502881155081324533793749754889317361374540326144289210264188302984939721961012898688080663874658672452011895285676857047497614031
46 2 0.0094797438868277745276120338269812142774487042813265674198891088092551418500697928014775839103147942258167184933024539562457652104935062464284556671560215818358119169141480660498291777174414079894692011011954010412320474144624739634098531193649422337156382338289365967912971976287756623233576
46 3 0.0052056399995534561899053373390707270079053097316895073584339751146307599979936409577288661975568217343762297511528807193110646380358735348131732234933482647066429563399604627464083960305920774409035638022154700438985073697208358758035343565177542235129130922140175972172523477846096952429899
46 4 -0.0028147118879938266179681967546676892909212868418760859539357894220133297784946885547944269530963140531104824413882516671277705674090355282867176045668484021703051621685963066869945451239005129064081798982996923175446379405277408251260918388176906062876803870984453924153760470760115906842538
46 5 0.0035303018684319424061130545666564521016983976589000217699275414841319155182547296191289121517573064082914063383694551776670040008864615752677055505851474869481049771086474487467915315541951605200264558287006647711091114366729162317394123716314551724161474572239001748426447993560997363538669
46 6 0.002396711645126091793574593932174120522028453690309599010265477226641271668847470469238993566732571523174984763200116383996296763988607127083838585146531049002246868166452870831387975789753377535948713187056164445764598828233152064004004585232278009219795659058307942778997280757578845837771
46 7 -0.0009685370268304684731149617926812210979651145627001948959879469353114957660179616158685819796260940384904288913806080279602976625023695805529476231146427177889375446544635912625257759786458999591019559532705046422279406835892116617912671379275787199351728445267561328809773763613445812528782
46 8 0.00030806073264810322220175953493191818655302538566527595684813704488560844746454109655726392508134330182831954660105979342896312414507790522030532642783522847885718217086990241401967919221901782073609196379891358115975754248875437441114003001841853229619677155860384341834915531023401392782299
46 9 -0.0076227114250202468938691558144887968107017605735641600247945937727207746916494995564772600422763420818401645270399115284630210595889568252285577001421712107076422246174925097648681146568310223126140195255049357260932882977860335527312540513220760433779411140605884335385590693423638887235184
46 10 -0.0025850891735688528799336209410587575541614707312240459919307889704550259548717052986528749962485865964475969005416306562072271546893234623313684828103396038087317989234986311641733378798299176356126655688221646623569359001534674315253418353411087236544826012181069613115298754941812919434856
47 1 -0.0081103862433592889526797488276090573114389935095285528571325082685759213262757081449050101971209791825241689905573143425679476109432431780665693247210000862891253235475461491786397305710568309977847570564665317728886398562316516537554489398011651824961923621299001774891470499806657766529176
47 2 -0.00026798261688353746366390767828047497675541278928252019509131958153007507606413419139586409219220788590356254667637679074271512468379937190514534634047668855142317437977181076265579278952865703931169120793846156001479937829924053446848638770339030228344037243930775463580662671007590450949977
47 3 -0.014730433519036362830244200442284956177343250688000855173812437453838704219300878660946478131548047286245537120948874467086253732953239243734666297750169219279436817405240669493774456799638278738541028233106015579304501909917775702283344158805804130136127077561397017037595622891789466571471
47 4 -0.0012207297188847428753489338017284602873229447187522024951121265033290070212544070053450993711878708573082086335062113002539966191971732775605851160206259551595656155825869518579422225491446039028094775781668328114832503607173476751086945831310896808185109765091454810081171803203811388452679
47 5 -0.0042417414527802538910308827004117730629410425166206682559504670484250509260761135609724132838959106300621856091194419338134871676969247340942114594053067576577189878903598017554177130427155540425833736355488578853682665725804709607622906772570611442467120355192882918139002062278149546991058
47 6 0.010312692598394698529773606390711593393409554777581087728526616511161913840564321016897878011392666358322360740718621169965568742548770769330950944451286903852468768879224226746187615591454539917432254019642220600493482651492424421739268782217395235181272624443035941462077924373143960014756
47 7 -0.014753423733575401213208363429988477907305153199926915153605978494086333089832771966775007874417569496481985330611016798965964952832770093770772219775010168506454789191821568976753824857179256366401462052939147217032272633114030401623156528623532655574204065797744846920112493979532032918267
47 8 -0.0050977383912814272297691137151508150234209564549212680327486354387332502356428204803404430589337243790510730252480374236223603746876022539959994683748382558403325037820863589531361037530807433760848814383014477451547269116074764524434148192327602404645372953187619533422897786271410680902376
47 9 0.039148098617212915303840099436389013731617001830267007789639798987335127066485010355927534117222967899896914226035676631927915151583820521516564853846243759780308658926449805715549011958888066822422626748148043107475075119910116591854315217508270902636786083533885252344161851359379143102794
47 10 0.032125857218611164441425430576773741262449065715574197543697030246344508416706517688328258095051067224957838843701403622633647755088742144134800013628178891744908243248486619236664761769306333508441022141820321872019406728334363137109318290764174308555751534198354743876135890983761525856465
48 1 0.0062094063790334824320434931911118514587000921680511643298887003845179397894724590824014755836846268543563874858634101821863972483259804122935297726443068108730269667392950649308675946536298548787045759697572941389430947871304459645564320911353033543573524978109090963389632584908241483025851
48 2 0.0034725994326717149627329286160089372802497647019398689273492629083284841516555422794381181442116615177034738228292705968112176718478782793747035336521755554251055037083103552356742854590371610714453653904482670866959134710411627202747925393632779115521228508715387118642780628582838060425043
48 3 0.011902891608761048779130534518548667066854425472789519187966974577088197712314413331709401150804329014433652395895285403895894475412035667647861280780644742874200045950829146534986887649728009914143761205424192887570935382986664195881510356264373678392076378805543539803663513987789245238524
48 4 -0.0019620031388199647690421509763234732516684641091621117104160106450947369081261468913362689593731096390820681127616364498671260825690885570379065047240407640717175841693015298079906920553969092436819252968191566892235657184069109086570483344046055542199661970038566610032704764578878314612664
48 5 0.0046729910728441614959017399218766617015569950455559540766464927544348679550274218237433815740683457666591876196083153195134418718713935181229275735843810302696540670680083067495729569574550476474353945424307601318402070861711922305454267549624169827993047828230165432025983927304401572780486
48 6 -0.0064379433852160113131431101041696504577082134710537351316439552016054407593956817315144479266435098028258648575962490292378004364933004624352021598544779396380574788816694461308629321731118155433281923664564675850526573659010181583564858848413653455627674186850617963437134161512969167148648
48 7 0.009608439322291474446488869051494702083035613502742807904956426087004290194446207263006155586340092171087112396807933901342827393330931510474595964468338886055820939844834756669834991786867449827634741582850567894959762319473364611960274801461758690398813689388755460833654785087998931438136
48 8 0.0025229331066782347430956999189416209893906468311206347476945032126869585756717923709766226890474981787779341446036563880248651468863932869274318411040401511739607194869983939135794904185253703419389036983917333754629689996796374454742783181995825139607447047982117222970844293503824947301316
48 9 -0.026725966945912620166008821742515819091859852060713772341632242157615414667911425310963083402448762084539462133468872809103459395515267475970298525866302115068817272625177402379512910981646879945000687738316812612913025595436762190190820340979939621685447593552547506325685376041449869911552
48 10 -0.019760573996628471927514832068060083129463946832330557017394239817314858814197875453594328464865331908156109089715926808430295551356986698165231148693725476040182196817055559688775654472396830873351530264743896907811453420681214193116628041359605959007115098550676317005847895020515580230097
49 1 -0.00073455056332023573489514442125690512497378227661943474378121922959790701201005940644416773361693477857051563428127925150604551081982472322135212678568202488712509718688557448461985165383690191464701470779564244758742359355258278012097325883651732316134698105324734975615452186624239328847622
49 2 -0.0055288810697904972910202051210529426656115127848140719290473784724804257485830867921142453802485035394598530345669065736938478374914919614293736895636407571648737029654550213635038858655092823083221350997019651296157657290858190174905398355607383836167962785151281775421598866014503260436793
49 3 0.0057728310677145055202267506554930058602102663314163733784614788424299763391736584702565384900830098770622932611150573925937275995520456252550932735187600495784221211516507471034870628527426654488666615010603194084095581177798739407399543463368045497654060281116602182190013570570842298129158
49 4 0.012133363821894579841506356152891450646321785277218217901364863254676676636112749357121096862236604202140510687463162577854657693304778434265398480097908911545595503835708921719146741237568554284441726639607510361116180987328730482355547909949542340304298813465206347394492801086904841108911
49 5 -0.002615239870048664833595862683167441253398456745771690915696014983444874743313138050254572298395778356658073811072755679936183727010606207986074894389617350882409458882092299667707695025754776670233523149317780923668102453376568688342801583868331895373786805470097497877682221449454797548858
49 6 -0.01167199239499585874570957962288828983883269108430050538527232281749644483492944132222351817792078140390233186823239129038772360718188102083404313226565542966645613318254239072258378858564176002531143392160088767120499882987778393072993152238220736338307676811864104412761255908819418700378
49 7 0.014486144172584861995930820510767504786312979977746236641372983098122945592996588569047818112981682510177086178773116871595747320334717321726795559124675051179598045657795165798876073083397821676067821969696707271073363007373501636091292104652669426119630945752178641398094598312784110837011
49 8 0.0099398968059433230441865640622238284657546614586004173523390965381749473200077197525224206987464195083682196397861022951743666423658203914400037728718219569169661285710383021745759418862791727977015964978356427247381637847896410389767787782996376931600226127023779462348698348689715144267097
49 9 -0.036556119288144918279905799456771508284360278929546081264218020331002905133981424445107085175430534811446179040861055445777537319054372514831958221632974221710184417966757803525174409096420881212283066109486561255154460286526541637601459114789858871109845019055147119878908504006523439008195
49 10 -0.040150601357107123128421017193093070989412993481191549462132775136105420714828079930847723407814979470693090227358937105036835100500488215171857933870102138340415506584140073905977003128420209320288634272862449019664128811365125689982207420324698609841257035247910403360082105645317792326122
50 1 0.0042241735436620475844186691994119569371025455070765070495431146073433055036291448750944401377686651733424419512616304859810573606444309757631768252853363746115500884993321426838454742624448347450223378763170885339021453689402527013338577627005156542161468524063158669575284344323609450824627
50 2 0.010387210589104966658960341658290017624221410004283511805928013451595665965292936214437291089270505040023003252136912340713018368241931604497324165823192791545741539150723111511128029060427247810683018924796309615645805563358783973854524865021479441960421757360710885244915853436548150802233
50 3 0.031550825619572457476085448503299205924439735153937649064356627015761360735531746280512707048843480286570473923900004334748317904981517558228520513480547750881804965022749258569444382906853222199851206998575301732909591337029335010138042291128957264450608662890520664239912827706534298036517
50 4 0.008438513999449056998700689512852642208047789156577804389629105366501543816448287142526791810122179166845474737933681060862427215922784088327718527574225134790240352239858366446054209781688681514168342661733034388527993757508921631629775969083367532810654201635026460029035126373352320203968
50 5 0.0079021416047776441219518551242342770074988150818621995696416058675405552415141796555787730762143242434142197900117709607773205159377586210177355196823369801244388715506752654536701365167183556090876060613709787825098587954797188590077342866142263924447172413636302032430837623718088299242825
50 6 -0.019019342180871658794570960742968295469825661699126679152525572515965663141039769159915315354790568350253159795179352568796732572174605880219169007827295049086530297082453001727323260381794412010826690126412925207976715384125297034147101136670253564843611812188413445092174262707461436684334
50 7 0.028914202810908305320245776417550207412403865742308198319702641594617921595122026513489854938271045815236844503006014539842715687056767484644480164997015252460057790062741449092519813392025209369989363933422933304297673388626839086922618729689745940481565581485278112945626840981437468985421
50 8 0.015600337156393052720054324769851293738177611308208346923753565358980065485154612234150689981789053147177945854840095106453764014131851317072584617900721303064870646234417586866034791114303420949247363493795227426954068486832690113529801159307875771758350867044108569412679979760515253804884
50 9 -0.093999774519096654541279700335951218853819501838462250994379072373208420565804538746134136727277158475150729471594674391665346305219069191373688331067567522957946135257682688453333440251171797580984624480643255430718457049572799575111740434437103772338169945365226214445966021372710859021738
50 10 -0.080154047695241713651140440767220496828029821367545409208362765844166793733718321377501488815962756759071881053516455555047781235875438982829783317760970703154813474031500999025340312008498278438073802241632803312699053250815705946811694697013609937272727858032022149254170008329172392625078
51 1 0.0098866557260421950682284084311099906242120183919855815109854015071543677368828998472771937557686337862979187522893217479526977681239021670042272904192640761268925413408536636152257153221195040433826624595820246663586659077911648489171732871849933831011631351018519296650201913338803419061073
51 2 0.016181975494077074507223401059132473805078147925498612808699009557895983476082150682811119240369459950888829287549647916301382815594400648573363712365458387073102228890645391960851467196259373886014124844714902869368253907653117783492945993159937940139838007348327960278653285943173268386149
51 3 0.025228452129786578930917724999555852164517674479863816984323336346907813046571907552953156795279707502437503588396176952240495410217377952132545239640209382813040555715775139021411205698267864879652461424385823139567376597513225811409375874973276141276456568576460739740468638827966945638467
51 4 -0.010521125796308294821027730322659214916876744422277481764086330556562286771933883759475838448065450880388419776956559085734851888240262518635829173768342992428789006720506283213251891053076078574563935777360745561594241123610818400413134377530611263529345692673161961346819525069445870461748
51 5 0.012886212311703389578555816851047277773439728708513638821086155574961501277991326018056608355217173378875779803487309933983682254668078734346778569340501006958970271099435440744344923693120405692765881168506675309143659413332491440306745027641524670579037226539408613137503550346562377555761
51 6 -0.0050924383147467784591285731049181983965188364661437054227787303510382763492020248468063804455532621410749385552074342464237416171937994851484964899168903475312654625043659525496433820517535456166945523319814961209308501728480366497664361642665655613798197124460019561014487818448142362261322
51 7 0.011599474693841445148559932978660080918570806948433117668536308384700660123547635482232257861191557508093341028843213092208355781839882509587208655500228744351273274738389098940035985918414053060213159318429923065437953131825869736885406882089917902678008137968353270306159118875458702655058
51 8 0.0010988685760581219998588441726497220516567626629070670286811075048910695709624459797354374248283099336205808898749847237842654293483876581359454371642614918219527474813903001480335179469353545317291839620710222093754656813400859737242497632250126939596765520674263342409037099555970886517099
51 9 -0.044244996381428917974369803466816309490504951640745665428576009953729430275266609562002333602803220763855232079826597951714690841372499672558931261764566582652575945315106562622008934860859308728444741873379121459401315724580192840069479830438226804780837749834055900226286414243678700581766
51 10 -0.024493385421316374795566382577006526590725917486100914650676499331235506482552482034221169908704199659325521052345077077819044272379317487409955273087218728825709778087692958845464389296008773407947023182800852616734730301932966898601421686261561892996653585864548876684102008006931085555738
52 1 0.0057014469192591104744665461175532328033385079254803686974932103328869067743393402631212507982474706844489441588013952342387495890760583464413375536761436470097630499012518793108697716358845820760594404847781275417541938979576315256827601666425978798262652456760781049101604389600602783041214
52 2 0.011307571918742500236870003374150489504302286952920829532140059513394789456951399474265184931767661927793990968062657818149969268627110779621620180588601914738742171475655836837462541503731763228829672834438430916149503722036424384766209114682955037277770740806320444727269942572691016832704
52 3 0.013743768862564782391622337041794746439775850518398424458776367049090506894670371178774175149729636751810749475291317798732421268220499856315361389841289493396414092524453785490253638677308908808766497170855441310789875750791395589587987709849680634052975535282387001087083805289984336575856
52 4 -0.008995197277499993417625694258806099389797033517820597314493559017957172614502745851185253750525955060280993602526505936187676554370194710181735194083814806984173190484740357301597045830153942700044067034890494606084130122342827159202994025771315019628002354812473841974488458702927610339596
52 5 0.0084310001765393422740679833443162187869706555570670971293786310527789576880640902069668814624224217017379710529970936860143214696703903978309338890600636856937486760854145508941215566817750129573485672389831723815704718248750938327404701340247201578854399202731680717737989604931167502340714
52 6 -0.00037631392783273468122192544015698108653803754730324424582469091152179210985636932822887643878960258531377594848836618927577758034004142243676309604905566741531658863185643373889991327563388743019184523638896351662517320752390968562408221212836210362103929107693127471232808100084754607629119
52 7 0.0037235092488758329566396225374381265634327563117392217548280806450332282411741111142922318068664767387534198257127592370002738469846650816687509029045196635392673386182305432632186456040446824467151575774381440013706903624345388283187340992190052638480695821345406489983600198082347577083493
52 8 -0.0014278656211278049843533800788973202389719115493638399446353552725680082551843858819988882749563841904609596277221226956665863337169694041383740320211611318341853266837387381011666249658971586280466528168798240849333491107759757531881897115748615317982296866385222723963732912764528915232573
52 9 -0.018135567429816892941850018866934770566876890031431439066029319149365226552407886490207047195355669553652514797486793734012879963487312874241413783296426864247783261453852293596432761807636189009437416889723504278768929838511390170803458677944600254721320740781412938446900875962398400064239
52 10 -0.005694141940870265286291397418130472846777187947986382837312920928309993753297546117889517178515055156098942674702406483455124456253461755936658603300903351981707335077635473847572666181393822940217908867072045950470215777660336280350530733271598351911224916743434086264266960019793206225478
53 1 -0.013920252612430424822232690300580924929071326115339683185111426192458160546108217629033479406774914554180593414902259206742578751744180923137448339557808184389202758082528192589768580624010852606171901242570218602373973898600881326279138786563937559362330378022852690159691876659727704981472
53 2 -0.013721358239881823214262729042577873727932376113358089398407948864538397477320482719910071733644940397152474109385076165387958890635949035777849700617561736095712491766670954411901686894251322031821198564544262263244098336282696829676483169799738161501002690435968695576660495929299416826487
53 3 -0.03965191157421679652275109174573696947108032688800472323238780238903601529119778402688863448662542376461954865167923512793070951243349845626412139962675166623230085153844258568182798386284565312838471995597528588384231204536547490136952055987323034996630591103651216253871639352387300220947
53 4 0.00052587601482320492917221236763613533260182840350134977604238168198294572393415856818288000215582604177856099774875980048784538873313536424962412023954959424706709964661576388870985287986349493547213930095900635095079546130870708423656229706032905246133357495478215580790252406039303861240318
53 5 -0.013877877985405526104929637946707024965980944904344483060480944252934256702612023337534673365442092755537363440791442701506732648322464753424042299785319901117926587961829140139242167064279466490236002096624788150856819706529547210211580904313039475182492750265391650786325218684650053878776
53 6 0.021753718011814076150715656284222442781577635920769585516542978950955581519423742115624425479581490884989183673107679552438899944754441349426745720455137718636610091014844131189512040492767235287577160236331873561338416838316084642489280055784674974467994710054154094586315823645453266764818
53 7 -0.033102165009009313149888053316678171472089425160968863897295562671657686084794619421401571665256320959803432148654561368422618430198057514789205979650362584110756476565199075742825241291112401008615338360229282170278573372188008950852251281847493534827554163930389449194470880484519238328891
53 8 -0.012624214875950204609013091136748580426725952741030819657779809900704351105589326697545839577413660877203957824625272576798728728431958057769400940998724071592197658121081417855432830982713446341608992150781608737131399951900354195641398976329713638169584821859597911559959341239376301811896
53 9 0.099302233001146210158166217706299417897975136369686221313320011690584745768967077075766271067160257454751443330032693497936358829991203492754717492134683111779548527452331061917845174727236413700816681225724159946667118999957100999752820904690753160453419835626574377420409148244308096131965
53 10 0.078182726328559268846915033145325096387979348033930916601877763431684289186496848019302628379784508107860700805749296583671368492752165760775203101745293011531178479041102537041071034150464219279730470008263168461477020276398472902452954637314384717918680185759314896532311714761541161369238
54 1 -0.0041223203000605514532807092154004323774842523223788148192738051966803448098814281609511194544802479544003869343996398776979064035090266116512971857234302999935813465644585141848163477300621407886743684939656190561547584875946469526433833832539949625805243323478132834146599952725562882012134
54 2 -0.010381967958802799722708477112094861212474343850719942163456827323522680538496033134239462458904364271080661290507799628271303194158349994779891864283437178208330167758542463670558218259922203770906745307821722973202404143537331303725333596144089131319369295999897818248592835436304672711653
54 3 -0.0051486401273103330107694823945680025050107631016251140863350427355532604408818380243315868977208817283953429490121673183393635819360574775101047040308155230080853828576976644487696897972733000076858346555853008307488388176166570046726360659641663727110746837807616362144120786819701457582817
54 4 0.013100319613949484639514199726325820663500809999425014772543240185802976633031460477417323790202714908708701945168685362858494489366351587567266822448442624529750551804430421136591792172331243956686830828056093667057661293657904045586726164833937833805703856057042905663103404810622780767386
54 5 -0.0069482897605414046154187161681510246497386195023296412267680954561038217464765158121220524056087938656258303699429453831837694296683006252651096614364433486468336885620399497249348553830680755694254350694887223932426428489880057004278663025607504467599523915963074215337975187623182046396634
54 6 -0.0072011391520653111845658330043798626755266915039922508999164895822894928188292516811111899508009480748432529259226533705911527783428075202114307882802523619962296916874772251449627695827097791171075451356739277776266620574775402027886805834634769516652822053507972536826776224742550871180122
54 7 0.0066853235295283539078892287636189607481551748802312844380520107124612075181950609781817464803077968841318735817867581300196793228461518709741198831571233900569006656317288380830007659049055746947919547517076460355921392310171458277363619113785144555866366036008913296826908022792896349724261
54 8 0.0070720694134968770824526753039227041963291634309570225941328484830270699736325462242010441961425595898568309450270844678054813190408128632760903345529130887646041268062847284320748436195417133795778105766342417042383463404558684617089793424124226239394005037737250523309599199040584836518678
54 9 -0.010966624927820618654535239425246187840492765619358625685478465335966957163982038392891706573555026278324557371119074370335033890551295401589790502897461149364780181610950306290288856985938790609886896658580375167580556303662103352558030952561182955700674429283448705853025389871911748414148
54 10 -0.021236255046920344209852148736507834156168090903549014938301510254547221212315234368483345841999119653690957936355431161292276592640657733517944570453807758447196162147566345973293490275883811490610087891875350393997294773877280201690307299749294476534211948273889392256154273384112151698845
55 1 0.013075126703410666624436983338355669459548992672319521726658136157205278275849613650241365524115804718112726420556468333962049066374965542199180514860951873790608456707538447638503994012135649484768747702334104660382866043849980583039301177886300026923834886192803285214404499312735840086231
55 2 0.025166983978211441738198555719121425605535528939552954137654455765908842199051379262135147976228145193222100003534807064546246242043914870389321026079147699168021170713115082933037961192287663441050128746425237621374453859551748018724154936004935424838855155894016202948637219013096771315065
55 3 0.049408598224047668508930224541484256227799838890513976915210314901803162992494789213099915320834075198116981874634251467324075957161163925632367434664619869294992193196961065525931351020741948365497714507930891963295590750491934305740143809810201958973795827182928909168136714737274286998701
55 4 -0.0049582388323569076700719757239700970399419799092705843057972921107522637620524379373748209174231496560691620231950339976143988412743683172096599709360874434550015942229594797056600710160777557333312116147292232446673276331119336776898078732289723454927641387111756482891262383107251546939137
55 5 0.019314046083815662013424289298998063196267571261777259036183170566236611868719772163954552398864933241464590632719025850798472946131594942246231989112301704045847933700167014271464053267307802827510694202414817254457700120362350176104472384087550106619499556314535510188211307602989265469523
55 6 -0.019732990374254429730935335482246347545714275220574844795120683359828200013219706769141523394995463164188613599503753428919175998150660640655586386969348139446116549975898552094769182899892488080898177016934529582975342758365961146464252840148207153067531469312189525654793184917466854475134
55 7 0.033560156383084870049247554070817544281140023897572034085774307088905853194457951463911933146381626327912269794484066371752418957292135732898484674072245213336064702059776633966623953625746366914539349254807878035745165161329432815410782634978669585162540105756366811117246625471050950147024
55 8 0.01275586050879419623785179723101721258517952146077146305281952728150940329970630915374411380330055456124758681323936398712233486507367355865497320575392007297777920219216857857906248209944258839259293221445488415452215349283063311585952671630829354178402494642138102488283301245777579074193
55 9 -0.11491268275515461303380228068878511791563839395908243984038062278976626336473501675107821032992423333731160082849556231950073729206773603802154732740022826093052781362063580783788576480742031719854652248723088552619110073512033319272496027856081259257561434495473684225514309885711496327376
55 10 -0.084607533599060260809407577525700077824300495802653251218873330570975794951500367365954586769116511128221900217304076764522932225382619187544835199018628872258707857975594822518239133714845819000958570475615012414614912901116595362677977319150688823900007249335189569979581299005999063659814
56 1 0.015515979933480615008303764385969240604300285946587113967663454101129013598208969086887982954636047894500080156002712390385834944168435195946667367530437501938054602549199854278449560414531617232220504196574793104960871264657227007182792284058874831625800438095833012363013250984929460950657
56 2 0.027625263853667806427187685246253712970576793992651078348585653945496945159196679902781807106823433512481212976622623784893904469068998294216493279459332046827004633341269661681795131077558915091097266884662246189555521283154128845389458653462606400917259046256870167400470351569177461705145
56 3 0.043310092157472484644372366555509740286347190119417760475553824303631470839191119281402872926359333036559446736869770267562572857441819273385199137692724765404415313956995570096867814836912530226516503073293609962640602003828693888653162034290643092398655367673951364454009327795530935296348
56 4 -0.015821528560410255972010207561568865375779213973799143453317423593049391219316641220089675613704920916016043860669224069754418957827940017841610174562129327162360229076287448877858869049524149949469760615683790071688010281680545150614224086758429215420731009012790679070280500279207499552742
56 5 0.02117909465885460677096791960385873091861392925212167329015820390191412224013487333228529942938812910674888494151943337788744760355921262239863397955283792490692378822027261220553043136964638303489238345220234311680726249678240973876952615097812928677187088740815815139586189588591892952478
56 6 -0.010417672572770803237916416131054384013222962394137514000872353323209658506587043792771136818390814169855343983651658030120107486474797758480249501456440383439794324910103272939605906919608692695026299975555580899275844560433948384567602466000050814796591108871416349788091979288177571335843
56 7 0.021449813803300441254175013357678529994301679897454557550618995895121091345977234411669607202609267193354629148221096209142301289070022065584528018528401703319932945504011630513284814307215650025400177087312638507084160191120469046068872151556617757122388866248831727910252068667311205621481
56 8 0.0035753917832291857367544491551614216032246002778637200169742011043584783005006790601850221401455487949934230649356541378912505682715893736617014003877794553244202869184495331483537843676634449523834441433199823702432409288826392593056840031765754574589760953402772911553575130934189119713252
56 9 -0.080259637836688000898266732440154148544746752291350748616247372167912622032440392779576229144230438395838429513659607410484226338796204919415823960455423022465137376796173941389529421236663467746497283497783028194390543806976352306437981543023074225764814329775788690901482550655556706244777
56 10 -0.04780376299411410095803741525206524462373517366391248547066927177229573131890582543542344589544312346606114057615980495191048300018964662566523664746623909475902042060253083297826927386814681698640716886381168993579028707111868959017244715404847969245918387405481894072936094830320634645637
57 1 0.020158618790112928969729957259438122394694533327377644241388616344861289911250259110833376870772868455959399754379085617047431633468478038887277166713377849036167752354763316385461160768812198685244591815472055382306085511041608926513330016163872304899834414989163945407911966501242712963179
57 2 0.029222178778700447869837212828769282440462776640562014572370964046145336096587100657631737898675348111636305801770454746591607116227479968933567208268760026145038723553106248561577209134642119053617081923394919341790158991005204313865778624253512243760925603322542801774553387997927062964952
57 3 0.052046549620792705026477802966211730916348818190181622174822232582365336863960269676613125989158234917114601877540303308862505054149393444851429088960738796756628413991575443299370946126501761956537696006931365220064300465156268512146715778623054619433788572536803514378057013181999331552927
57 4 -0.016797292360716753459773180876578702705686902418238026955103443987914937973634572774511589856622757010670255794401776640582069184913818777392981022442929458489570201600966962618127546742566569496518907094110671885987924043480487205065733537940806298002616722811879647719150623294268880515992
57 5 0.024668454096716669579148357536726948550968017201584182202868243516735253604619406827927658493797060696743656311000866430996583179670234141973844621945944860492580888482141792008877427729432960584312063562888404740173111839818186415733354866071640780904030515967637071239887286828510955624798
57 6 -0.014160174905657459022686834356702085147294161879712871942250441566922761039180223987807780176048474726057699576372912715828183497218576197475323464473072451047362252898736683018279732975701381762029642329082232431993843463126715416981182264277998766245233860110088812883391479628480896987503
57 7 0.028156721841445423965460507199618949584797385699965435911452716775466144619569848784559438432693832305287163407387971812678156092269732411553223513507725093821349915867907578724405601511392229476475136635988637776033967535718995562054492964813916228352819090728684901260900269523407909854333
57 8 0.0053701754896287645304382462747864999440245350838353370607491480021940326215190674431852387132448967276496237961808430543452080548225214363950828003046337032267659016761980528802012707050499452356036478441069109518201528566780666976338807172986481658205053134107673167096965775951613145716967
57 9 -0.099955028977922614542782500639219796309924870136437975573571072123087891147497832350455079998743885862120010036172107516590711495317052912950880670060568277627976858661623501356278159864782716119763229484138477772793301634289893747506314665346958458464150595949418056728256444270079942367332
57 10 -0.061887050787920532582515952355602588215142006625970310257312760460583602978260590536341162140332080604990486963281542746247971008360338666058209641350751104299116776108420275792642719773855484033095585331400033406544325980396944211640700106183403173499591720025617943712917861466580353596984
58 1 0.0034170362466950164348468920732659798979645217306406776663079624462033700613782826711623405421506443259276791415752203592363996321609233509231001267318934403443367259512319602846093605630445629196014411424327537008398567310150567190572788907546540094312805842929080838224438131259993658123364
58 2 0.0086494518406879782974776411812246417917476039070447567213469018259341715744393424613068215785593867285638573306528797122746614300090484095143037389482289440513436473003928531314698496714544546575220582846222565517903815762752468720764262776891240984505296377022041133663027732052129152933018
58 3 0.02707755225742354148545240576424862110085436738449115895870405437348123508311802495488505498031816502828023263526074220989439278490448255818796973809926606122649152230423809833380317361015544303190738273420006964194574404331960641601133940529886561622161194780763618622768767678710613456035
58 4 0.0075427476881348553547893387100541678240133820586140591499814447698670608073816659025137686588666096000201776172187461106230288486607445257555896985990147581854220018342725692608566256738497082538558543532270535007963507702019470925261858332456619927337420648372932441569057194786354039088627
58 5 0.0068024411746419516957421531417691446064395199576661298705125031618068086846282473987470391492150351623732095374612283615465982721104796213249257312277775012816914492311117143931654485721857570094244769655882350918216820714184644529866407971824497908836874221097426288053927889251710379420154
58 6 -0.016124677996705257835574275973328846314057943656363163110750290081476917099087257222946751218522994600416812630180884992847967479084059950871103844121443822100873213018115438391243756999197238881120837140290298591623698359250049949125201616376067548199162130193109251913027613678175379954115
58 7 0.024857046080947980603138068863172820464898520742962321125440932660837207930033180844527547083665613396589963454455082553892451028442398465616208220879549812791804854233080464429514047231473321785948233392450738309695495403711629651198974274926464062705195322539223083301599652286616995766654
58 8 0.013542853349590131657804699403549922450749898436217362008091527048207551374833232499762917308134794708944760922706510035060097283134716734555531110270281103851667697521985911879449880032362635263008662524290096096154501505422058288005360312582493889820083828533484087404831646153634055311696
58 9 -0.080785747350205329336274675031091126368600260048797676125580624249241844646164229229722376600144927435312165111287058414590079193278002611907224815282766692925875472537870761468512425432969207776596758350887743061662455278544536208430647405614629816022643578631630384238349147947358915235337
58 10 -0.068970347196310402065045412795078120411174356255090120044918880244360554396566604448050677897907528378904916123903250503115802943697056075521008100486916664331076189634228931200090116348965223304244631202522620378052652382759057392362921222760560119930038032034037185919293557742337666794365
59 1 0.00027037094976954421474144463279327512652516873172776305985023279890957088097783744663225574105901756878144004077522965654658864766115703803555680312342925145400797297782387546952110055996827217268768400751777780532790850602813037982292437800686310576693548848585304250817689619125343832289916
59 2 -0.0033381874051286078791146899206581405501135976531940491015443786166342080865095983722454823492591949099057933555163731315607138029103078306974587461830729641412834323778464485977170962400618909206839651510272684241861660757309603239385005415597846359062375689837034151579212819646168660558035
59 3 -0.0017400019992940543431477923097716261923274545537565600516219692626053544883056276784954703741788559274085278584003311619792283593766019224461100813449357444199528503962837083784679613960455044780999133955171884073654677607308598379293258790087799901755293373882510745750028954060181886892035
59 4 0.0016261751301662849590423812349726423548270896162293069285726094726301906916207562174535823959992070994134581657870255442006154507237189731606395428698187720258628929850940110435994677926236308823703717555639482292501536253891202064598630315254810748290790754015989469850270770857738255279779
59 5 -0.0011739106775938809380693987903744690091370249787315211013721789343847342187625451449819227151158279161754549657171797509518500807397332652639713580813887631989249171146653528864377765428078035280799723259585446416217942584163164788037285721352697394871690803298406070967226094421265400199233
59 6 0.00012079880222387096600337855434048996214348300183804073439245375662166542395814052263873329755162712449335880817524050452841428754727536879319435686965374543710118752622971057090097999668482377527844067487386240637274349342273451010120127532390294116680742282368799012193938618577662681021559
59 7 -7.2613427723956127259633112650036862779934887850284691386330091426884902966222776454896821778575364779405016903977736708245159613384000724330045625995806268224592176959616042419415235019331964815612778369475209388188751353411128709947527717448952421273275430021663016627629240406693097767011e-05
59 8 0.0001353514402646309349115588715330963499381106335140091473889391591187929718335452085879904643289474686270793692350930855640888334716122879899968325654671844436306208046326577121028497875023620209499428522120274437258865235804788211829095621503540491823023013322009225409947750929420085199376
59 9 0.0020093345111902656179458479851738225359886151104000436029681048215241562886548929141588508955252153094852323803830507166004432704370778608002947766465481698943577069518391155565244598636229190978966358753362605316336907002120818001850486961342377607762967000145688902454249478769965162198513
59 10 0.00058717311357584457314918533014425783000730472399966331179172151373997825137609070124239194617840306141482389196927653945840908152414699445999052080810351325837138417845550932932267079265113581668171573622733858539254709395963922917053052898304930325148812513713878225897808660211755518888399
60 1 -0.019442484283293760263028631293638358140618696532688457910909203543333934533572120356396104543819756482648070075405611673779182055800009666893399506244181157582999988332534153664556868879411680443300210566739495162855425787986637136735223267884584404399311623910406762055396486523207938576286
60 2 -0.019260456387044543917747959311829028653500314302179587015550830803587938809939995750647618419239235959487208402173426078247532046329978065718080500781989813109461317545052419748849438553224770994032200491555437887733927391694659967924267527978528670747281402646808446469237498553393504503372
60 3 -0.057662066041771687848983021529295079977127441556009646104853670038365534327612836587463946523688229669967714329791161877391930762024224694907630023144219660062452311535770041300082206647576627331207735762815072422512136630399659532400504609759246611055465970687503673392149544012669555877843
60 4 -0.00039121430105768660874954815362334062155391558969464869324312490698581946395116758604286599703656241755510315535670183849552213816339461584112375277923361328432785363833017012337618261376669737521513133459951104096629801179512830231777266686266879256740433549620982927032582537105714498352619
60 5 -0.019555471857793600392665268180335331881136610560002806512321105238955933031912794733867167847246797440072365353973834018597126314778757946459098094874906842659347803314296076470741737038871648723005054424959586958363842414094871439979857541131052249715067705880300812236380539626687642058416
60 6 0.030392020777074354320156048930570549144825812108802778598019965218012287854284284932373024820777194144249651830484825830571979572988320246154413083995431461648014927277220945861029281187892792800817490970614465169884809874808760502054209567097878474616004255106948620763839608778415339324039
60 7 -0.047066116924831979044276511770357391368036357271410733560868313357947031456574470991139911236490610629638354005824540711154644919636059370278833912650471657439167726888605660227091505304983140696663166891782687521554104577836172684266518880447229713112149743996679340928846329057438303469098
60 8 -0.018412390680843412207500636393612219352648967603231773486512930941831390202167980699976731839489336903096587313641801682988994987464500616645040367115352838016257267110911314172018765595356258584543892067696808439771889504292412141746222511910760272341746752767180179082379110131181871378844
60 9 0.14552333068525815543065844654252873260513046412579163838450002998790965127025605058125267748131156307814596239398232653890462123683196859385747994384738324290168996872412830113782560577941854327302923172291925331240376348602930416784191920312760445650652931573469928914841190810850223861406
60 10 0.11412453957025520018843022647866815144633109570099719685226836285327272319929220629325604196736667452573793638531569032270018260437778478966683308411111495296133521383626665951572729709581153010478950772280621857375836000684086858092201181224937576072083477033535732223726567487286726058788
61 1 0.0026039184455231295021148329725047518522652017417406000995684930626660593367848245498148300616576365954365110276131567993776218923559581176094842072941477588924125503215249400487115512098497189769910720202343238082632960666606996113689935887153702983322717263007057275086337744301071671825816
61 2 0.01071490785315279096397041668455510774308518103998498015039730735946692195077947962178381588361379144832713596496053903325390677582278586535735653508711426309767071745719139077411870023667337772231394156460932195762647980711111990378068619479460843360043521005035696865842531280414253785665
61 3 0.023953438738056832314091985519834088654629206715250139893478901136093109839586284207425774922740164560196858223879791295388518091848383184176348144059611124918992005313775556232327523444142396062238556432607324886853654870996132710120432352669457349705061845445671651910356965902287077418988
61 4 0.004860253444625984263222517635307268508290523691984746878527991802350441356391803795388524274089637201360862970298407709098891278197915150756846083309340763792043390764300471955220900026136529206871572994443631546957157128767156864389475974839589040703924701993430243075259885469308430831596
61 5 0.006810631424719229000118969495336371480565973320378207127040646228890262015496833889598234006819332707875273028179313270950381922128994018848917708452583421746506577390567897399496540177848498145808479650050305579631392364979778875551411462919854203278521224344303618608197076407785306426914
61 6 -0.015345471073514501564128861568912887142001706660553532779643429424407317680545892077970771058243358427372062609213608589019150107221534301948721979936384478918530252178054062004912700144898183674249871636509077030891594384080915806073750430031141284586295029465122818242279812679695701051347
61 7 0.022302897742301475389753832563386256198493119258224421811092857660763830399615838046205250989591722331621712114341377583739396352405399535627351210685979128690131916955053596073647644454122372736182104005195096491373825699294208663777799002735881950228866008625467850098600999831508577531447
61 8 0.011835919946907045479951165406860918644133883316438345582171544437633953501641884017589064932125243313376357423660352127480456786724364690327159507992578804642110533619958934714395600370776950846371755545928078971303133370937879553805130156372439197642676549788586953462215403822403740109697
61 9 -0.06974962969259725851619097687611854709106817879529649542362179537760660464367383522622632622126852078113172248325721673875173503049713214001215379276229265152652359786111478718018243024417665434611172581656693988554809346827369441352513656003753961289080217213676558696879849986845791411396
61 10 -0.059963566085107905379644748784421575788684791381563783275761802298049088733689582924587700590519182946174467700685227477175856622541883801918152656541386473320369570842738052196921212139019044934086252981964763225160875517384191126632528839802047755564551495512914435957904283579162244461993
62 1 -0.012698984996968748219632320559485068275611126891824863334350098176041786125184436676994320548494452097274305622009939622607953205297689512899615694294769163516032379565189419931916043080666546764921917270354716133191174178023817327471927815568147192380649757800970145475641130129372296627101
62 2 -0.0026193760753202007632124967769014985190618859165476657593905019660579208046054646472713731610333495213289315972366507956877997911352307995806891103639667919548365140826804656489053549845690919745107321029348100659771252241012506645098126616878011822316232374350240624478787815449827226457565
62 3 -0.029775230876457020026998026176599740981546704294364863656850220565861959719754846900100030365084948678789373638873010921076478363678575898657693644325283605165951858371910028788230153174517440361997486778916547046688951850139366104696067021943958153169518167096829532195136370353310606688372
62 4 -0.0049143864118799797321379379358777077888208272364616501817112296769509195981377870341285667825730279387175215639461952901242060063782131668797963551008525771902913471816362223501433349112254835013548661555306567417301763775645533316943237102541857816196742160056645376715798751590807724365236
62 5 -0.0079987158065801702107111431593781394714006774053197797627579443345969411405532137597101976022712400945586826523911369428006657051530758626986995231461368711731853862174827632566804109441284633672827456923615785682541981257774204359960308399762580715558293172749437958689278571345719133886514
62 6 0.020589377610209815352384243290969366415956758229165136928201566696149738619827229199305920992446949430196900420530821206360354866907802462501610142082533796336519397972779802487694105281843738799006077447869594345103627104458754900390758240885951944478754341853491461773966582338676227835052
62 7 -0.029855000718209704114024110131703176795780624565618107694387710921698807143917968977060384249534772137442111843440831122311926867642200514911264159833323341225160627331761084847295332098754809005959671535665848383094840838194529405282431222039980045428613131626115466596954996130861237926657
62 8 -0.012169960321370913279010194643233612596556739811861979528827663782413229522613242634102344738910284080039855801215785579756266099011898752387890627741486105989065277562557599112718498918552944152550734614570070807141633682679793907339276429709226078812175904204150175202921639575413848957962
62 9 0.083478225484668198096242730319434297281265604878073681411725100504220626576216665700797464729233588367908253623996447167850286225318198791181096737391996213842982283399475032033028037857513450837786802509766121450448934149958739589780217406813140192937295732705591123925244615331592278187995
62 10 0.07006561968575923046923385086673675722718467990235777161719435288934968185989880662323683734059265302211523274980871068754537671666845493155566652484695582597085139338319661858893135244561730278528221728405510535810967603072531115270715445246216898759330035487492617239580158841936530108775
63 1 -0.0029953543252608862150134340676315872541631682710314744843801910026377366832362171490697211881262864505140134153603677785773320839092248474420106357593892718732645303057099372813961794139179660419319081507335415949316574035193787703188490721033468512302568973910049437710707432611784904326368
63 2 -0.0044604251912289733008881220851505053852028492335540553443453119322357291116639462981175147633807066883511658694725981010994543662549820798505995114821395487675707375497587485416983520397567216223052401324770452289276023374494925771279602065820177985913939045589626861647643054756156450887267
63 3 -0.015007880211068160292080418470111149690963231186365745608286438192605653375756735437091198164872684576734868378116601799702616569004739620131923044443765969501600689585972562590413210977907605599217722849959575356282224794088398132821334411632815036052458893079402059035620471505843416183868
63 4 -0.0031504711229894192517830235094678997239423845124835708202055372350731825061735031033074573139124247590347123704396944661101475289472210994326265565097683945012334112888273615878982084401530684767028498255008437529217084334667474430457286600627341299155400404051472857445257779816642960550039
63 5 -0.0040390052949831325338506106197358941949822011840913165909117686703749297956371391298547054372995361191498602361573916098836129395362337007002778926549747597197137854842654440500689439659243606108308729016956608351513787974158562203218137569961984963406428753210010955539240589309189449008948
63 6 0.008832647682510625581831280750418242563189247692616431545699756784695480478857246420986491707973552747675086063201723729283342220864736601199380568756630458899216107345152886434078692297003006723554246312088892591506470877947839477074028182623833527805992430839420932365263221632193563202361
63 7 -0.013505194279338093823084045968552447484457941977078284662551633907568052612267036175509802427784299304505647743933204361815031089207340751554148671000865799196814212709424053638687965692701129742400889960979653087170611264094510161660868815398357975420321475104610510637392993015210709509149
63 8 -0.0067582781754024075982020987295795684869247261072654931026453099518645209335540303057635029075946458629798141411859743690242712976890819215542199816249103808722984207438254511826448979166106620157299977329465691484659614855589356299555596324467098891947360876191614303849238235875097709230629
63 9 0.042960995019184751999762877207815464164995317291308181141371414123315118924868914521272175140577943637490645269187032732183077874801673487046404796990313854172115012506354830944592656037452455223380061178769146475817355100576625345200278334132159547765003127463789185641972056091543617594393
63 10 0.03603140742791092274076362546365000260233335798858745625046658107839249541109834654086144003046540651580697530260554134125592558484144188672584763710198180921270163566672004663265232601171117621050592500205735824415591339481090600462274733326205976370440176295282177228194197327059408458632
64 1 -0.014430500542094413837173474582332705627519609226569678409247184424206708112746092226588936606765458135934642888071231660931570406625699444066302455503677769827613226286537229596740226350085013907314042760027359574460328502135314965853315147376650965329366516002490769641031320147278676465003
64 2 -0.026629060493917155724540019648326565769978068624454864450490563699886526256495183807435235798200330992765123514605794756204742502599659246542401415828956499051711412020660837300880301706981233782636008205620635702600074199458665453928611718849000476849565884189876286401589327019749068164599
64 3 -0.044059521658283163428606288821546822888793435975432643455582451819873910614806798996904170758257838263948381351792817388823699995212433021872082375092059981937871631096053866981484376951724908003578272639558512060163353949740003207216816710911463375597716814203518091267102136773013685713572
64 4 0.012253163848979260621223809665219328109346698239227403741490325820702742733147833846346347616852073251533626382994421643646093947500390724693959717403769228429444996837462354047910467530397056070660631688393663076277077489271509137870438766594593086885460925374084981294544955540855657315884
64 5 -0.020142437660681130161635096820404740758759560001065090330988182393108987185582538697979028907991004348375523512781024232213178684804798979285811381648820981592432970371672097329374796456573010171536144859952904060290810678215887333182018717760868487833133725764669954984271229160792294661714
64 6 0.013829254350545575062819599743282247103608205780899282303184853479534544991808379933856466379085452341314529786176583273025295716177264503207262299529689215679100111073822747911898627654892165857545220439933428270145385295208943129642081284695660776963787041754294370356759312003690449800114
64 7 -0.025248105674250260270057912449126708495633652516106805048153125067623247961215688101944486916822355297919522235820385553081260624318379143337918307645538445642090897640636433019383789351519102059095330168040699049742151729656732877517963444084532115783320985524570588685389970546464102815694
64 8 -0.0065312571556005393601527261490089193409279527630969056488706619649584699929397829413616806603326618448120287692322318630520503449491290189766693414627543541846018421400823461705480228576543359609182685591547955769621372466460289055812961629830729206632153052929387534406285263217457110524715
64 9 0.089147449249458656427710213133845614779140987014589430000965598134565972443672430391233976395060653848460261434123619772312652029099634377681308936016666583700994219772558609170116649180123010226206949170628841038045348438713696512425229288931867233755101767231324278254876109337179115379024
64 10 0.058663906370753350872224032325579425295075380884914873152718624669759552134934782896892205868540703327751126807735213695493577916204835187770404916324010633747339056784973109902061319059329332949248727236395958078568453144010528049236792745003470160431234669688398634169950221290272941022479
65 1 0.0045069908386792369386090786688102767805919567662629025815826684749972723750073357888140440922601222153641820353893137131499706102219217591809565192415634023571655067348845853013998933303803794050503254051552699640878456822320931563767234678320109570293127141573519281448866841468597488964886
65 2 0.0065344895746788373042395929823396889918004887677343265980542403147483183594884004434314225306116478578244202778313146375513512753308664974611289242743125578890016228592893516178137713284572096811785802927716228820027040693734847156239311072915945522010953326409573358282541289077060805404861
65 3 0.020532075563247564897624859484769407085059573230249647272300471096942824895924181683255411202362945818907054866989709077164339726007802358323356352095280546463955062204153863117300022422131137939026301861975523304342023766823828250429555141559634647298099974777192673196662948335967909196053
65 4 0.0035813580449093582499802323538252750973672386765377331142622364738446482501327273435272156109070129536054683916967583871460042025859999320784916117961273649353926492982481489348723513352082736195247331239823486370035582337738797892850559265221037477908124593864596241210572176246427411042774
65 5 0.0058430981100673521631828182984420202657115875075571958370850093938011518173771356113677286805137804002792550095177042516688690111843621939132978077693019077179077153447834239517032879876370343911332875235865207041751560802422950383547472032925906418175751818103975925895789858587696289232967
65 6 -0.012320272794148022972042300899008616495535717846225071922467785278017137973937235175719626240366922392681951941523236582550375011075285904239631390542774631417721262361466955874741000236661676574490651593571750831518047165597708323852846377470575419698672362031963343108604125307095436947659
65 7 0.018609401931209434475486715683651213182052309289391603638874899623570844396557609602243473493100342163685941031728787431594247336665237287472484843498014426233759325890115769430073965568597147728796196427306001376630219126886719784728367532473846914952365255046447864299237336468928476520847
65 8 0.0090085897472320952826427765207026496483597224891695787794779894369239974480089685456712365824994212733141644601365518935952070486934587611033911906785863364012784461821163553480116473657916241493882290509344554148911299635803913341176492501626089187085833247899880792639676142883301554365087
65 9 -0.057904555579956317771684049718658253851244555470643903857124179307214084575248899812958640295920484240810423734065410019714277390174944852732416566614205009285283319924947282752851129173669735698597401815660346727312178186832208456368046258570102243594518459759692365081341700373915798180522
65 10 -0.048458627445590497304358987400696372504955517183270359272138319980718088384496690337599428023309202211237023345262650872639186223610750782256402683834395708161653520222362121970027144438976241158018673131325670532297595977811610278149600107022259146826395772857074809545801124412901806789131
66 1 0.0060566892134836072221556501139235971481637399672695379253243291647207465121519629299927854142092550142029323785542709627941028365864357857059495598137189198004808822277041857796803238273189591426281529289677769786631285686537343423677456305913403478283439529821467232711491549575190731503789
66 2 0.013843605915430995916269865714190965478919280547548347546407651939552248562238924610309118905417001744565540371428969471324117525238423988524230474915312902413149684102679542913284985377201267329795364983793358404944037834320201230228545298894881423102223324766445376333779096501778605934709
66 3 0.020015372310737134576300169221706124268750214630101194676990502102731122395422711744527417550330811789698700137298482085744961022079709169754546119171534553327414854600811991393676607883860068920964902912371031672589118467468704621198628242341411774170074766964486895852701418661980396897001
66 4 -0.0066790019280604737073847302812904422589652553627186108997439759254429210703193924435416639191673076541208674695560785115906869548208921407108250155730381596485743859493037307798631748294894442684141487328372203172380530179517083668513848922128218182876716255438632404304878294313682181710795
66 5 0.0096567735223851481717545568978988431243560755720412590657959987243057521849772870273756068086260947290421722794538305634240066457503546730988533315904612611435356199456674027837914446027094781112938101675569643965856567668875455365088643404851632321397160155157688517767356745361879969592915
66 6 -0.0056014122024885781902567256444922549873066035033685523461805985711327927883933541231845853354939573809256878339690135308769175533041991609562304382486334660540332275129762181971817872128424774441782838406578407957424740728170117145800400005101506905482161984281698164037654890071837853510828
66 7 0.010586757760728857325945685898884699895549149808315892704228992946272534657585676797028363474375363359974752644901005101163106504410243408573624601664864231303022912028808488593327704835424571997507415602376034317674753837211526962048979205586186877038612489417603054297408596403894575199609
66 8 0.0024919808483109679203052958851546124022071797273446824678439406655386427767722073519353458324240470116199513112748927412496682260515747863004268584769037745005241800464341039357730719519590605736973050886752993903867938728444022576821345307477832416350877059008914939123088429734999158755538
66 9 -0.038809225374096668349591684819471581307630027619410635214905489865038731618781457445309510930837672013186159257592333997209937271270294257362214095067784547069749393684445052893736659867939707471328188373417547040482173083743461738094735148505854886857493786930893823839407488502247088372935
66 10 -0.024575927107294780382223145643152530099387991134422984999991365965903578035953550235761141659459051474131670404718694586861636008672283911720272052942494051272509090846337032774528982312349510079865188082163494823001358945541791831823506842658018155249116987219362888580994695980649119562761
67 1 0.0035045649749309753957368341844470916955596818160166171719607952918583126447010521417943134804040293773170174818176797579101594607655527984196148320783698437633624276070628734100254204614011165780092250379277907297616927401590242839206237995908595484672961317184510501813265789089281688154739
67 2 0.0071919469893804161798181160729439521050733048226566646763967451983672324587526279409631430012493322255975423861904266170291969218497454774633470099752959956526944367254045885244193644764615538823988643590815820722452286328359863692977890234084525140752828971281777164663397073629296775512413
67 3 0.025768868191328468791522468257352978888819299842067294730297044905379678559858838826288714247120215779538420268241807589362972158335299000281837749090245947598534071511039345926007659063077293921970366976236377190416467976828708779903599781900930655749262318081702934881205631523128777934434
67 4 0.0081081797975466600313296473833913443244192198911395668387518059098526012987316756102473115397177939165778678743395153111221993677800066886191952564210666981331639183085445605701936690852263341042518457279421787980027406580396111247635105805301350283369607781263931303280105095723336480558441
67 5 0.0059260836833459269393988665937955337067529388148642176740342782759046675581245166449988883733554555181164180952750211258784202567265436011837919344241432494377324656312623753348108135166865199429854323673130428178182968607357370617396755076059991078595834745980691269551051665276752942611047
67 6 -0.016083089112953098295761684746213952604990732501917803645684196817733573515276594304949810145780811359128878453704671561681027860780804968136224202087093049421978627430619848595534191927468338273910026222307697029638181141356189589158714590636065653795855333451744249774784602535464584017519
67 7 0.024333428427839236672534775723645262237120558543970582986486254651733836234692608435298391730472703671627232940701071823937416530537498529083333757543922107343523152361557078202233685217217426183663981660475793043795093670188442829177196611650910694081366194376448228876602752278339671155062
67 8 0.013324704135136773564137039970808324019691475504791101856235125673804571932202728580354990582752425950918998019762447908200247076501332370520588801990117823606657591221530848466249027441812379950461087170959865833372406276665825421544131553731851810900133167121524888760444926837981499143159
67 9 -0.078688992015298936506521171653038991184710107926662112095584326848017983615134210186680003610301399357999274328245165240144435558312769610038408889598809112817706563699064508191196237903292634460559342615461124201833445508690141176733195087867660801488962422870840955227356268213682002867486
67 10 -0.06775840536709333350177879503121718712263292152423176039390095918079043781680199622573350492572369742180512036379014421741742330426638936164409971608731760283580340015992481380047046062806290581108102248170896455827102204716568695396899495820040897198904184724066463031636556369505248472208
68 1 -0.015479579904609154925518293169595202546674606488975046605941504061936409165597740572545029698871568719179172678712765178914286314511246043439349365519688758052209488623142191767767301141187253252660745852873925786916610091604116499292861155608213760792142042122876250631920721606392836184408
68 2 -0.031137032541278930226142952729052199806125408033069655074793641916020185004101605781635931335454010910112622187539324856770825543734706733517164914004376368906463350896781897636902261875320402707115157724276611520027117627960958685235726332366969223555130930924284189421529578692832578191896
68 3 -0.038336447555857531197253648095344718894551639548397999658835809705810673388343867637545062043559174668158629475926093511417382683053150223989246047627298756940867177150112710232054492595148447991190371316001785948761524878518444506075477355724571180599329260236158148944395591449199166322487
68 4 0.023941732214895817712083280032769276339381881492677979083394950330691053186946744877699565789703236776978257773868204303228010272149386955571860881885303434881708162618268613692365182588003055756294042925295572281003343520001817911034189701653614582203428782333719113577199764427486135194214
68 5 -0.022649657692873182003736390167355477658552136768124173345337954299405195304785446976901938560682446780534908421010040059891438231695101539596625311530285097279790525911358419909459524164216870566517537406498547934479254186548822869977034024695465621625322721841606902133188141262752543577805
68 6 0.0017894612020597074079345254388424880746752187359475577736838079373217862888162963638926639497388928414032148270838104059011317356798488082405831519642098936179354770693248986830513067969207025358808096871198129809365421989083815865700761259749196061083446215553011643135443086066141439137533
68 7 -0.01074567615690709795209257459625604031999196498924440892626525819277222207224372196958580421598190614344894683968882056824434563270396300924526593266058553410018552788534751230736985905155310820517671844978735074754139508610432055386294395990138683939579125748145099142421677052525981352949
68 8 0.0034112579274448387503927601430733381142053868252866692500942239435401932054837136706413600485674704262465438915487091431613668521872185275268697385069563397224558023020289688060493357645585023267159107424205571009345020609026563585201006224049452152466323625500954396769483411992903967664285
68 9 0.053020136986187304445650511045672930164688138567163991999974068616053287869383830768463335608240805520568372633191145940137746743809317387337217912226524792553318508427790622225890085923007427392214695905988169076439239463413393603001693232128746829869613273758732586061804460767238181623561
68 10 0.018663988170681814501071939683712274317659746819009136046689057072504811097928781584039848552800901782696092828368959093661761291094044611749364604794585640165676854039974616931837119233875871958926819875410473519010457647521721429457197219637365093397108698679400459190797332929667279783279
69 1 -0.00076069934762613060823518885316866222847701364113944009769924685524270141774737673677657708139733127409417818991524938802924502048412493657608785132129298732721473980544421805423514394235751907783466155475096535517451527384856883065826925142681238487121228828552445062148535917125447346806101
69 2 0.0074130169789573201234834954904775111311371186104920099825186573794120461793427333954401739162949016812279102036671430025138746263696227501711903745024651555486828368353147415239736611724126268202017786897822425361066176641862917415469362054964887962202626454669589508800157739266816778253054
69 3 0.011923359919896206184774267645092258066318668750033067188316477705158391757866439445566102220392470756706258607557432194653640691885083975789279657895936067885772615201111022422396223500552511600790438351977410196971771784318530266087548579204864533556507057183974724885699915774719620881084
69 4 0.0015626859140640498138076784854348231933907885395482451592863577419828709581513800383327891330171238268572871597459191040695805407941670351856197055014101844168240983893162107260616051287448727789001543142430672779993752265256756775585520754826423789889133695553148786757461590004891817412329
69 5 0.003951439650975957912380071697827109939876869092912088091547655903557902298635690391955388703429510204131245056949107038081684693520679861570772088118361621786055539903337946112027126501676841180748305546461188518568930118253969256867863478321513592543539849550326687310015548063847478958149
69 6 -0.002873013693886883353279318041833694671211791563898901388528227059355995545628241305595711589849974446724851085045732726018119928348564994869784628693758662985252861880137214935514922194858893634315033315508273067149791554663287888921613538705587054951839035802712241927882538732003115689807
69 7 0.0068855657207586442066878010308527949773714275063146459841738987650247113186494308305379470102505110422788399753382716390353062143864781776818960019090112191438878764768757704734197634672109640266954484505042435778040354626625025196185326880213152908459395829882662033797711351284143373537061
69 8 0.0045309920768217549159376528312624117210366403069705908813139989877828581699879356125813328136107089214970376168175669440639626202897126951749435238065636481918780357776264058791282654379470948317613457314455968157251742795153563366077557440494160409719025265058525117251183598901556412912935
69 9 -0.031503085015929221394791456697103631617023332220558932491208520257119884952734941628087459749798415106619465508702217787174645911261877719989590476390528477771837423948096166578714207314592917840127659882530080031923765031746201632874324065241386042888561183638268603740831413975458956288596
69 10 -0.024050964098182156985020249604740595840680353675738060555945521166390481457085877429297186762211418624770240417271558046978355800808452451472553719628605251236940033486843203543166302955218965589911204722862699561249249410977508351582899690867552340778770107529578474021194587726919605917372
70 1 -0.0084003588663268849634753333089568906211512166544939830235127548035804288953413844248731502126616951553277377804214967292454735275047773338975085973542478825373005150368410357713140214583569378615619739013365618752164870750055769892785697951529884816919892443457144683859433231855235087675535
70 2 -0.013728116071985942766551101178504117468186320900133552302277996431114888509527881983069889249842743423715539431498638429113367605261025566484090838403622266149014763154882156121867980636814722667334002699648935841288143895916996470605051024246632349257327208645344277506043861640351776144952
70 3 -0.034679462562602225850650675064212198991177956749802974330674149378239981426904925018815624362930018609067754755710351637784018743679796344222372519396724233453223641953091541437376158583838148466222846910574300180460503899053920806129772028320393995974834620545424662721843001858011400310974
70 4 -0.0021913945473079406673217552821062042964173089661903472965953651039832065856504596025970643528881457588415142207883770232400934179567784371961939037511997625754857068517244273348237118553003936521372985858834497452443823041058682318144510413654550096277111831962524606470580411540552075530829
70 5 -0.011201355701462280406110547540003964376348891286260892805481126178798350815088493323667729114190917662655897773899582592327977373991658556833895618784684317238556103673795465055392346724558955972665946803572818340856249636738212397636168691404185951496412862300219914823394534479353167131321
70 6 0.018085515172476181577748097009710867593842619985801387466874007450703228921194462762028170965843387799913847985078310799392270735635942612871882482882647317374887863620508415714539593919433781137134714118734716568679632739128839551546924296444922721321155017480677179221772890532048196063569
70 7 -0.028168318185859936292146204590637133727742384751123714598533657353527665040272773788319753051772903803304577543389483902406071052390530234979654766948898887324020925953205207709476245683235663759095413489603063353658372234477234812609486693188019902418274446381259407332919100104739432229016
70 8 -0.012611159039780264991555858408315336371805301456562016344930018018991852135492459153767573813888753766988013857728813024000413564139340200017233345264714465746260650583727889304094619555418321103524630930782150107723028661312000196176037089810593005093593891643609616184677852066458827733008
70 9 0.091210479130589652925831265638677158474984873354176503421977536248194371596322641844614963360546972212194176917788244880376077584487601034992780741256430090977769310659049137008324275626180978018439056070082214838744235188286346860229325283625849576007438266015370131619893144351958792410992
70 10 0.072958520327308132516484671278296402601183939270469388652538898553424128690334644735434042274297672324568992328380304853598155323896750014958572400501982309311404546902299767645509022538249898378111482179345809037408266486725937244746948193212374161966479057906597855749253158586682861583365
71 1 0.0014334397226182376438967258180456463841783861834214484097595205616532605090034722598212099704879832199393115929938008619998581563605081211070899354001978629360467499806646273012862738727846854858883167939389337873081294119011081821686993846534039407779664093462396132963973509483735333442167
71 2 -0.0023608734579263455476672572677764367842498073271062791946166324019166130330382176671084298517786018595760721808686852864172110051603467157909352616859207063448976769330795491751898531610149819848070256919540824775521726922155643675342092687553019022526453534187910458364997339414116412379065
71 3 -0.0020728847820455728625411682118426946721330589009996811668047220641146405302069481667206441359365997033117917486501571469126991660959421270216916870361290059548735615008680819576202520857064922456722622319908581949738068054864103502651450899258549049016521495787385754962723858691545947797347
71 4 -0.00070228709735751658064134385923069143836822941515284028774584699094477462521066892685489509071640825136257695876423480016247287146079561225282630708690105028660748931292321333479118534124423527963838912545522045761275389886521218076187901835997138697363961649624854000974029423634636814267367
71 5 -0.00053670453746412815828327805288056129916283079136371301309052741446233493071935690458809542598704353921507664004318220035253193343491024073114517516770312917296568905633850013821380300158424757637655510320343098737293456692929207879105340397210469129248432331619806398104983711830448455382668
71 6 0.00010701815977574368518339599519843485357410119294066673157694461546799843133178426647197049426166374739403685727728912652610594269693884203516351579685579859138534536371621743232937493742945939351270538431045943837082156161866448499546277926458384477977786552491964985846820054316972282799829
71 7 -0.0007315903708634768846664317472507785288254289266465238621966648267415255521846948656321272857818658423876583343039950569862794982800249198569442365496732600777586072587275178684862806217621694004634209587102893595808079647698318224039159893937080477673879094489558308783481219190689625241536
71 8 -0.0011250243126259626371538077579906674010683657413352320199532395185216271758847394280677546384033904429857074071591296196577423510138743507088125072749804942809804780770100223856769894541616363951107900042299567954005235789013893634780891932013552526607154576567049002670260023480021478674456
71 9 0.0062064579474465681078778152754905394527349887347465502581870462380266031546641663245984526065904362724004401151007358165886439316241725998643703605571670852961102415707990877738736076743657366721747364159970323179353513643324209034734900572876806731105514983616701110310731183181924890557753
71 10 0.0049419366206754911945265207833442899662908586063071312624103144749797922317420269615622703548330287096493938728574546615868941555774279055614761933221299339559190111641833504991390358178844660145747873170017706138387226387662034881436826025727716016727405557826440732109155027987116512794986
72 1 0.0026799973050488593403637874777898631220427626993554967182788078342683682873284916808057538045049790531723491960216638437757959358323322717388311310718486588073540479137481117463654722130993942768412726635480420634186378637081795835849329380277039406920070798044068134506575237371852182752302
72 2 -0.0028325480893255833497740837740112887496887387264694297753823543130603981221550403026570346796997546900813060746585642795613177921555400660813481229896955447658902121567964558852949017298293284799060744517091086143856934453674707297952843796948945300607909661076929885488362734162800546926094
72 3 0.0055782930411277729978275977987431357323847754124223326583514835322831350600572084374120908214281526221937441319119926001692778160775411204092387193311775476757956200131485646327334166608976569133543908909799806653869296695763611086313453008386521710813011975689860818938949367548084386754739
72 4 0.0041538791196148082570600583579567751444885959748368373693497421622967281819171879814605188812369448816825094324709591911414862300179851498589179750286759148610251368904796049818711351816874293992440071258649438665693319071506172717217491881573271682422497848322035162576118054145136968821384
72 5 0.00024610046764926645699346260261321008468668491195528400479388514891616347039990751192287551389726298064403443170877067299654706604690129928611927897027940273580888902821303248296675481494622667963359002039872050780920767293025827839946675607398908774708550538447850577202258596543070198326646
72 6 -0.0064250516810318986283585805841402264709711992768856517732582745663107047668484276553920571240732874878932427568555521124290613025861212428054318266202619170794330692629155643667547562720218960637981748971251734712511512150559179555013601092283563133360107708057678896240431251506292673403968
72 7 0.0086151336448338140470136555492441486200363963606871882870242834677754413318033664733339676063368812440344466168158686718070028714157653824054020812645493488899081771188333500827736171548680359304036132077384086627170455448926527381971276311671018698516310205575570768366784640253866658736814
72 8 0.0042696515427587376348844853413082638193909635867315499365360965092540597062686440815874827813137909961572871323617601277538929628454819015687482801818455335452489100999852312324113240891607074377290306097998564787375281774379042255274712885423821880688696084374644913355522986668434198782382
72 9 -0.02123712679229951776392117748933389279862799531503633669563671076929204170414398476185453602875614794809852523413242512434070435497067526828989783213555968211875609505127800745364555791323721948675729664853666610384333295629755152294686492005650797585462175262943079850788155539020714816831
72 10 -0.020528273224687226220204375073436398284745975381519366639349199905250039271309137065511734073896602679263358811912857954795455681066817331926240880967754184785866097801985488309177040973523417414377284390756950993997547289177933931924042099485061530795246472677221312255091957260129307898499
73 1 -0.00077512657002681040507407983642091117255464400236774840147480600510583983136136669565790434215578000849703535616878914173492997820043041267133411947324259324311971900935340622520602272982560964126299828698946105995809749308412712654397000182354696631818867626328004534590584773714084395147785
73 2 -0.0019937315276259287205889022216175164235506192043977801016057220822673681181917286919155391028052349001404016630466802239086977493372159757546862039200040334247097555920211643442802582268912791172852730712720920871690508161249910816971580668330565972105519761617969170936774004005809707277681
73 3 -0.019921086268513303368570848010948923451562461733859838094286505404619512487440898785630937979303744648219097423562138308317377980473967573085977397103217239222167955232090790688017406928218205697423491417489129576584790702027775645864922506232232205463265377328225768756801000752408945304582
73 4 -0.013145398415147475078371419785994707988405959673794689756225778696253871797024971155755664933053265055765644446952429896828227059304653414587690020200426543128843986695442168644743132159843223253789351220920322084656779121245826953890844555324535322979585572197251859116812284514708167306038
73 5 -0.001960640029643359742735736238119547289065458402639485047289895637081774161803137003643061164910186540781632768164652370965684571941086939143665120688104596481410078761359234808759478712829892236185386125674246205142416207690397727511342864498499812531235615636185612351050618417101639818754
73 6 0.017900875120443707791124343946413653656035513140664943349082880006175888904852830034806554052341801303320811377399481250949311522248963189375170408740095111306257573642002811495035432998794753612611125987458917766075203645221857389321884386591790279470784463422022743314496495861751539375579
73 7 -0.024703146731437137259419659627421510154164447459277098381816947163427866551940430810528786368274435489458720614550194746541549235129629465662484067882201223495789965158639545260049700208789892270912984034761265440942722259646339945336403161572589258661770493379186301531165475325058981747433
73 8 -0.015184413690050594578812830305953840182998366793399565301902538916667571907113469913512652544298661970423816649154367248756190344223489482383636167742664624243120609512767553876938139206212538180273565120447093668985326715969193614782674533753065550337921727547912345355048167927895352947867
73 9 0.073690209328101649187647265366397136062208682637324022998284995279122751910062042767412880511945219319158340751309036559697086645965186840008779218804634501533428979174136528099280212641206258549196153435233787062038327088566831731998413242539469640277183657559021544220106646435365392776803
73 10 0.069525020111789061735364822103053203679028440596006831653927577244262006713882248033111043870796158552297547057469131350994196654743284370553097424872120451816204833443047170700950702668422387337327120767077413927029827641599651393258516575951250206189705606312915599078539307880424813549557
74 1 0.011941889835777965009215295835578418265879752582000811480086774844839824427106235072820636177165033463733585471991811867709082079667154841553821917238201604076601568310359999862174325215092409225644726005627916876161770339822164500287705642266337384011828912144214388681949826803386928489342
74 2 0.018082630485666158459600954938187731301760218932831470336419788025046904932946262902637997491113915426731644737361822450266904228343990822481364665347186920162314322712892955202889157737356921445210890539540760150912208659512849197850346476349251002735205144212187334842482266752115380564379
74 3 0.03603722780426237914065178958754194788286376182763490590732774315587581571596485768692020487049439534511395107457782284939396120282553941595527137360267170648872037518888167827714978150323422781649371984224195124761085999711119392988310012384754973958374683751343031631093356005525412538975
74 4 -0.0067215155149192136231079721589530067000777049337147298410375413812765890512795542220264254710654584078137318695741366687747044428005542294881342109320517817467315991646221434098931322603343082449891501171303729072226898421383117534922728293089481241769963571574866015374066979102759825706477
74 5 0.015246705602718051834961315733731111229666307304672541648809933822493258287198058317204501471087932390843232470119579496418623609509161575813290564192541421572180597309558424901620674545757085383524102532738232748223088700893559328566139269908713631244419064661675475017223336942654070441859
74 6 -0.012177103854825232430516339015901039451928874493701460246119315129101764235938236512947762233066074473023729804242051637954540825060150947310491347129827741677436515728033165017355449961763379765007683760193903187346377795888568742572659604417111305954906154105775274293942274996784344484469
74 7 0.022365431567506628274229139206467338896487500039208762739914200210800035535755284865131479414984096360538403697367890388713633781773220452639337811877691777046889081931422519078515171062411175817082122625070823382000031593843552457713364816955524829968780630724593898825025665228989218668699
74 8 0.006832809357554773919388798770329782642222812266073834183317922605849192340505148937020255482829642055856675741902314240952827907272108885498890447414041728508319312447364043639368024336965259170867090765589279058868419927419780616645910253627369447284524775473932611631682634640475285878372
74 9 -0.077823174788947642688075782586047875812467808257756262291445241093240281268642684403796470344897079207976351967219399450887750295198194783099004725429465661548230807724253735939506389893389340648764148095936681887684877656107222131494302275060576739234923757411608499381347455512102652534994
74 10 -0.053636410854758755254799133131531565199520569586860013484025380592655676199893882584262133814869948106075290603278795468705447626499890643291692370244928419643389529041249334639530666939782728374132721611003393494095429910174636222249243246150053911460448351060629043980398697985911482410414
75 1 0.0078498467377235034096394999222785778376927015475742992400590421692023203570721290591851422528076404362467644871734697265255131065267033332778533988635948647096782219553651377652790085311572038729400749560025238709949314694441553526811994484165241056119522177657961700300897289999390927225338
75 2 0.0060327225129216146353416298784779506221619938155134156503172607035161358517309576909513510536224439105253178486451687368625942388405857094361145817890623187392163876127844318568554347207935663504859724218668891539351774209640881522684539857939369735065259067176690569248768210359095798790208
75 3 0.016134288494362152819407512475195787332783349311670711248563921143498193872280482382738388586569376977495416719458788215422274481158133197643539434303161688971933072305224786009644342812884761749604358228328710423122761136229300453307001149757912885435593629195609792959920562097502592623846
75 4 -0.0035483856528356880964412428321738232282597588398018097830702271129806894515945559463137160385537602322045206162171758042650035828597429000938929811809773502160906579943974766981928733575869132354872735304332825276480228846958733700884396058747027352201959020532982228072879544861446748005031
75 5 0.0067072438049201889493461583453738935604696841180801979346891309680688112454632005280021689602985197534389113999172018601884704510071678720079371770522105726565378017196125651455153351986076132185400490441445621813808231358621076888970124429270722728519445698941951831941473411833939053852479
75 6 -0.0071912174516925330567769774396178636613058175752834207600947491594315917239376007632763018480982399718087588882436733879512974959156014800715003661635884911724697348198400497019269582171043443982415410874389856318766047861216999158537549834644269140603052237413970252448207656433829037543069
75 7 0.011442457104979516694205138943386993710405110119985366473796157610083140159523581756222446312305526741786792349833465837779860881743827707788665877746750049501663315489939475963132567807634767258263181130112398062566330104607416295184499566133715346398989100347349697241482461654064745997007
75 8 0.0027069633079268738205119120267320264286922594968435525542245664138828929068282646200364901948573162750827666926456398134682665323189177985688820541094976697452751476181864022419604988487218476499275351233890613213891711454505902708605320956634081552528751397910943292124197531440762807418591
75 9 -0.03444296627303057782061876813638584578552925993548150737603999288307918958063832556387014758993012563894120757242234027385273042582474432855061812118480800822037908969481450649657012931164987274905284035802175998826552677032618242418110336111025351086723422926641325156734882843620826029694
75 10 -0.024048158030878042437881437920445855671704007037976199101291195505244630430414050335013395481419022844585445955404108371793338529175278833916889371850649217053374519011713301412666556608860016732498545844314883272593879201631722684719355192706110060451436740795497888404184482677140618117953
76 1 0.002995063679337416947778127140837257924673249500656132951354247258185790706199112578478929976132973575720439765762646588591558002595530608749408387177055634546752186519376285404954369265634762831424898115361104347114936428107996370158023452847374942096930792811747265548022724351295439803946
76 2 0.01063487320500675054922574606474933679815290829866371059188195283506768303908607104470517938645547613867676647372715946774153731656710890795480174612186421792762794174286717782115999590809356765548407216104124181934646334764414071949181390845405303105279264777377868375995260428118298007793
76 3 0.0054602803127799933797771896377537513018104775954228666540627445566131028916172216485769235731356174931919560435228249085607034723318393132791148116270982284738631454559717090908165305208217530034197068541683251609671460424105421895621254866255168576186604024940335361309059923840951006969663
76 4 -0.011726139478190350758622962762441649018872153625588200992975237843299679584076688133181687987664241825933855075078809054906079488662237965911623210549899903353378280543117512798119567097027092541306091557093915886553547957481645338163555611949367870735134255733480949983187393284653919082833
76 5 0.0066019259443692031716530278584811027660342553766541911289668718994097218631498735414721440451798191738161382512054828780855097028394183989090735937015078176654826346612769426069449709235106756116581265783882048833780375264559171062206554446671755496884615061152750839743909632433880328620309
76 6 0.0065595763721349070844004810195177615564696437616348563652626154683391443557899199707518916672015763559873389066255856329934840023847985648496781892898038628991907300692932259745392400890706850858967669158994608669395116026748183809554438190965959171218844760487928271071546858354141361185442
76 7 -0.0058551419791855295979628131117311166756991378236461523407042277376753887448064879608725069378006333322428510753939071273565225385730393626827925974665772998024130470240216651279888966304616102783468823516713835885779722346452528756672812046384986645903070068256789117152469306419617518759704
76 8 -0.0059795834571463771962692698054939108241966862769440356899724125708827495767678777419080934259266290719639951954899096939999538699298173545520392703233832483930342088119625717165107663310358461888220318847149500316855786906246886929807287262106358816266270281704438078403087074877712800367088
76 9 0.0078007775517190780484744337430931643823264824621386215357192602647844248874707266929255404450632349427220123419270615073123104211630809939035533635662061491877111700449003701753764984552868775486139478110756975256676208170458445246353852059937253772358179310497086506661353819400982345479884
76 10 0.01755931581828390991435810284524825411313936564973121074232293427527692184619957224508039696499054383254876903231570943810519436403361356937515032676668481547191139546531290463603338208152563870094978961500361847518025032239161669582629452441333996971762383318702283782620224291170594833513
77 1 0.0015378114939544949218329417743215042642352881375121805444190727142372775418189577319811124852501757675935321874486847554464930729356732134936577445493128596455503329290900866401092541741796390733434985585514828851640937687781651569628105710542288742790132230918281261832230550597331083148717
77 2 0.0059864940317670729465077305369647552710315970707278622533205597373397585233036903048966012786378548139318814071970743882668552294484513592299872257972857787176314423223887520987117946198331430993533179490418771291668441367878549385305020417801921735861164551917586480383463522022580679745204
77 3 0.010243978338965436691546649575438873992230363001513365277833854240219310896446844284767282330471335027594876005235597586988337018321774138588749590028369508761596576234811748619301860381143015945926359003955765718784552675574943873300045227883981972882971833466643293583832661526804331554578
77 4 -0.00064107735514184292068361773351082222280942892966594503725477914802171249327512375299190294022675555662911261188170893356050394790115794826267581221033990707945538988158808920660418858201442789929953391283734583800934958557146858444059732369515401999394491389656741882181478582414996763978623
77 5 0.0038518587859693196132227178185311572292409466911281199674387702514392512138828237146236886747794725606283778780411200053868193800314705432269975248227744978341090184557117761295800046267616434749137522362668597935847481279102215415328639151380382770865443096751805164898097682769686135699254
77 6 -0.003298348818318505429216203290918246468468871628808421932368592115101575844398431558909473819831930981746295513124809113085856857659459377184700533221849496369327620156461159796469036603310142394001406413966739880145573695657605630419814002500869688147252823976502408396846973068581452474935
77 7 0.0061813914419417879983630528831650338681672214655231496553654579082311968911596593977772891348299891893072298297496308901472282140659669356661386540574794592006402279058957171044176501967795996435911385282596435520488309249365672608987133318555906067556186288838511594598889973871994313667613
77 8 0.0027869606147642928149808954605988007280262022555757593758994268343214136338681255662739246318322035951887427941020473836241221293599980743987876060846007368532850598745327659693478492129346602968512974826057618419853921400416685858886351657022998716967473774863654775107745176504681880018225
77 9 -0.024169028553986270569487243572149228795087170048251646742974303482185852917038591096826654151945520921896652477109525135599505287360133897957808587994207184147377538714584008719701754547381340250681543184975880404021948025000482462598114601945748467477827670543551379539329202651467901340382
77 10 -0.017655089562889782690251287729345418772343417750189107521157613341028883823922910990567534667836279460318101290342699286696210231999138606810909814381301436552679518145835505732178739626133127534813935060413488698889099377907416555875013454872113796652335754978361945369214817953919308779433
78 1 -0.022418752305770122441495090565780776712498155762278452718318618650846604274064680418932295912149176758708232286513024340551609326700553178042379747470299938637309489241819867015885146921548516523739049597973627722118318546599864149791344477377504893103982219493944822294982345885264338185152
78 2 -0.02540802992839913593227076604150538727395618954144097719967360841245470446168743182090599641621282281651931995236912155768242432980304385384357637867490322318934297129054296028071500313986931868402713800251253680147138094006359947129520189759549565479683082020402536162288319912248559341195
78 3 -0.070581051138850263172615580486266199233869238322874487051884421345182294750274418451542788151191451546041879249452607756631528885464889231813630196506884044887822609629979989621097147324381510918670506440834706770354336531232543219128050112364099768177316299199840874577560141457712110067595
78 4 1.0326043095986924565201550895440675825337801559775294430188646438643803188582180889854658423354051705764054365341215261018406338353924127491908462313807013737327034739087613530375172640794036888155352072840799407732311649947189096289105092231733393620689486934492163459723898195423327503571e-05
78 5 -0.024211260253379181866470928488507085329797760873164040804423325838672978035477558283980891576360498998230207067187761225345026903906066454095009266102224441236720280985799818724206680080036083602546314691149424217321154190745597960607607518607339934082691699974416360934449831530358226369175
78 6 0.035986327485374221378616963031149893133353225519995358941415912181624924763546139052448857524133477271422407617883920559974803813408847863904117860440362493428400899040487087953889015317192685262057196969806992144325121279433217718359545293414822752000595681688119346441377517011280084614313
78 7 -0.056288027219589046533511418326055328106302426590957705844891063363774325355687640985831035349738476790753489259988825347162690834618065658412210077428714281051201128128665174668697920236085655036275146005885187061490323215396060143788525034321083610320506625505193776029000907648433120697806
78 8 -0.022291057983056220463102560449124705925425695936154254999997059869824312803130204334312327603587931816181649356720336309085141513452942777868284163778905874355266870610631484192429993956874810084931982968463729721319485959452284342541154436329815916514228105922051786806750523683340184923487
78 9 0.17693618028228932833681424577396887044355017640828132114317286054921388631193655606830718321331348287039672876649006076703285602229257905178171146823974632633925109615520212072938288848559504954135258424187841222523989292053088484208024941143673424337994890719160686778404589196756884428419
78 10 0.13806689012830931621691420211293135319880094049065672445589120937332799961924121835934671702259091320820853309240859860752958624574113671788010559866929143117950198342353106599362181327750737562817648628486471211654868274419724664769049773122034731537913811550251815207146178083312133122537
79 1 -0.0051395576930444672976642959631228207065639411906927992434267519745819261556014557163461074810958248247116627223676504781649255781079464757539602763936634191838390943497115683209629527944228530742950762080940325497850088400436228104769882364817152331846056448603924926077684595923987852323964
79 2 0.0030624688483067730568102384460832205972126473988002149715593041786778695859544848312725133399268620643324213213554766576680712049587716172586405473180517355382337052055326414934177993153915821813783763340757966198887305457311447346627121196949531093359725615314989760666212005338321675357614
79 3 -0.021109794595680400409266553262734826784072676517633750623187046787814613704259335004561153424659112264621009775649765797418549844504193467964205876771090462089802638932165799828246266638343358388952928536416576291418071056238317040078521785169734238387839995529543642164459067238039064100748
79 4 -0.013941393688873383933628958603106899935800980753604343653965922841349605319527868027338937937225824613241899991905141248769814996607185804698629031481616913950583764594861884112425263477800253823655557881521949535852447490385835115142615860354308165603974363827289763568501427735218023563384
79 5 -0.0017611488457508028033831917453678802994968422705556253850768129385833885354193365915002306042052596120976593203439470628776360064541812629677153297096150456378892026929539394683347952261502815163194573443298333505432351996372726344264140420176168348407610098213528820993028143513446504757954
79 6 0.02052195201004940293421110787932309639358455381933295394485394453209157625329171678801869471324403341901213075803321306122741951839433952628823232170024254585948265467418331121231338326146946207688754058673438835133005731027438332996982193461698042744586206044976063424898763309196880896265
79 7 -0.028050522389677774212651042190999546749854194679845915665789765422650718083371467418824896735443892990393448440009513951826243957233396382799851843375745821140400630390564671685809383585900935986853636589662757394421570274401145112113313459008003883973344347488560241068126926528653418694513
79 8 -0.015446728612801983022102557013779000049231645836575467564026677781125447534292855447389004446542336699275307308812723689628853186992695367237280456982329594858315326502486863221769489574126082925016195321412338430359775622373932813704409213184680776087682835790228630109522921207313525555354
79 9 0.077751270279334318925185660873997955269905597296809761407218902856386287050120267512309621398027553032284887235840962362859558728171398287805525497071081244697665692029538925025408368732429127105748466308895642300067074184291706004623103249060045220772760682483835055894164846309839954198201
79 10 0.073369057337790699915864387124868847482242579584602098077697932930325494437025511442951060889722511407494657109191642298041641573918986847483311060862192253862012724544754675289571375467941798085482842953643246687448174274793582526945237819754698198108407707247882970570277477380540096852343
80 1 -0.0059949382559478204266552412427992929231889519704097123443462997698660589042504637760066908887705408485906391630511484922867675044647850968094170766945896670047415169321265013650417575774111404228017893455620064285872074940072870565426387742054162627452377416761242268771279064408511470610059
80 2 -0.011219982099348124504923706825324686963050550108636237195220183507460902895441883504256265761671242163221741458490653091218565807026522336530556304708759001350245823733746574406660818611793470405386916223888006341662462124110029780778441171242768600583046152881050935042287550280244135158848
80 3 -0.017304450787747886984183356143676193390316461331258367795811572801415399091977495173288840463540327276961945742947542964306148573975703948856483142012359824254372500620526224257665486202414635240961032174177797857354802707127392857586541929379256109765226736483376656289919033797676666063427
80 4 0.0063740144442562153951212751321999049741667147958629044416609841815211631439543079584487852389945420192607017146934476040920048707939468015133543635410481897633933437012991564653247447447306165007556207224743646388575900270209283537208313419469277084844391496471646485302174887901157285078453
80 5 -0.0084044353987645238043400258474967294939399692077662274386078698351287299099400389060960618765089696431246045965319755766849138063255979764092031109083371830447109249167502528005450990300753533711786691287784798007690261513309005839544547768229997606320750369403720326304796876841982190686097
80 6 0.0034734065228592009385229183283726374678187386639317747355932575757656489389601722758052708564052093009814819594100009012622920633381067461110339369698412473071230576902438898734033201952731897284963308742099097209445970949190534304075782446922568952576083696605167849402193288696124556848647
80 7 -0.0078749541171196241776373015721194485785612171552473034992249605978250540702629561237235981848235783332336662333970719908247363292250059678697573955140158212969570494111404184640315836918184157948215778378195899342787464483252761356880150984069512542847102334713440010882732941353397818518604
80 8 -0.0011837749138480088131880761043348226552569429817219192550386611383635305433038772213939589265692656215046759110351592032350563450777946739052017723438522483995297499255328940324100146832218806702353459161732118242304853927991636205809445914521155456898125942350610782696503880653931789579389
80 9 0.03184837344017499156098466018553103910916762770097340103885481655383616532058346727202011895149416732617324744044785315553186307705852652420722014070845251995488526028544725447184282420702063939670998553875015545225828962913670877929584081575274930704991269052828944902929537706716457269781
80 10 0.018390681359865638889392135087529296307075633005569295266246203689792539391540522237649859802064373821334885694927170985671112185858259667570208327219173265110174466167856176675668199832070064768644243943186819157506200484080392491057128889661602742661196379142840890783349704924339265441744
81 1 -0.0024874477426530334118454936321307336344958188616143874865605431235759617752273717624767174654873959352979494010714343438550053511646795492652185053202146164122444853529682816147545259506765856390341007951993736242933090082456361037767522285744229580761819838441369232181422997449726010451731
81 2 -0.0026682946798908967327164840983002574387183592770904167688324090043369222068952662529521215504961227036358614981675766263724386229205033341152771681379824100559326505556339599514161343456712360423086632758739078505588416958847774229796962167563754521492840249266385875688009071528953529167103
81 3 -0.0043458121382047121161641654444746403256419946003450856953206163311036984220799568695111347086785503752495045889488533377133906334065421812896456135820289237443722907451041508631013015128733759394638095851015757460394939059962032953316274110915723564564683572191374165143998300582539605558118
81 4 0.0025167452647883212917025724641238501449586839130237494923951775883970726769277166922484994828742937359253193215206321485125166292585296922382360732657699523240845227872665530256309923774995865071000730596448459048443395178416444716139685606913910539548841845016984774234883052298607152580305
81 5 -0.0024814499258503070670685046180069963265972929748138288821591063235786617923267125463974472688722664580388783887999068823790511802954554427445582366868374826502016612681160972537845549380305556059277598201448953439189162501484433267463939376381279794953383187718691493223396406880041103007572
81 6 0.0012884055715353514072189468655139996315292570174831394319681208779712433605012230936005079179100256536620000831896626395614280789516466973766010145943840864212473690440551962872526071324435155895877375963301190218759795182801737534480050106022885550966093140641600070603984728016386512277174
81 7 -0.0022859984385076470128434332451433337395189009272551980705474077337540176462307912225699508384333096609179752420736185429345129003913128382082672719338110532870542385345912779895775467624598428270212907935565287447603688522393302825065891294893139892793732139310962386244477252263086445825931
81 8 0.00012065905002653888851763454704344535452581335071757877620387275913113580780156652615999655081433529632250531799793535943911371928127466476207626960228995115038222210239643669539934952981245448428075159477745874136540023179002226018752684123579946549476235998065557076182660186063940445206855
81 9 0.0065873413532020129251797939352324192277948433198112748388353947949223556491793396143369429401320318041276826134627026067158263238541360785019833086226584868819276734568564986662025240245271805877083875462297509711108086821166827571848343672212710176346684607871515534096987465339509353203123
81 10 0.0032723088356798342501262721279034529791251892312205047640759609792238197797201892250375965123816283049195749470406473231934505305474177775470749882501295309061388879248525591677976440892573159949936727993723521259292820068398890347817712974244892606537956803581151270370643164389686776538406
82 1 -0.0018070796099884330347843411324297423699709110859897700336865716450022371031654009042938187939491343694876534001800058267482656699133634668039972012946067870014008471412020011824202540130946112063683902404148117922003124771618967741191629486649910318718941858168893086166307148198087981994485
82 2 0.0052033332895883287743243858403847749197727746364118845479733666353306096075590272370386064200651208677218126910200168710462896259177525272787973668029389178086235230025576883928201926432484187191389877244229778262413895498819266646344083626546156951902030348179483843360824685964711561931119
82 3 0.0044864653174517455771513198496840160110995335006399053391434242460869895092294674252297970910267672683543125212398471152516539003625895926087507017019973538160894058508716353165395275073087128659452044890023077933056438570233121872751470318222738688085360124120167351287454669288077574866691
82 4 -0.00040299897467866798248050477221234238385053674612234144786694382584205975689859007045329119445602967085243240386175602010980414166147375601191889531613076223921900142004690948262451982925281910885056121074751925684791324393997593087972441929375514574641902055217585793031710743884701953089579
82 5 0.0021388769799907120894866955442097236288697816861175081846200203033441777231340907614004879132904911902810120212554576742720771004672699536572032498839512852457928809026441702340747933617338453873540587810787677234908047153641308349630937576779500599999609506236693051831097017307574013184524
82 6 0.0010901403167835610399663919242600548028354291549368040828161666409025637069418690869769151136099992000709043750833696743150746273752080025248353377606083670000268070444027171186235934941491551690702634087705736154114506443861788711745654922123614162827797366427735661698810553145821334684671
82 7 0.00054440700145719949987472754694313630198929597288488694908223745552374975553031225463396248163720899232940371696981936858428693727866009114489789106417336172364450008218960499083797726141526484473792988721326197593970884338365371440621725540451185734345559504919239071270199191918638682381147
82 8 0.0010922123842194722047915118294521701672605060216178507315741183963552082015705331516217737238943091694292553584319321681591294894124941656818559179354581770214882469765079183314044551181775985774771265916668584917084627818831921328046028295833729595966044824483519185057683091799890682297331
82 9 -0.0097089273367135619602297984102418049338306043475880737032807146702705783792668504667560432942245718437675145282727412640317735594876313470898622837416363152548581190433288508006793426537586057007338250845481858265065024652535643358445052969490930351212560996090751343580019561489413420101599
82 10 -0.0058828733832652892614379018301744262365401440875835370715162606167003514639315586421415903831314351360856705925409549196087187200126920625589641249087874794363964909813331811793282565736103812442878160420963544222206460448452060006509593922446921390550316278675136649855655883972336715699917
83 1 0.0092085731849762452553366734964808490506646738594321222918209089085418950221773731670809786194830103897790699109494625677233790276311109156570006039822256127426997657635614306991440562643847254647769746195950045342159339746667209040650183427326930301176670003292462743247749370209371328555958
83 2 0.028447278430152804514595022219813177122588691589253129962958626710625098235437048816124872964096197816757458386963303236716466882934097664366279406148537696335101503133422496413509280584311648801784983719653800704201304546085685752232877482599564356720839875264652078381120523460638955798024
83 3 0.033942875598430693276756221788433535434604710568909219486871049426670181956981523972867252309036870311498985697058464483283559049846067007742236703896827510178468556044243949897465738394145604179356640409906813945923760339350043753587592291149887824738803777283293388255391983228519361884432
83 4 -0.016784203583922520420923898638520067175899128681841318902049643463771586013794975146195022319261247674825126451976710664646271392894083532953390373203733383048399975789648267068836854423435146869650954083885737453998632093862814630295120014643181366586870689366026568360445037026146175910542
83 5 0.018879406899394681237416258384457652005166354916945736600119033243804871476979238658037628574739919271710062071220324520847658083380683746993587561591964496768575390458934403886933040980965355324187990126811305497258629992069323234519848954806484372530733111248696865356109349256473646773107
83 6 -0.0021114835013544323378092810133559608634176827647094273556880754442607573125873783374488298160894122976594988110324847599368347103307557601251511837368863643533232538172012886386207858572413086768278299397698638532387902043399461832183659020285329821781992411165282797891328694043861100867323
83 7 0.010738853695303932306537291961782029686296767658791265082593999380028633993591732210480878883945832793580829967695131214079895609360582274852796641776156656735628727738777740688182047245949342228472863667709937365264969628041104181532020441928750640593503180230061206158940654235298781504834
83 8 8.7298126755499754810763069039346342624477398064934735003780369795896747360365101405324793686528967509953150171304476785133215619954370013512906718190346969768296739845841754316140485082239457043729982530122508421525299272675651437566362554584549580628719594519885903062962452348311021179618e-05
83 9 -0.054169002748845051467295072890658374014063775839921765048610893504551559925621770165893106958403017868556474199666713651601201956493465094813622053559282759471413415642863351033505884284261272080267950118896238208970333252155645495105264448825547121060319323611183596656789207203281538413247
83 10 -0.025511161197726023718334784680311198832474757946135465089214591475590741015643634601994636745163347084147964057931598848862516404706245079498722141199668086327073200430810352736500693244406784943949077936910014426354714960878405370484587339178674982764293679138509379697606322805670484075732
84 1 -0.011513693225319135879378854604301643037074539692911556207598373499807169795502539457480630852463271572348411608906136145617637632029085690536619877666840565677534216522745501241414096070333645424047964654846512618763908737140478017482027620421698016817403582562098421020631291242393551275625
84 2 -0.022330275166790222161808240537461398692601510499696421487209802520832957553519671330378301823786587185072523538179785994554323528192193402604075309464958922654781611989389305349576242712567421350859789636198785497374966296876100419754761280511298492881697374060925231730128064965116702991858
84 3 -0.015937228508603160178106595709730150076198979964620812973844158822224746762842542386834486494651750001984750304926499137427093146106839551998298473803852830488140649517373267111716609502081215018541689095968830106040564441793831079184610658660339803289846669150060530587974915807606195795996
84 4 0.026746808087300379232377931592821597901706696316394732458243169224822960182700452947881405311055429213112898079221871391574126589612764252718019315595804144633646816141061633058917329433099613010894627157874140894741496694488189938372551529239356812149336204064905915457342718850258852205889
84 5 -0.015933298853386635961070747565466170984737916756220417177027268613355173137673110878042754965688624601977389251713927784281523822255818293611083622122037495475408582728387562215837504639836970150520952251608487677242460730278500002600941252261336713265679411095584995275408187770618681898211
84 6 -0.0091907321825825635253949592496176877393770123523291625394857174590954462215238622338809371511426649825126600136803747660946381882667367802357234995198257970707337628565342111131304408583055501949454695876221915987332744108582611202376166369451007315716752582849474756195437808510741766633082
84 7 0.0069840097754207030944513668851210163836335345126564792449521881036135204221915952265295098104279487688814201470984396667060632316704807179597162779979015480738932855439488984579292729736012506953658376639430923986079002011578090416808647818237936260849704775606141791626021926704818514664325
84 8 0.012158249073909409781619095205031520507815017594667780664016895935006089045237214295574038377184822736754591416308397328842601130021419406647343178196606633663458741014138759047287424577868629693581873927902739591253677490016876133796029784003193797739045268310218455954068300490958757259359
84 9 -0.0075835866798211655993094099792466770490952169106812147817549529037536166327659644727131895196365380807566507243178688275049087467492658077091110306563322220081415925836588980458516786487159685476891473940867921383793071781626509094816679371038701927243415313829476063983122337237766818822566
84 10 -0.03014102253983648493782533061965401911584701638409924247615631208999541646928040209465519782149501178383213129928343982907991412302313492976801683694985544710420662104991118913165622736270394756528791727204681755895210503955588179154561530844276005228160829294876651558662415198369244016477
85 1 0.0065945904000966434365833709200948399456358556429131535208058808246241809620474103961343592116963918706512579789583780754728272105157870599387273073052845803595199299420886652588920646956369185126588109651613610136965150765033274382408744618810957691711612652667661244936242861028891085664165
85 2 0.0027585766228987960074108872297787328285397925315641415031195415808212501761567041253401373378445528195795572432897617453314869679581535401342908447126065855699423856542844043254479353822297661557962346542022187800352334417126648502817648609246632425574118199124010499707727687846080275622465
85 3 0.0098078129410697787196190399252294353289923872293492730716598631682366113503756985078344301660589340401702931969993104873433147793785408418248535716738761824118551430508432566864160655490480503855385440949839721844881657815802689575758311382936712794810884029427669168192268734830898091614034
85 4 -0.0031856557149467283387969093118574068848239547817502046646687377870224930778377385540989231846735565288430214579318360555745233183092005155583655149687248747430148837961213428017719959482894754737311471291373038546746235896979687385478647939388578866177885002648071471156142242381599308314695
85 5 0.0042670709995223345889563113968380274023290541542514355056606224239897161179241945722356186954480021643138101946417092483832489102680352916112092778003389974583980944421007872543999587398319184674467871842412594680307745750882079047443656487498280684910668733437998792946532078335779249339812
85 6 -0.0054970343002290080522774725441983866892678952179582023222380681006559097684984021993689685896332538417130679830910393604245138264980700733405594350759200991334277534814532197235862140618829287594053535319267830461820029562015029153540530219526572832236653459029517686902012858316515235860131
85 7 0.0077530456428786405479075238104954968375650120448613957658060477144121970736534749407261594211596457649691070927936101698752326094893112754798051813715966966485814839123753745127040704030588846857079061714391842030109876470485325389813278209863595624128516515519576544503324402290956473741048
85 8 0.0011257121350941167664091996110685618740205186667440042950104816145453767166626948629078438133003853450932795761353271972466910288017955578245393646379035479940915534313178067772138494355444894096741181009315590099574603987383529932871508341935937300921454087494273701462216380425758625243399
85 9 -0.019559865983014658970090933123478001250312168161505415252624862604813900334830616150136022924898793424992939550203396913170090531952887274457640317759314797588366398567432883140546520293049219896854261680058305845845337872846820246602784046804145114703620645487500039106592565015539532345256
85 10 -0.013497775714405544442034208054953188706239552744225205964436350182023182091650856783149945639694905786824807466584205023446785829752620403384738471585580848045436380017254757300070916016335478739510853453254490268139829166427437637928258275212199657886811197238995961346891055542638729366788
86 1 0.019132777423949084137772267348828485051318490899735254780823828943344753026759261135868281115523829773443715943615403017716200183256347846168039601167535578300460773492190074502937344199303559240671706601143473682262528542992705230137228622597922083021670474554357739383922570222222112236548
86 2 0.03462858820436782209578759674268664363680732051788183713979939086881034684681889878689370709176366017179406551934432959073554748375031716210652469483076215831789781665776704527296747213183613414951199371596913798539220769042507040915025506665291574290134578181644156247064464538022149679937
86 3 0.049799184750980828242539859211900898384145916507529646928941786423523123340249492950083309768100814172036779847730876622830949375088414755641422735508161385706070040339800776182986332337579753160136393397631561920648554349398713883167847721860032107305408964388561311515407187578114997800451
86 4 -0.023021036809698119285200623434110985208741328451654692507420645062951238109039875269379510615483505908318389949280128510397974228266025100957642496576295117625965624589545894925855461615251706547155556404468194946233163675449931260985002216869598175727220870765720917374857922246322561465313
86 5 0.02609525611673104760423961479534270247607922786297343070604130353878630013892083644940526252008292013248630716545912334262692403860560028225987140062158157536271021845863701233243967998830432665600419643475558417558645758326222382303124015961456998720499640635686215034120457169617657266384
86 6 -0.0088477245572715025790162828043536554737444879653542431764341580985682469933620541087877794657099826382669725971877115552888306012874724403891626524778638644155579624032147366379629776381110094114982135339226753104902155309802146723554551094186649336739158651731862082346435405237532223773557
86 7 0.020958004361252090128456070619726992520827791591715185879223620603206823262023533427435809875931409306225251252188587483176439216705117490837116766616071957645020710497547110635300608859906864662205211435476982142507980297538496082021453880382985505247341535371066254496101716543536650504844
86 8 0.00089376694597692445059650194531401586599926979674291125881337029675493305861275268062153513252919994042018215797508576431586991812868933875489434569183696912365251821312801544601131157127245103158530782886940035877708186887730567019046532031907866435412020757742576733352021412384290701259427
86 9 -0.083741651591837436412221714252800466813176905254310471202381215411889180730540132995613352560169190915096423527363251869314853052039450366161663465936182094139743183126763313087370347694710627932742865674741933776884787891366631748396137087544179310738352526790878309745376714940832917745603
86 10 -0.043808060822134107748867822343999343902572093075331535440694980431731809436102023005517954207028626129946925659196361421611225093905335398440793705268541880430736139218702220665089279262050083316416026647930937385540983358645281298057706889017849718741551940777578663265166391858961509014332
87 1 -0.0058040545296441204252454476602114005711587430951369186842090666557059954523968561726326498119299694789187422419647866019812709765558582859903276233670453278195512333459287720211213787712266068925967578836733110716028385926403581178389839630858537171508187201883647924803311095844252004877971
87 2 -0.0081629507762911144898090041341410039784146358605659423747591211118725608565806256251088191098484566473100889269159619395738188325437003271305023864414763348724961431527591140663299780924295215691526783002177439878923544713560547463386475982966586707734799571726646016928209699350313558390069
87 3 -0.029091004643794109910320218683815745463033590099275508059729051754279671895988955517433175047165777830484430480714942452592020578103476389355304071875043907084919182706408852996162182899832255052120815940779797232567897263648474218543304172264327807192742408693805062189640115588455036730571
87 4 -0.006772375775803460641058905305620938622483147742366380839875957485872676902519662008500686733240562538509267061392663028958292364691874874868733012798709425773137023055691416300175960010667835647332170110158406981329675683570833578779837903216666971151515152004506517803602713112365429319519
87 5 -0.0075888579163850743385105241870811890134057366831238449571084443766870017424193537007797257405271391042414539953546201051510779364648211047068131509949839694557324812827533449731381284859763760785033306979390409984030830997738903521752196146337726608371831444025341083049925768943842462647252
87 6 0.017837738332503198097161798666407814570407152950073856453357362854929722056138806954234999656866497325905871759627822450412454821118831613711734007762524807194702461394630091715421821383636840015321226779477643102347520028927244846474010611419012015543883400489279620639423326011535374312906
87 7 -0.026973215990023358749534943659767995348416336996232038364165719746223792863562481723513546508750791247157665466591341266175428283174402601457250565537903452159554664926628306159978728008540676018490106093930965444267692989345575344728502209234836340600779840571998310791526335840404157387664
87 8 -0.013622473908610871937126050087475643467712373235490406573360359501911863343622528051242602717550812384797151463975468926028350956853199597607778904021204905279164436617561511101633020219159526662523287242662814276115996556652357273757326703585443998599574052665381365400307291105268847347822
87 9 0.084663877053661911594724815767387836557571174358335221624244645816252294323765490107795453251771981073111247989238079218610071703642312233007215100869782650064670326702978684624945639500561441103356058399356840431933893748430577333163600762517092755538681609350641603349932223951662942070281
87 10 0.071726416901102294581118043474223933866342322150293594402410448678256882575440808944481560609373295924426571631430466798787071373447437665768374682660892197690707230063956117493574553092897355507621471774085415324602628115415099541787691845369558388171817396593334723025059555206343400857191
88 1 0.002682885843845288472646292172822542481414480209315679652073257417732235028033435732904185616941404625229136098198904224785251918633033818490515606501143322153315007976161223112330556092951273345810978018473695017672527713557818657037022712619607799672663697524665031222449476130417553211935
88 2 0.0070408168285145644305767370732796788362063652002265414355758879612833931054161960212543840643019997504235960697141054576676921554676815093939622226860895281345364516679832850415952984919099491709162943973859154859586823110931019084701454412941100411436183943048260378856240773263906056636544
88 3 0.0011138375348438152171149823292223317649796741129898564123585191766865252833933618839548948765531000215787478079034376778769883899819133560233775644264638931768404793188342708039458209356077826039936728034537241770162133409707143784570768372068328160090720170914370459588691300881477979082673
88 4 -0.010828526822719120959947678934463989643393040477837580212373443213617536214622626971936986211170254602563137650085126887464997891733139044700370131824988078045362799751538893325898909246024775105659128416093991641638407390609381716278401741249255022915672708833203482620411224146687720956066
88 5 0.0047008606001311480180683484341856840090317160345949327513121678143732669581672075538601926984208925886718361619396330674666638623677763422113853647320376101536643994554789630734642684981351792654316091358519324185633461386127336267148770749250936457197317054642765650655543326219654954331578
88 6 0.0076219666282141920673024882468526114442189398026807888792926856537229575328473707275500766497310694549423131631175829308752696957322588623503086296993774680663043424748061242409619499501240996014486437166047390047420885935562530854781117959781528062494710339603696401224862852155099002566544
88 7 -0.0079838227126652734689314155765507931239289926959761407222884086319853586419674088690051891842723529735830555956287152270611640972923956991133189783032756839030197317577826798066998001186073630861900677176640085419458058899429595211179550210295362302359605544006631216637757007587628143835261
88 8 -0.0069121165462202299593337296689098239227245747743665227729255607916942872643159945957118101446743514065362072436737357551149555196466518608892456828291801983902510174001189031391025825465057003733763438265797930451738327734654095556800156367126355242798809896992747398551430263870816368848987
88 9 0.017116612222684943597582679362823972687926348677549302100624379394259586775529949479722353076153523248839296753225672469176853870295894858633917139478326877206076235270652702629248441861930140671454641483354732907727673510211529062916641335076613107337465784883165505468007118084270557691757
88 10 0.023938232662821125337663492984912636822916867284789811185106967919834538658713460433086217781182555771508155656652406521518283317280383439954920593704302631518050188052608950243430841071307788396695324407671995049930639668371938866734494191351815903628045172161324748606716555214476003523293
89 1 0.0086269356424129432710844590440944006535364520631892097321368622848998881635077446952479072479455204380502905215136676332625329164925247638820671732512951597452488777822949479388381607423118100907274959803004315584187424814385235013490085095608957144797266913001860258553405242021262379060926
89 2 0.0083528570207311157029375611549976059984742855008081555596853948532604048131390335124251999029717120482611057057326722004538044942945354704495360088253932880893361094475292169581696723291926859892986130372457777405451941415467114038854270916135112380296199819238925977720520497512184209371558
89 3 0.014834557164902496962348121720788152103293604192701531825449411403956857512473421547676869807865018459372042135498592383435449401504558966811545761495170197131613334511716315625036533150941596502531866851114595983836837938113081665025280742730128702452583637478479117169657378684846754725696
89 4 -0.0084489271883372398359084645696339176870304784882405933139273507248831968152478565908754660143774399177184606301354078322444514670812444292759886026751008668886009861084567688005294149318415840351048586770007097553223901398090061593733756720618069281104538457543143688731734202115777201650894
89 5 0.0081138062475466344559876867977100106635863849636252422818438801930042195026353486489418993071734562316690710502963582425671864520280600209623899465151028145413340635723628450882144647288380821276222828877348235876514262547011355601488514093411270784297392659403626076609778622754177319430092
89 6 -0.0029385285341971696049313923354132896147450678024103695645082281160453409338415165263443859536158906796962753308359872377003643169590279517043870805785221056254159024298735732106314178868192727314039260474862355647639014785539024550818232137602264894634324969159891761507823835027392555087217
89 7 0.0064048666624548869168853354094105920827397454614186543498408982543016453388745615105073407924420484050565961874400986714781331510854457464293781959818186361278886034361352324226416156608255577524466895073345785138540440875462062319577016557438950658937847849849588751768027355165968564410085
89 8 -0.0010427345646338651461108328646058149100852849905889685606309728903834126811655034383024183419986586315051490243887653455056044806704306541661427701325792186485546129746593455523653988757556312401357400291523677670211340016459266286798310452801889313501845619595935189902331154780327276884917
89 9 -0.022094831741808745503321669626319545946151063571695974125757210774854618201762005793617969189191957420471821315115627769768631917293902011400868660830034710361392339078211417965568267933016028117051526354133201201542888158186179414565289867364600623803895702577386718168965270926723301869888
89 10 -0.0096442840608650537425309937547637490439485584353271478391933406495282435005177990987925068171087367579349371194886689358786603686915061002896979606617284416688336293280167442520321275723333140010057564104809489114983076223206708496240055356142248637189849874990821646098634908612916557553023
90 1 -0.015221297361661691270829965571826401463070333063031506237483458674635228348403263189632306716230985963296235483427773613603070429621713105356466363136096610410126724320708175197562966405682756286184533415452527047165519528993746459872604705699427880906651291399966160637396570691017651206084
90 2 -0.024364887385153012296873735660382020569123862092013782282188563627910719103938977877168350578418792071652155609391024680875744702818970184202747648219865546457017505949819762013086610742714792980478348316625158562404798893192981482748842112328660597860019761290584405728288869145222078061277
90 3 -0.039619149070424255622338206633983536764979376145964826822721962127012557572755383657269916732004754857111895793280062500755024849304820919663119232302814928269346431449457739743890747659529444707609335292483565700633140727759510792263219444212032194374627421443580252302265856509221587308523
90 4 0.014790669867529311590988138007891568960900690834425076824988809828621857884240744770385149024295616953497782069234899363483561714665039449835244640219304415914124330618878492083389480055643073092919812090550409988154411482392989305967669069116694370882384705893127472692749293865211451648756
90 5 -0.0193820802871008751690050102004549090413898545900768238161356406211833780595306958613503678641120611402697540013119550636849920238368868292476218238697022366369996196225776641494643023026103303349233773390163716658599745349000737272296127521231355999269323964991257142353811563206291619694
90 6 0.0098872094385775451582435930993049933193501371007726815307799086619589212811230830617773423345287717334356059014311935856731902024599592192740235645379437542894993444193593836499166797217024282295129797845712270081287641896572324476938990784269165068792043379668644565063528501782047758434446
90 7 -0.01994047249654195978026473803248019568549621001302351102838212104281172670158901244379665996588118903614596236599467057381221172868584465748805599909563386973780102591295786062108316017356956599096655745964620836740868570049845684984294916057409122182060697433523302124004356673955837986302
90 8 -0.0029851548064167590881040233445612729418372047713968619074516409265224072898630465436112402337822282999106111937680990152010123334871472371657473160955526321128136313484139048100510528974580532999809639542578107075267247435175426409188496349513129855602177882018026125570202418018131772090994
90 9 0.072868371556814255443767376585318036230545826947675163272708072692654939287765311445091742430160354304501382491118219890571853974614512255981048061480418463279012154965773797832771004646605624383253389042207582789348082545621986110612384237982901511005608304197805015913765537407930378292011
90 10 0.043166594382977361160355751129405129163048776722628022115396430570266065100749947564382933644797201329435927565579791314308522261892419661854642113928568049243163797577942168316566255994325091239676264547649235492728234654002993869806836265262143749816535576538352240560124056404295694599489
91 1 -0.0089397389727948064912138110022939641272952903364343007865052804285099632065721596357437173524507038348099351516873894696053565711781605745092756752242013143799095255027992867326294734932055802110962663980376589006342160972558019506440241702075784431064114801214393393307557517062824049211765
91 2 -0.0042004433379826344506090264732800778542166145100623276160117967821221249253229702633872456701869160249478004947054386329370432743777525070091905263578220510861220344185168259800251121443866925406636178498927892973837903992075581909284641015582398246712163372371573685254744872372858627938185
91 3 -0.0069859791683496611034763846506979014735454912913266123896992407346299080489180588830497793537286136349178010386480161899364911932908299947631483274881376846233755191389205546200878069738652229734821298230918854458269243830036968349495293176645085563248713448355343090458578426653607702554875
91 4 0.010424845011275124816547586192415184927810020960737681832907593989263619851818767836830381570485374830800722923755251693492373017594845466025666227605676190826018860637720415538305326498259910353716567689000110059633825278103625825738311318259397419263871183776464905354372813047545856615026
91 5 -0.005922517917230779689167483896343535174740126670307947967070454237905813440487283345531282914584603237274215741791969328226148417478093820055392665024927589487070492293757693792600402515223210644916360964386687250253008645468177932254825402514143004259697941917042130229358699989959381903285
91 6 -0.00088064665751534397520797375919940218076651492104601567727754211555618071185013162716923699685170542662437114784307979927485250298682990891141674493366099576368568211415175701049995799675557093977552244658400090348281827697006298178677638566727922089409407369639673615445878085828762001462554
91 7 -9.5997098172840161449519453793838866444691121915040282652672578547398756385417695147053864439464329494292794758875675950975406921045046730751482366637723635519298695509862929436850413401248039440025645386039327015852989261456144216582663868640919162949904717421209322127111077767485609676381e-05
91 8 0.0049609528962343841158809036599838239776426983981714399406989961047109664910614299609640886748055474377752947243500227025865493686185541764648802499487842982895164746218895891772311794652623808734006955534234855191330045112893443517805193201764099459381748286546295586021351937223255856562024
91 9 -0.00085325200436673362316205154728454976425368896569045583091102814114570691235342961678576415023212689250896727587790866578884764991293809084588539852479315548776290329022846275365655665896067227069398392213388481282486983547581721186027450658747669913411952117324034009556445756950623259194005
91 10 -0.009639402028997215675088416239696680429829771148400552322752164810476899303595848763409067096293355814604712908785314285656931778701801572868026350570178114033413528082784536323810159065510527405187740155476117207004872604310999623539542912207257320685531216346011628044111782917349788998623
92 1 0.010288157414521392339026520733249233892483699109887820040281224541245763543053963831813127729145398113108102936808859017489585169454961708352548344860946274716164755255793043702782704588926503254459114396450195448400351144777562397840183487223368532250509475105748108563249124248461790632688
92 2 0.012436409902634920093647796136983945565024851081316834060593841809023508265082437243162741428486173659116618831486514354535101554982604520105310598984793952090040580783782335986043188945988995417848097479267275821999898040243276355356832889352673969147000489478847601740779230977117414345487
92 3 0.032149474258662979671529235588680349468323105911647777946778047064524068188149175992458319311939767630802183607467105713575175464686745187283089545783473499438701514930105418554372594806625507103633283736338814650636986653904286937842750622625496035379267482421954032389299607167271276721969
92 4 -0.0016262449141373660740451755375739049584021173337865513436723935920371808887428675282459891179331078377618733374846331166973947208157972252387532286421011562707719885591098122198996082983170836695016123220352919104493608233978169301214060571608531212655236640697520977671505149076696906765616
92 5 0.011779879103749548730432387615473114559954053081938952477785067166356473359638428246837392152044814921232243094185967173073470343862458907068695006603901259279464526412865834325109173457224274655191921352712466200029847988155311283574540407579545887158593264794006509751581401802880765675283
92 6 -0.013745627947138796596399878268941692454815936326432057972655144235326845189840196229988351028962241816549873012818200560521752083467243112340597848010291987727206794798333499300081902787736766938980306532968058285472507364605890323614767327686868830205534525723542827506219087376771210035422
92 7 0.023268765624642932037575010657216242560047248265461769547544601641710531919315364546114932908434391933031009845974371647467988463761626420755732202040346022744659043011474268169508723950086351924479014072800434558912142389268723342891468141580334026104385631043883458459547761626149392662602
92 8 0.0087066385662748006147554488592108815165127965694888347493185830110600890619721364418149514836530134852372510996757150181525887925296834926886628512830428443319198250696606142623676122359956847873183654377329362293288126581134190232332047873552883999797639097571337634878298087472330650110353
92 9 -0.076914492454838460739880714108643834180624602712233420073302564490536164644417507264321776056002267264849769555083182136344244312084467533501576262674693335595737123673318926942445417082747108890742571235321374190175657546444611623157264097741085091399907798322346398128048352352078955523815
92 10 -0.057496585168499336974578615974503322287919158188041589308806757610031975093488276915124105213224725244187420140115530539852599781028415842070535573660686171330879923139044434498654300908941999851191469464970967552153855387236676829125265550707074462827371895406990509987417388405198865991042
93 1 -0.0010467282935929492665727479477455225669402661078616901325883605820993232192010528354027895753253620472160304910188717072125400821506629237170106455109329664436195424886846264025429491877944000242050194465100183485928569022084858335277627763011426033147351139712105462267025186021092682538421
93 2 -0.011820490782767541593610441946428635414725771820472692033805174779713970471848253202329887855358923364722285919822422546240459447782699337057777706507397164296394975985547663649324870636205059392583902664720068615768003956109891060655558427062348407849181005189772252952176212514620967177029
93 3 -0.013842983271367572451857892994563451547002899696784128953279060279770834666819504751522836161491384217068387804137618584317889851212700007758691625625189261683565036154142262882617975924889444459710970393139268226599637668100679854884284724836364052894674167859166834089604523075439222261765
93 4 0.0033845630828844154267423718192108199696837273901687066766106790684060152026386175352983593650912427140219629366007524414524431818304095956701496975146076418374810859201005357734714458296945822717089471184817289503274987767274578727955960481195248281048424243769016169700112172039383356769167
93 5 -0.0066644176178181312988334547802550987713179462970532338807295714264661261105288804179950009277794874128452285520773328635276137271966310606897046886404055711541534734030397506296756334279243839865139307396977981980720870783517296552486809225701423717141348617082570177601726541423467107029783
93 6 0.0027066765007193395610113518875933314945781515736356379772005774251957520424693048206151962370518096699816778638543372742659442472310452692461904920479773679378653522082448820273393217737797474906460032877075174210502422064970294709824878890674491166193346859273086040591850507501104297556868
93 7 -0.0065374110991651889143622236067418653080273740394907218250830087175140289262099696581121101047581514236800414914468007887616899371213907336182489209324789663708618615760780745136163450045320980312557970757962254934390897123947647560432200045209769207239685842921655227549173803013020916674769
93 8 -0.0027386694316922434852717358369806182450848735361133016966635423123001668025276141683869403272081575981740708437426584341718959955742734943599293946623724761625289137047303533245061579070183050876536508330202537482049570287737303133424123530482351099656945580327576808058971889821787363717165
93 9 0.028546322361628600319158173596321393638677576441479566205792834636506531145690344879802559218406082275595439767616532388847770546868950362754619089778375702729409181486143269953369808869360342812059783774952676674218903815576598591687699612108692594895659117815167839811340856187079999697331
93 10 0.018883548927366006756767119727111100158652473828021633638026611118009865015378074369832705646758490669320825180864116533246452655791189062611255858794013965003008430279104757630014450808413673765692491371386215259449161320213961047493925144569648209998680120258808327113556322060004349988691
94 1 -0.0077458775204026024106539002810025494461123518412814501516431137101152459065987267032776485610345274935123029335808619326297619730359885621957927354283156945193171641773304573092594436562404195440833077317943141339417941217999590820421801088615114200402317923445325554109208578499826923540886
94 2 -0.00077788906389633443202817751987782184923313880518892931420077296486101591946198753083452155975378887062796545753808034883894932546052397402005294101956817356305722967227978406816243158133628917138806553017017794592284586580263048476558112536479222792164958021745930696747615478269879864962693
94 3 -0.037311693810465015147937438965402861341208544462181220171061492791112595109341758354152855014249109301895987872842663843783614081911059848351039510800348125641645297627093500169102982743867102558141723585663397114089678072251201234877718678579679198638992464701517901609888349586987052943494
94 4 -0.019713344970083610495111166705112024551966959343733425788446869192087633961421780023866492705659476388055703476480848315537070783819946942413938268397961054188795216943741756150609034679177802600532938212584496247194127196860315598725615167159962031383890365462058169963177747980058636288245
94 5 -0.0049914691928301959547385028213637600082120753212585930374307852014828354670893576104332806752480811839768179693661280885102249926667923992723484500636392595577096507993393259221114662561473198126214094050095489448953934004838899938085505931073056318187134048227814188211975959414890625589855
94 6 0.032617231496911830524714466389413671631173005171059971527996386313663360777774223410378666372928165044014717555456717086819470114282275915019133281452146389326433895534998827429894840800274081832365800442971789663067967904451737489835790806269871832161709031989363326808366780016607573083272
94 7 -0.044955417228059597797275396899357274789096924783683342484125377421778003678703227280757359452270732318876210977296027187832617806476385571252828809905492203418535741800394709143488064136095475795696594582384928150518739928173129734399395777003594001456104536726693143284850623151446942186694
94 8 -0.024547845368268107325282994990087468196927368458913684763612106177057891082632780166366280707200866096160460121140136704150343928191673726631126772872461191018381491870319032331558613846295610590593003639754086277281145465711600886908480933162365644400354042464220210249468366100871642337473
94 9 0.12911343649976246421921520758867798164134543706734557739094786922591512751896145428525362466003082045354987040081224236389312422834670409628657850280528635424128707454308713299002067442228008722837736135933828976675020990885810097950112347639026747944360646600350986515118739119577976864931
94 10 0.11899597126417044933604965003696009315214752416653813395182016269259856766790859980908004504107784983820892979214688515192556007606421250205576870806438158408988197567329659407140038921918429198557400576468192514184719963733003634908387642904392244446073025337000629310322185621177037444036
95 1 -0.0057458368295548362063393243271631593761743460232290108555687136316630528285772293740059743853497465567776539808557600002868616288973813844314668440549857770841971298991131501236269225067806878296995037570945565218082576598956823243749659353268969162304103692073891041073296269326692919826907
95 2 -0.0026722336727453090779813897036177631814473106445642415130212255091419363937657523826466366746653454081355967908694150950938557700981896540641861065557027689784992105767158557458266518941215448641163396026167908090478372683068650404124880454759298341621461476992693245157032759012639956440225
95 3 -0.018269511281405508856901103189692585542994971014916744048089498214582078188705716738979341835544781154953652652077775362448302516895425143642905313018089353232743669881935528928488975002925613668595215573184085021626668971454973310792384926189192795701790170026162649543320275500262593890372
95 4 -0.0043312453521197312853612633957183005939593317593391958414724714517426837803059852030780073877833582422322801084321631647851629129142030775559933604461273758476943989726004038801088604543420787781725520246350895976736697724250516967205204534821603092856840652460581635485500121659618901946719
95 5 -0.0044237884948313247720452199464279007876755607281492198995269206936505274436779852160290711614229861556765358887355793031084199217129368580194366580624629344583984916765773074580354683126416896282564338832396627177117317047563631106411101060718946832479191851927661147836503079918506087829412
95 6 0.012244814389999532385072898999094423957554010818482814320786076494295399388942142802096382029163044622904869639695529127925576149091414261266840147349684382683497218209616926865691225081098908279872649933609192948565843518859130963126803497593280293623010508160034193170259687993607522613562
95 7 -0.017905407617155030846416054775818965340937102360358286915008916257013707664555443657316520747652797322320226101661751464878475702755439810916123875321218095654901932663556806921066237915104171817920399633635973412523067964294560017264294920528693309686039206676355404936053635625248545287178
95 8 -0.0082766296692224277368828692815864601408852573021641459719674961766286639981043168245753178489532085367387313347169734867386187038839825733386993859765026021053855956892617384214394806652574403114458350358193994658861439346615190509435087502200726653246095923607219133372618210158817176733468
95 9 0.053373962985251255079672627254790676634563517994962330494295102369825438802158238408148578465610250072799719483359680863692959387521035760807709127189506052131964456739241772890528066460035301025426114567577330547638036331673804419732288793393216097009984014400909166272322684326118865811296
95 10 0.045334774419952500775607738231628450493201243661601784015156814001380999690746666298905351723208151312169139924519114127584772531512864495799623624456016750943141206985570485887306988998772425994172665077138430508718667670264846433860738795128739102575887867718622213739776978895236760897005
96 1 -0.0047930397055514219835508860565094471211431667282591998073567123414643115752759766403554182365782522149224768450303172594597636130617713119262764238165220336172144194484561103499582786597360320911769229017648442464676531831231809877803054916752449036608381018432391156027210956580066202743746
96 2 0.00075809325748022652656091286015211430164404445221987430833212107572869943409528968118470438034141575502465083441543388824177591610092236021142248399424453811893294914729005670126669419923931716165416792443134041322237977929013830729867850535478275304158507520448081027287641545835111318030842
96 3 -0.0079696894614252011612630658719245011642964861809632184258444397724427562713326005401377336322877802817048943180261114950909426607210055785144222950645530476532336114941574101754034239977075433441251766494383786228452495063477278540178739851843993181154627057021908156804897352813364178759227
96 4 -0.0010464211004062963109757769938519543117228893455383099892211716423188638001258839892693545670036453233356276875062282736268312964618802208854184295938759319798078547394461468209955206655389823321775701036076268650459251829432320203408138443074997937886054074701630333585147723434570405057907
96 5 -0.0020370593609607552018650403916471024740335476472405480609674368906012257321340914403969485936781007504863025739659355350692030672379922807577932694219736091689560978493193019774467733959228577805875093931471055344264620279959413382424041477391735785269731266356412421408981800770704795439232
96 6 0.0058054291228059267295008050102595479577120482149897400272822393738073058229675017468705560193400307788190564515210099008068383454219537101248066847931189007954130921695513357947972972827046729749012840760264189189776874089832389788270710396174307196544103013527345856946433175794869775411445
96 7 -0.0082465901011212733961934945878193407981091447001786159004291183843448898564806921540043047921462349861529622035437321341162918374668984938336143371021414996198226105143900123110881252638019484479953866716530085573024097333158073802828650783919495271784888071535511810526345337999778226010988
96 8 -0.0028267874977191252893413623037821144043218078277301661903003991169513338553806321456127638607990069393122043588057007970293595496695326065034864230687720763123785143740237781751868549823920918650208570943177922459974985452124992743169138124676702951341803912732284746609870876978349876447417
96 9 0.021736589981208887060324636413654864476354542642740590220745450901169303627507710755595788780772594223280897967131006665754574683963687973079990375243769559160358287343040258460721775050954358698628037213600324665112051925568953970877244660068227964468691430725790771966104146729233351553832
96 10 0.017975389912710937500606009062939169362325341855869776061995385610849051961483127086682196664185021232267232080170408654810027462869494081899158712311627553781152861027632059038346014241070618138689416845625971418912960535411784779758297296961006402389131112180319280528747540817673281101392
97 1 -0.0019888740390250147378079290777135288597483358053970529538254822098642965900344036930775601588704615205249095181579011865586240211679608221037103184879723322219100061310168391047150794140676284930693204467739182793301563682413717643870014306437554427634881264529895631589161330801474546186556
97 2 0.0021827673023185963363437655086367200133106230255830115386927128010041413639624337636634876835733941557709467730100126844434627401355409890724860455316365836921902891757245277111306670932505266797473990778577816649950291122317190540310953922279554491170278527924073223642915818132203287615632
97 3 -0.014520473490840051427762668580045628625511447197718233888190000032180272489084344505626290550390739409669798063013933245746433050451829329092727190984990708200110714520048346505002455987512467957425905708585039899102064248591664394200978087744682912781061414154517176179558660367860534140141
97 4 -0.012395370604809946754329470183905676985669655483711406178621052877216757053228112053636155379927270846560988952630464064117222590417928694547327483842725806577282868975729956589674895605072574996726655439788825710109302708174931288475336510630680417985659263033972747640168250364953023766542
97 5 6.1774351202816215788043482769802015955583312355021679851623207889239483899410007493165848137890578091408445648697995683173914708598250668994039944843914148176593706312281377922879044631439794960193811939151387785208884223420423077272409648580039955883731849585944429693981095308612470577547e-05
97 6 0.017146705227900467349746111209375085111479953993111567592285910686462757707265486990422257221414899452380099854457567315812479145773739264785924155917718754667038700888313454480310675604948809469938292313883831530315644427581674587075141367054137503978466955942116810753622856884334164112842
97 7 -0.02190568740205942479244047689638958868423872267390884819217373269121975160218708799587531675142385364331610266453657867264871422521832350756850684038453955940686951829119447721680286733763122772311249376045483708280612915612816735554412525279167769590222327774236452261332141946997186816723
97 8 -0.01296782723157357678442415394545099587827761423632657199713718695229287837861829970325413338407246323571769531519523793985296884979854361794406674333215539984785553477189972872995053817452661815211416783498883347293578271701966406652991139413121129214351308870057264888747401610239257850907
97 9 0.059587732392957516480396980612702330922507958970426072775804864134566718671182299424955093814421638283472774688986801908811068513815941218621695717365132855769183127238971064968057289864283903901602168173658526663002385715511404941096149779764079963553315439227562653089970639949214090880561
97 10 0.058800080169975173775808916339811677537100458809273842444600947003472077558106270101640736030001279349024887518655346690773524549384400335714062626534035139830083745614417325589978547073240047268446847057594366528677774553618651098083178412294752884735775255475464523974703444050437734661396
98 1 -0.009047181335299584177286773460148802476643412647609250451497737206833563290990168740303098635582893447445774205786456419451497966434947381689254787662748680500252535263974605007980426065866485108939669422807084379497611259386213346259843152980925068482664995162695056813515078013537770609035
98 2 -0.0098699598219056224757606095257901931113225598399943735343487810736578865892407810848194259284298709738357838596118287555419972511151388157310729015711840487959413437344136675072336861633100686908226926403341779769934990433066296098277269448756605525605223145278958117568367788413645613441765
98 3 -0.010384932213948279693126458966440744540718716265412178867331781531156638918405146379114916705534480323944359964943569975973961688276175288958174204199933783867935241588006765271109142526555407913445150643235000222501849327808229377854672658218717243363270493107543967482581686612405356099534
98 4 0.013985751086187614824169856301304979031250682974898526142846138597058871982110910897510161187669744135437028540296207883462361929336215695982001255919384505819742683037726707364256799597184328005715958359466802871836627530582872483320187917914163491438772855677041111320314252906202308850798
98 5 -0.0087639119203998158416019871540149343829112951980330863369994998134945162173754576506673752102551787652777951033800366750262439885779399771566135937964094313187684275764958751422834228226548273476064574656260734053247217506487994213063233376283867405327572311911544749610706013703012726575318
98 6 -0.001717943628825830805965758682763995571072916526228690599416905736409121459603797605365502744346718357003152201770342350323514787516023376338812204058409065920704663664029580436318837749491491446795432864650950816634946784253278254763083204084387877828370479407907107212358461332351527200841
98 7 0.00013490073121965717884249682831984911426647491154850597493720265255750401619756358108024063807205122209077590171328027460743520177779579459113356547376513768654450663090807987708726162016063003048479521290523678996392197476783185735171792605363993185049534250971913812400629258226058402397665
98 8 0.0056969780106082859610062279069475742432738522457803710985337646500341150118245117157811042423969629682440270213124107701065759473837103994396581495236294648492933584475429408842185037263781540378122135792427077519954919220665354981970995254950754311116677983922403657288761100776550983875395
98 9 0.0015063697285301828554828480736639969311766299441368405000324617965526167898246264082549951830498798451961112657358360407207826381705412457057158762631286104994659776364792726446343246182726331239122705738544917843274456773613994842335577097334663239459275550516887414007627944491051563743383
98 10 -0.010631147155301508688126964142616440590883107026227095409625160089220418507009976064341257362455328126719423255768389802549490786903664775714608406714196824110403383239083023004552656541758906671827308841565342545038136710832995476161140798082250902837426593331102803748332373863426251079891
99 1 0.0053092832369114891201608133434854228138721341712892438775052746821077509723306861708183576026710893109466737724370804622315427735828475020931451110720316786998496338015301466905143953390517275477289455921903786977696132542532250576127203147500905466586011655409681134651213847694571543798084
99 2 0.0061166032968388478866571692666111762528595731011115272632247980338913662084660195263334170526915449665441244970597106850189059990809535856814915821081328636488522698121582677486494420058938079423130804300894827906554873883345867888751147404857852893192305493090299725585810039043817585646888
99 3 0.0083179631950142843766547151522011540786051906798260203480887100805960990734742015425414427180818531559738294794214982366171359328735479644635477158348249465287127359254680877187864109613796307201959808910188190616848475171534141525038244566069807662234768265091775042722126451991941473811129
99 4 -0.0078531434193659336976598635849231842808462671484226958574673418542010836905530785653956165955805702489840407764635576279350256975964910213726884999192213852525204658086779034788466350227367074421968115080092268637655787061569490881444673674218168322374920070061303556826877968237831867479505
99 5 0.0058703272192454688180170697192625229284451039332507606940978216458457697524401529566848746937260736095409264105022964287451621700295201692860626225286989101666094444185157169989158586567580393931278785452139166672375922878926392991390422376011393021650458571467308725692766405949642996607691
99 6 0.0026194074794091961562148677754307940542428724550499575972302697506622988889639438586953988815199170671216591167714715329144973321309315137263802332150968583854193516404536551600470162103785714256342851172240488284698290543680928311352919532063918653577407888756293754546576827513699821456005
99 7 -0.0004228041939945973114039321170202188924394002805430440209303523477709923264903837705036391631301025062306030587135658739570285447783285898127778848778653614795493246905887168860943339731785467373994492153752080580495032741723343147818243063177174850846029876974794360045231253356066656047168
99 8 -0.0032602598702198337897740545883236881835838646194312119798382766386783488893847509736727287687932902761938211458838492902852502399222402219617756827625641282464055449475997387085194249186827370219346998136594809857439050594559418365332638574103846048018959453466879509322046540829935845997096
99 9 -0.0054998343638351826452686529183480140427231934821631908900948453817014330937170651698169041446808548280793721576100802808519440249102446927921540539728598142850700966070046735746907656405890676721167678813279695336042693182678064376603059938612593863396149863925890092026017140986754399055437
99 10 0.0043582655428672052660236256402677850826012083738194210611035751533606185780561651125284905061230179103918954323460758973279108829846372059456908991140885865093983773484447518361669238348628944856242495053303987089351006060893576979567531742313295591443084260464636394016505016097077611658432
100 1 -0.008378452577761451289917225980879947782241960828731659254366674374224787690608856760592420574141598789251532536596702663464029671014359439352329957877466552999094215486209061356710248724028796844774413249126567972845505022902315977734908352365058687691167103936934635862544184978743877425376
100 2 -0.0072349906429159484230264124459326188387709447324816838658939807544778231338588821038551070376015026731790825417367152773460979799887976535631791411035903593006987974629754892281523129174130905408743410984129585264808998763372109240430918570600628343175396354154449802084019006694699333198058
100 3 -0.028598616910795161383208531107175790561565354920177033943032809009838361378023482210217711298985882267983193034401344023984044724515500966582708726308250288071544939314449389510900299075878954718543766166060570631689297743721513874496935615694298436640766874174394091434192874730921435821841
100 4 -0.0046865310790534657426717678077121618234729435161044548134593079345202257783873260103912165255042507690811222773899968928335718742975007791500208877116715600977765376575221336220571078275996547497861592237618731839470657335984614293118956699587336347216229842253971965295473302700768924500285
100 5 -0.0077830653065471188848932661110131902478141487660421483122474801837248797764587159495376061101404527645980464719065958450990376777024818191594098739347091769346777391805710923074144871264344558792297101561802910913195860378589566584963934671891953258998226753916488595839917154231266772512729
100 6 0.018593910775246826909364344367892553882985933999567602845786397146289037671069368856700315859251904493153901199657299199963443344025056048536499409411682057507648215671699496435448405980320266136436650069283682348959965011624430694236917696269611567031912169147446523359854424631919397827649
100 7 -0.026917035828808374725172028304895240466508832572437530118794560254428055294867615225453251065666298733268552551547376251237772935721299465322264323456117451974633007368661066627692892348559452702965170254411235648851507896632147535559449538227572343258830824769714516574749377558536904578578
100 8 -0.012195661826162194464234477257654614616594212319074577072923980673506296281902649839459883319879975903822491183834773989897131801753288155595063101509432040102162213103593566099030177907921528829856382747957102921492254513169901144133555409735157679652216190359033372413638646081355430975556
100 9 0.080630708182423062163006605742438994573051060025178791244630149592571942930774893652022931075578914325776401232968413000394558377054155684974272431632837540443475804208208291832635840547520101400387633673486657981108174647496999857220521676123705993211948800793251423123243535721431239313786
100 10 0.067701249757075629497917319068811951458061954235104068245787652732543887631760938892254873003057745295945411596140136523962827122624666107569206071606464317802164011033203064019662725391643096528055543139504782062378260801304695365761015674167860107868963723784786126948896073774273945152853
