100 10 1000
1 1 0.0041455639483531316651947715058688719240490934838404129976041389034298669561277135284991843389379630095402716248965919384440044467511172256048444004933583359766728014527998856939163276053608674097473766366066232843854292650637368203722223737808731629590268599067459838479223600119726712027201
1 2 0.036562792748617102698439600787329686210609264914907470264016201809154025204137018218434597666957117074436045652924958462463691791091912614731448468516940857554099159496685115550652198985215869617518680430561946771353156881391198322856617920258570019250679555911905556091521907400693673033324
1 3 0.025046230387501596111475272063902809251584092442838318426926235637555351583105587748630072153997934559121150656583675919874657902700637478512148019368501938629666337268824415114498519783471029364063714370283827477169520211826812572087853910998290469806090685115864706092619683236962653920903
1 4 -0.024811707543533108833163875298490047193286571944676743584038395921571183528427340549902207366958295521400201714625569402331404005627562322088941877178009582897443244247288432721670506770672003211910288976442433917146120693252345115276356238484441494542767493506140716660314281008873649623251
1 5 0.020430469540911992417148773553396344278253591776119695277891904416334405520880794844310201571329301239702100751093075963121977780106582759173965926169662415652311288841121284158270773148099219375288739193434695510890446350386807188463000466124576158520583839172682466223251077806430724650043
1 6 0.0057793566023741491880429953214968439380767780477596975347838303147669128165009202152095046555436161178626646133182322662034037206678291570031903622463517262055340396180313776143261622120585752755308809975210783488468132663676287080299526840623904091476409905452402965078809256484519948701799
1 7 -0.00016300623065363474688215762627980374457630316761080054891545195764484309874902726194969638542085857707726177691518206486591687745681343336950424000525557615792652535518715164205192718666844992916650867039437683178956784565961336202437918189617402853264545350195228235045046132061527531144253
1 8 -0.0054866492124024850248751929558949951933652992625636189046575464743805504486233082359235005011095430524970148433726901555013412348687495173615694594379422868812789373305115347188428230373835916724511042289467124603612893094101060189227177677979633096246717192679479226193207097988231964224615
1 9 -0.019888207522360726645287007690631929483199825095470805116162838194071384248048919209869616223691265118949516475533738326502804237491757801799095491602660906999093963993739528336512099781103252815406183395887685479916438334790975487140125961959234571024086416323571472719444887573854312556059
1 10 0.0054284221513701037406121710192846730029756064766670739300126131163732693578148712450622867916963833640998864374354020735418390534713244759498110654846392777852710384590058639106245891634630800133363635917426301648574594101486220041165110801724673117626886325584096816950284094090904543705197
2 1 0.0004444784160534436091387452248948330758485178668209607425592703902473046565192197291075672601310745870079499310238407908186433461410072439813739427071495941155067877107228998125662479723052679554033916980995871750994474633142409408144748179575267192295582455952135467103876160293139487477389
2 2 -0.0096035445707034749856683711662361321291411675458864812080186575553811559370370724446001893092755613804260886865318738598783342521618611204005248792930726973764655799134898791137251742637740817151006256955450678453153070827998706156938193251944758888979558293982033911500994413432020833617348
2 3 -0.031595857161815292495812430362647738807553526056331652110108039894456609498699086665814562535667527297103792575926536483310465273121406129146013480603953000650270798997738771819092114125426713822019587150126732924059621327346300511149988265388255873933751471576960209652618839165135125541084
2 4 -0.015890127220207501391339311612600994677867981478021832398004688913745095797461351828584555099149087830462640544955800572862971528528949610089260277849226588894196428270463277233906901652883281979333159258071839721999710600045737051825660684314880939825564739652617319799558797718484612539343
2 5 -0.0052515831133864416951012823235465214745562940018171280482008581808455759627666905401930230129936204207548784443472549714106735944554258460564562437207869218755823578897122419317156047540658988948629000539434085237507270601199158856559908797650991852025276366083358441627081056301301501682038
2 6 0.024580038298127286698098573794412606769611384348995199316723090974427940102445517277202916014431583091773665245026568638975642714658340074659403645726803529495986530899410988974589690131939236804850238920628814247918156904424390080396342371755067585061875188185941963053700852580138940953175
2 7 -0.035034606038883192827085963670656439810345414496568126637737330400384934828845695922711580196571837290992966514021734358879586295558178055243139190207624478903421116180701605891763222037534557060293528486333166134782073319857393447594010397639227467131453159709151792213721063299541498260945
2 8 -0.021716358736086046838512850808340767103263977610993691536180195856333479374185343831069240017103571680002404454044146759381897776896081327375524395668488601669229669038477023953005978938387651842237875513303615808260037701499129279302728623861529176076655726576651253968557519060614596336567
2 9 0.10888670559173551049149315490263843122429309646515314450299039663336803851660578290007663817643118822841007928009774067420810215488239462032633845656718795188628132791226395481952750028187152686507642963722689607525727040880853229257877146524703179990003975151266571524921252262696433538042
2 10 0.100270896516480883946120808310587072541057938262702967974133557244673613381136493842717605636058327609710704365083916849406369689182060880248224648808526544620221574519899785515937948087081920641464608467815820649067682123769048469631797160701835018917067472506210746028429654159384170835
3 1 -0.0065802308255693228166912050279777929999353805817183866800270091593904245467998833546282346925935302632472426569151060852608972414709633423114478391424113322324718698619195721524778313700430058974040713630705882180443784044665931027622014441685127754181814054235747521695877074797748091684718
3 2 0.015983819037907553110022993228057777078533965917449006414752423847227885775068504654590491721328164371867602303324868196709510038325916382384479452793606676925016610816893274382231913817552243602095210448648107941375250613360640387912403764088020564341024111613717298117221451059953554853834
3 3 0.029047688056031851982368286469441279542275043444343732807520234203906787892616444782212048198380441754327437531662954751094352552233984353971449893287949843770388294343489885902004472022121598339413513393066816649595444993351110794556054852674923859438110251757201018359485128092418551685401
3 4 0.014044606649777734952732500455871192765353839128517030759286890382302708730672754052796220811215003313752794034178266176859705272514084282009461656481368834830405958212887521376959326177915332645111912260510289781615671071925559265816382804892836145162487515726774005507527661152084008614136
3 5 0.0057093127434634266369265879470998751966159628607516667846085165691774022258626152564325936014606502045953643700227259088647143442738434125462880584110699873024214519397240513959277569076789500547804275687009035734369392727553505554658698105182928803966950921262363613305914035034079617064982
3 6 -0.015981637969845058278782653181657206440143885780726904376030425706075974008793872104793354584244360438858836021326202747728862934320568106718584733593222084224657000691468919720944366119159478167613693603234825193957191150498036630211027409764600907962682478412267203650549530722085683977334
3 7 0.025690643065813781432788126593634737215221588770716122375175550046502203379551030973586667450020095374760498343104467136826138422635563001635312735168521112240483302088249342005603656696122591975431689641327412022414537888625226151257731688615440687501836040725509201528954594638211478727437
3 8 0.01901197240580556408688294282869424227297197490112397240960126835299657862869579435277868519535782028050155801111886500432264619714549207084156337993137340918553342484112201827309892987713799328398508955869939924437826403045313275765392451477773059760700118226280239900974302185559791956298
3 9 -0.097772828524244401187055712034848214819471587353448629176181733359219770285931042336647181142967016568098000546423000434767953733138003009174482614946750717471107613143025389832309950574658360592672297609299997725493907294163901586982089003370441267803432088083608635083758787509953628350069
3 10 -0.086558111734495517933869610814182291978041231572962763043944381240634395235228841903145071385692930439249151496439782088634521415866720642750032667472630540077686768193431376324798745523207436487719958583653182244381998762473416509765085198488722635895069890009718146070302868776913107614508
4 1 -0.012667646735290025639175023646267605763059779224530376848453384739223538278656399662328274998216649694803505381924200598499092952290614375726210505011480721885949371532731221009203809416806235125359675670135104455730917399053661453899154136260488316478702870254423207025229540508739794835194
4 2 0.031708352251286264512575350406110941600815210190925957648964884445139424568699261873487816614547461679599703187381138699139257866139289568629944459131510083486962802796998160015432614960358772136739380726935996166794466791407837092133259213579128478057954896916172082419534978980802201107991
4 3 0.012800249063551712561136221809522181284420398869347806350062807436436859858718328058738706299257555110012070546045952967633059349235269766873210769835990058802166643316934192385151757179568766489323773348066460083567527494756975946148421043946375118851786117943832024430765739859655987265836
4 4 -0.009388994021762898810259795872834022885351896680102865367158966572754055118988829861170224991418493213276774441036465822526486122679593897647518270796675642651623336803887024752733010748006703552546148463122687382393833998695944500443439568051453799855413611647872035387980360982340736633805
4 5 0.010730147503705573685848661491943603611986835528158976481495868801429714473176882875705672492075575077218514394615431911724176549241443067526004797254864199453831290406635582558412226307656070262465347160202872079893802493212286508230714534487672379136125833485442457883520390416895813578586
4 6 0.011098428671205599339627163842091306019856034676049292504662377555575210488727961870698597711505301442810674997032821757134055919002281916166270228430856031875395785536282759903422523661557986996798329098805215832489844500332373511961013470011743712298319254061935546621986282766407465599541
4 7 -0.0071991152932581990570094061316299663316924990978936695216392784186385709485267875893739410522179878049951687466557692905400369159571156875766806071591849753103244934814329404324910212269701273448866546306658472848802027321274257486392171215092854991938578738551498835837445057433235777511863
4 8 -3.6970663892497208665355311864861954189673310000466408086493092413568619074562557761785279103976586753961269649812760434383213852498513470190890669457911902375948254024798064055624741699323331052880203445727245231340455885298740499116727105502135864521373155862273613765325166796528196663007e-05
4 9 -0.014274380579634118446151820690741357235517852969907507024019079708962120936478150131175003344060933306922488044860846908119014757224077227082121176322067501953147620917162880305302781742660341598592872084920932746481338911471884312526823013340369327244849730938510914996859184373795720921157
4 10 0.00011634770602023283604270015037889460727703009657812434252601825558549850276055869235829586844760788355307533337740017124507198528429891457340169914968939222487043642132088750702467773431050182348373287569638303058876184097063952253591354571934142543923091335876270171026763994532065756733683
5 1 -0.020553501368898674776981531375793796264726433897276303135744197099384491160323094931432171005731022799968510828943203680279473806629326037620924507336672219864128564710828894523292306946527393768547505502500188478041005803302721086724066849797760720016550907217419396495293313216415074412945
5 2 0.016419392687172349784182626699380225930535823719761735314313118773600802880029170901378572023519101680625540754028937615335836182969350813150495991690762262636814396896660515161045393277191718455913369415637963973089551608292754204957872796665960579172990060593133527406228020567890479898837
5 3 -0.0026419226624739905560370223849729274345525102483617794509152546333184248414696102221506393786192377949243689839504803410228730149556378683844752138628094792292159363378330429842946845222150289335787983130448124328881556291360991162070746565521224494679098833275175928170996698455219801665179
5 4 0.0071170139346707551807565554595027021171494422137849153425727104605881727031723960489590640160821943686857518966165960824229666139459826778323152906714081184670444867768408768278255364542164910879412818791075965649794889404628693785884990212017427812377764844084573647737241400260099217312248
5 5 -0.00084007769867027237580605811349288071605970361766786662605846339619770019881317361981851540765234658441343578641720107201299561072384866389163626011870824883588292662286727389841149535647534963758193975453781618085173532679426378617285358496318125245616528225807793906507486053325842604859391
5 6 0.0036389176201009370177498627972437133007779234622912167369900751169741985677480476348565385688391564612752228953603306639919231015620105439044641360175614007460252864877682307267287661795194142536277639727761339478189754940747581786767614256292309526975765093885512139756130380062997780122991
5 7 -0.0032380887336230116474096094298521657312320747105321546077670283361202481003478426707999319700936477547216214210768207968772104987520325315915086549769344612851595093792152531263060711614802644882258914922365122005055598871614126530579055678990496986148987019661207374092306184078519631714893
5 8 0.0071789921212320591647893435425866130835972745498844954754502230393908453515210190879681146962543933419027301306650902405136860752395600034837369162785202597004436313203902524208189300621884023581693517785060797485375631359461955203724595820106334485365640729872022735329674429814334907905241
5 9 -0.0076614078049370727261823975371092230644971583886051219978465533176594411758835087281641458341877749599846383640603551875859645313332519282123862690428552174110443653696824028647692065039714051196625511820880454553862564648525736229009006915696334690742777358690867080290049327459130752984268
5 10 -0.012972443912450913599615451975621781047932356741008013288511576620704687006426343000096606107166486204374066411693841906310796602461081502397048956106683951101242186779187997770704477812841546756027853260234677580677062313018128899041300516339960808605798308907435693402090497131379297677417
6 1 -0.010970370707066971950749408525372333829129703576807250813998105149017929091970506552106784615791139860308661665040409786735656422025984737235755724764869275876400901801602334120056878881457000014419632147215049391190070395261982284713180779310826757658918755785461797864469789521507443926923
6 2 0.0041736005144212734275112215629848477551610048919891728875020971928103459753312222000831628180430872203398449272052393818219489898321755997980450141351771885329742913087506208702054328892811615914231178142814235520667149977828863765912440346465503173052480851735184845694817084284782873133308
6 3 -0.010218511490654394979827767356014429179708151894693787155495066222492932786431757820351808833093766399588122199588867279502240156787934091255902991004179886150770692307816980876887345025841164449827991377380089720615884511350131724968220339380954541531330468424282771838865412522738555363076
6 4 0.00031066734714375875239914408860304963568963597456916282835576411058044145550985663771580713512920767862597625778484005518810986125828720244250486644174681754455326515778544337996263958529626337300415481762397034165449852527024054701298445066831712499763319201622763230879464959829205439241334
6 5 -0.0024373627380930457405587302835736604678262655559383604792836371703742031644471196939352174777264022869047691683138391230352919059790405442923321842403642787832626125742592947789076583679211030354202946138380926167037156352972074906592903835070764156642060756930893108870108395676684142541202
6 6 0.0092588003834410819446453415739351317600010635832755594599924959909931874736367088225123305575144611571771939602135621542816220038699932131536649427848115613348738551286896924096973120847131476329494616746653038790646254030511072119737406061696183390203861355125632078910837889561477862838771
6 7 -0.011533532008051444855562290086936999498605001125287930295105123809197787867899845883915860572319804945195284712483701653184929150480709119833110176291524113677059174746485899879488003272399477595766249880755238701368837479948769131831758926960600930744988148553043100000374040172718887903793
6 8 -0.001983428283332035515990048494310591036518666307244597693060251909835411628389309657264998204599615042741960910959996340722950844363560844450980861135330446287165070917644534972263832430385385841812919172690627527188858197999226694347625561064309599936495948725224914110733644824335285383336
6 9 0.026309303094994332035929013171280675988259216881717383681535147427243534682869215837394002067577600086078214013481877562536414690233386304381224968607887281043802326186773675361158863447168104779301801372405064475607769896003434474403636076422588650012221091210844479761451648555915079171437
6 10 0.020813436028236741683412960062191696716192214469866069258187356382075625134361445369312907710047334286689794585721741498205865849568894092479483984420532804319824518711732432370277629805982864950480432371122997772534525295584914905201892962629867106803001427566379207724995493968031174475554
7 1 -0.02606581201343540665624037026367286851169518129304308299036325586341531709991737777016851157449849918084223688186774911298179136660728061156644291962625740065569142990482260922814258232407330474644248848524706876275056892820821883726525227787591755954025142578865283734961601365440956315263
7 2 -0.014980265638218123831277622897492891638074836977586714207841803045398441494607291081262871358610581444606093710531523591041668404035315853037033074838376931626182089849738565122149258252026860041176778173565892528841560478716599786682161438345291149003360965059667146297752014332459797998325
7 3 -0.04942791830794753934731529466246522277352717147027442937357094568108346213420179152033515277840283466705643036664802889350149494937122769834660248031599456197391875205396611815040194595516761960042196583149994534439163306052384264074687283514400186649051320599041362731444398923481815373125
7 4 0.011871200375242679471532901236761338410292728594724766742784581504732245049949263661167607944909335616745351295467350262858666740729667251509941094050725172930608881068729792163128662367193697717544126757687984040393851118101076448172855252083036921615275425007834715911348837566938531319131
7 5 -0.021915001928206037055101072835460155301944021683568451099494678188209952923037108174781754312280311427005999390876212194323664264934495970643825330667022015432372945492106175793233641131032005423404273390901970194589354770498968826980051255840546822556174335639368839161903741735965632145976
7 6 0.016457222975880616893016974183689159129876699215764135561294717287950200934646232981319279989909585995449815550385856914083417336918765676801893483353459635858489127157578818489241397395142920781914951849903650977570481667850095831695012416144520612759984307518029480398171273927758509315024
7 7 -0.032007770635832295612279046327316241018737367466902999768811146116401904353002635135389150273547867444846279882070221749018468761746442662681767966610872132891994731497529488077221058715437299172024817783664715188155714373147541025294258378511137097053967537576989362299125018352654649887153
7 8 -0.0060802437513494629676961210632582679322833208776616637721196137352061233094830557361108318456572584043487307723828540971580086361064337891135417721575579258559380778931165256440580765123364689293367229028745300847670688886346774941750462708049707244670820196464028610940121610843344829007838
7 9 0.10013187794154892937465926828165395494399961864355922828955093262372424885570272750206023765394045204589050920223344220050227929290931506501955009994519059394148341076631619554028132424588939157003560430711013697311293212257556550167601529357779509918700899663820438839334604435735699683211
7 10 0.064923531800246160023322960787779745927980503031665171394924266452867669795752459252039637112305840063924884637526198596941866346425184731381707320387558696891179402021602645964044570984928830999666775212333116716964256344073121126571090212311423844348229464148280594669823115836240475135929
8 1 0.0064030347924310321019798964183340463151397218224326950048296996649512647397425511476067862605752851008243184173343190764457142502898946376216251139373080710886699483863938977269148178940921315134804724395029781680208180038204652275373845953997440371202280423047806718444417353417277666781489
8 2 0.019184334900513340676868161267347192178782894622700887203882890711373481050037246475917261574624053437129177564849783664536619928203098531274004817847416032193241077117312926805651955342112225839537822257097828266395140322975912416976121521951521400727999803371778209432977593709363402935814
8 3 0.027063761985006988899744189742211091394082210230497022217357129494750478309783642934435605815149825955366326149090204768342619099512836736303109606594002364087026247061782299681481209118650963786133622751531486970251866388130675635132324071536535582044737352007664965166021054722774460241546
8 4 -0.0098662272321926425220257970884647835441582079433077829717172085593527525920270832765352356897693265494787495574871592915064030897545490687487296528350418799700432948625772624652726672340694680304761531017683556725958450270856337668105706853626459323191004294920009088891744821665999559638479
8 5 0.014743439195537259251086754652143428882354641634321010905731066730002976892550540904625822124012534808918282925627518112971231131395838486687715991775100420719778782482825838218638117545302696070959319223792739031298212515873558174956574087978941134723135037737112076378142344120847205968194
8 6 0.0021946770067838793608407082101183041723841205967131912057957283764337650442490203799979278570390427576334585357640794094276703907484950805513486679382627573035733665429874163201940995318768405075301447135116910910829375476617825758233426711483459212224664074170563648738411412065483787263517
8 7 0.0075382090615404668543368984627497975058544437817684741184875921978358442501118455033486456803306501256275159107630340681700196533486434641627087976885015915382732188929428242149344825762840633747258960368315286493966376839050506985413198049967229175539952613574918359630591230260971194873833
8 8 0.00094989352639334063008845335018617109267073777144684461600681372431359784883211952407805704691864125601210288803534762402420327571660089931489136071504821257107224522364009047811966502744701165676840811043207664848011362613813636425593581002596616513481059475176389019817986856281453734068706
8 9 -0.046938329162753348735211357754304823056803944202224017096469445597807738959689817697887189202114887923453275927312252106673567513104575110443122552375557135537840532254169355439639923989107380668661952135256442303755993002772596700199087634618797045521101622990931911681002598300792836450041
8 10 -0.022274490601753447995455920005372843281073635652070724825557905513672872809259761374962016080861795921877426791371462857841136592605389064363805119492384240558874846441612079959929277066955432900482751101108646661507037850512417487244637819862521687334774555572695719909181591011844271123552
9 1 0.0079557038189517908728663119929183057810964797590285688344111541594483579171274321703810794403782757312479736335488765464917263493968155833779651144327385643033583669549583824661597450415571987261913426891633389621611819933491980968164582930419729060487975179287134090126994009149471357713618
9 2 -0.0050477737568296986573135670498673140358306970174381674918389652221095876663560556909179447585750457163446845875646128202385849509387413937399561117373867148016140655267216872241121847643406734576081992216455625491623605679265516621640202586036972945071127409871873904183557638755221482938681
9 3 -0.0063834170627678936922565182108020812090414341723542326414051946616689162059919143918881390864336331359654922849557272827394019185474245539680989332261201358154913742738654560835060610663228367969510835509773618087339081860605405004486204246489982679755270393343745936755760760589649853419313
9 4 -0.0094333759343954110778094730913137911627127135884041191226932233780480410913902662741940037776302480045513257751387214727419488947107888509261667587820087151015922651568412487336020465031659356132577957034594438070399829008470766928670228762026492405868189532817359653840970205819920561871415
9 5 0.0010959307496507429077992843066918461617743750101194000829020196653409717194869516065234979404359287081542875928264320297484980254781689684906451128658264031740170572775213560665854052752311362687308893580823830396030082109808159213109203431791383072682555088609982558021852349145459959281322
9 6 0.006977936767890873828662453969362029557499698298891669779027193435577473541994945389033975656658475302875216584336832395237641823055077085352415981389493045211983866345452263467859140080335009540470645824009162878041854451371007413205563247677606982474264185910867561778615454280332562801275
9 7 -0.0089913780995050328710280935430046723945938461688671441601102149966416605715853515583103584614497304113113287542925441787999745298660186277268643324621509081442313297554429480889710530230346418651752979439367362071589768574539798073719577256393348323215923958279727488924597386001609448443838
9 8 -0.0093299841415748643463824625850437439469246722113290779704471544941468346467409920307426811119263059920072329987003531210317669606169026926291136436460462956461155607828361481157145216274200201071745304717835295279174303894322351391118504634425867145352640276393913892614828931382587282895341
9 9 0.032508587036148850988813726585007979086955942772146925172448601301290837791505109950960192503557095534837480160098471853933882365568519178186685162013871259417935419579254703962412509279328097747377727515936768863858803355251121882053031320601430753021500185071917482088044273466049048979538
9 10 0.034456271614476850855585190456253472830478184579197151962192881489577155949809628685560684663173537851019800217780227001310618514335228165796835870822423696214932946599098249243508215913778938793604231459663297773232387733780219255925764070477930823083750366699767270075999789409953532692057
10 1 0.025914181425350999416829763539400376051937413006574201828568133984115757495373643226209954856085096265531790413337765635338504573826142395495155581997787857280039545379417208278821173156520753174814416707432470318842523356766696298743392446104399540329578447110379442999096981013354269129729
10 2 0.021938456002339008217866668056266421681907277833978997881343128580588487875244958266947298246060386486875961724385618613319440698021327308887873951951204699167845934763244786060568420558090472507137257164966610141356853883986490142826404310176900843612049439218587816917255792311725552383993
10 3 0.077385985606910716006023505644235069499499861903567605059763984309673546105301391105040503715287252834570074023627084231819187312771885799708568027154396053257208677106217929345756386672060491477208488828792155381748845427665337846812227893218777508808784549311081488241771366649309026284521
10 4 0.0060296649147364687574135885468596672226799153070285388242428033953476603247821945632047535534630913789625350433173657578770412865747681077464344868563427799534937914677447639700479497107403806172763803558145100158318603425146817258409374398304651114526591336441167393664668884774613723927725
10 5 0.02415683039962440719235198623095434440099591579895266802093500113588688025701890235238860973821616290679230208977328994734590963238842518867284652471986096861996261826502211417384057021828865448104010677986911990890232050633470485424907848965968438536615721848955183358039369900385524875789
10 6 -0.046670071794698059970126080368178835930841242189823324551341055601846331394890414937034701965481641073240612088074379807612748571662446408269055465139613841536644098280548653806972353517505711254361137195957649826288698844725484572399009174893435324660654473261639714901871475113373174991271
10 7 0.069443222964618120474222056031530454909387876303626305673422288090409999816980003265737961900458202408963218946743541992419481999864366497312014624894246489887154587188363529450998326802236627846226815170329474530030003979253049928336817572810541878122147233955124209074221299596145493893021
10 8 0.028885628268118806621338185796171738454923077134539368285993489822656609503155941280943284834748299259917539447445582448477189685215900341085978351954718597508686395285316205533832743670722805234700283610129848834541873185821205546658806466334611264289855511809956187878588145522164345101664
10 9 -0.20651596311226029058204616883741048916811408682762803315480690621423454814833078589546105367231501644637790942100476088853310538864832244114479262410692343294420871249017140790482644632117871875810566311522226989341410649917091459894390896731647074421215898010918697037495518364569494876835
10 10 -0.16834336699313750358151609737892726768929023211835026440133681055572417860251512619211488955096423599338873013810591041174086587629599980356367401277032809046369151687960567199081696463152127004088828683789505541458551844401876887968311027682049660154182457490342432746022585074189858034047
11 1 -0.0013897673520011311041535442982377589319149635491546971795228244097587210854761127453787418866529613060245145425005518986800061116123315378534629595753835827087090141450167728782603674701066433094172507122371705370531966525579693580543131587968497587228226344547650555481956914066947265410027
11 2 -0.018150213931342328296322282530391226998543956061951888622882537264605437265975655282448378782937125083374869231254394707403705952038030623599774038477883666039728591706642922698734588789019186877385317481003475465183882703198672720060598574882427244488148433922969105199321074359720798454358
11 3 0.0057500695955734235735408246248581832780702640000087986128516134580335790610523623002461794523944448604667946897370291806507496836793162047107287295767675534708461834075098003657006163425632204353608609251948721804537976672853178049325554503455177546922834009958409708226843276915713561602359
11 4 0.027053882602598956053770951435092556423821045789210057009498170861533523424520736663715076163975046313657955545720815021753487497809712536826795919966320072321055766436328326505406595583770107534489495102095961366952529737838380377857411389385651106883162768882980405583654317124665254853689
11 5 -0.0087778521963354667909918263520244500225712613149372293714786589651469941023811767943689086979280770374389620008754568964800386343193243802536097123569976237761434793216050385005436823025242392180465929135099701528755646616748593094434929156013896191339087151097057557809070730065048060804021
11 6 -0.022198044933254108517565511205788600740149530258726681092660934161456861174992454146847945026558992461109633575127942255360496216848223957467011152787488647622745093977873665731351217044340595167870714291087074838110435899465992367673915334479291402462795639373973440338418890438929038641415
11 7 0.026418877593888251064959757409985036531483369647858547252188286513766874265069939907006070549724888495388540329075835248911048065988910661326576364215692773018605635858329959261508379402052262799223547352592772409378576480234444664963131226069814473572157735327417298845776926200143525875121
11 8 0.018926802131131195089592513412482368938680229887699472531892633038144820964987574457400741146230019171005563476403643040066985017271942150360504827541796368257485502651158368682880880738717128070253558154904170225192355978918086114816736180850043927521116945841487690718945296913535749565679
11 9 -0.063107344044646036807230747673534483793940448072157907515064469457284459678048331061170649078221987779732036297042899249259438836984832997927447730867503021765324090982458910522007744863093022321486644749726381654145789093256643867838003384266868635137562301969382742722161674515081752263643
11 10 -0.074120445875893023211523237928035169382019258414253467852441129752297768222442203581601518303456973855066954953521188294058730904767750276362443148071743933215448936107771150940516454407783907464557441396304234543698629374980242624634240466320230152045429916247775663371755292535465647323259
12 1 -0.007835272336264997747671811841976648461197922820424869203699087319332531638114983368140938205261585087978210388874194468893276482213233178194949659403585364078380685609624562323258307923745039185800223109116541101609591787185180527055691601080198317089973514485555653260193223068252214443125
12 2 -0.027669757398268929117496836936030271366130084160240085274845720811670558323935361368807006494081737384937011468006759987206822390289803754800774150438465870671043836484549953776489226760807837610028380618233400877837036892768545521460439655472588338738728867297583849325198737994074021213652
12 3 -0.043010610814253911620343962526640273004869892788790945977768631372319778261127679021913157338174539862769186051624571639927264465357028466090054985296523045817755913985655185217581163620525899250144722638050656999971306462782042382691577288736418752638940500200735047248176954119938146940514
12 4 0.0059960984474390864189136937646696322327877771399809253166689654763839833654122050721990949359236386553959774638164410789124120769468390159942297739169639110564669400692899033855184674167768062631590508887654858427050316132509747661216726622376408074361614042107683209749679153564996323302004
12 5 -0.016592810122255472417527874749747327405086458940613415073500411832356001657624919597500231240914107805762175333008034409198218730618695419243113204522653578470899156367718435040286101719616583254859197440007742698177128678434167166623202945517132395262540085686123775275811968658558321865806
12 6 0.015131800482932113244341147836973160227930679519062284331153143866989680674227553109907551642226371662210365758160424551743377274295707423730627359441311582323685924744457779676809428789871454400991616942638307665668191286389548770641243944645432302804243694388698270975815347003832480810922
12 7 -0.025179972963787386697413839039073767106293437533190626158957453529642525423491131868641778293451032834300134963818019922441959067469053901498789945112496179843612333239168642148701008517479382186012947010795997121899548586872792551306718776186618475284571774981432964308254009808501880556622
12 8 -0.010031035467977335302771427341520618932927710355271542396348919370415096779230537155848697499735968719219226632525652275509638300658355300498690256535843524778723916539880307701053281426899247920619040233947409604469704586220595047964517663214745544830156116891650171427509485089838544353772
12 9 0.097333720236349931332320544848636988271659202976744350311252255093041118971531029642782991215128924707737030609923549198485523174713966686373420607459147820704143438895250118004327445234493579096602050213487346320933812113983251727447630506835120169982758769171145403600711821410993149774944
12 10 0.069737021670654844632564436399930003315807191992940152834548694176750591095830685053708591336689288807847376271122025645668619634986900827798480324892974001141920945004123369120760489174679375291150132792634098922746354902182410271594599931028146667463827884496907120803752227574588021901032
13 1 0.0030371455181379805077005965807579923959835085830557351992513783551868167294465309226115575849380601449457318688220144464710820262235492862353414946311245479632056198808407756461818075659262160608285874957320738212814907615383581227727634862165326585384999647201382759023098819114276929367053
13 2 0.018513541463048962808347876852060502135399295061887050485302190003178319520923178997173938104672533604648319733331655428417321625901459329790248095402083385355928944697282062495306887387188717383919832679787359786550584218665722049020672591977915813416257023587881906102328364647823701907699
13 3 -0.0014781348454938416245236359207397972906621326201255613059640814441860569356730052962448401765970737184535269605724451879335737255601102917393012916965842692874266897109065273932131478015682747809480205378621040816353022910378513828458546796991173365214588748634435330989270155842935324246856
13 4 -0.025154147137502021530018735574447835942686952178788937779854320632459236968546063584993770623826276187547807777304246160980299100356623469383527153695732744008571685264874306645401117460678631242885289703972084114440728899318846124611979271221924988011380355926744100639751453259102629224785
13 5 0.0096352608569762782898430984835681673303885836551445876143558007341285900521682558560925249720758288880601663998980838324193839001168771203860622590375426588188300678584924665556362589193753394678598400396891781125505521846592217420075604198386966105493820097394094480720839285124724631280672
13 6 0.015764058814103870119431312000568386487024226357248625098102216956737783719597268383076734959587839428266254531072035590417820793116670481820093190551589296546316218532256748211041637677667612621861848083518382811137067339231946289190939625172608924676557068552139204140391403070009874905506
13 7 -0.018723112831190448277974322273337516930743172068023065426594114894188531299242796686924100485142408000161232840935316635004945864894644201443892019091105337828506644622592498645705469442410786938500043726706868516584701093287698026015775806402366525290065821869523565261871636618895733708949
13 8 -0.015283651494166417992516993347398643774274047414599001858216147327721003686464840541647687812253741259835269414300362648635813966259974022929565704865067133098619090013190351761120473449367377814546197346340450099893049935320660225744283069121913586632990440811455007063916071762461797543338
13 9 0.047337750971342764252050727877810300870288696769901864144880541707558204710609361829409593953839308108299804922142585226070631985931569637007233316090769335523180782012907522979004602046862971441819611689346627780019817294352891430293115931966993164152493424647597698270250609778994203617767
13 10 0.057771464428543108881845143557287815617572399718455928533419387620917914394319660311556473095271044592129271666030144317300740264083361703601388182062500608966854359127104834912521151096585512553879683560418320130495505647399744651986953952608474689311704825280389045138988202855474937524516
14 1 0.0090572854776003929468437806406975706797258818290984845086845301039682323736729761854987010247352203498841047958890041880583733035012295383951185437147900888148038799856214723578387915728377520799713447576781550168455940519548957177418088787902651178145826534159368612607899764698501350289077
14 2 -0.020456488497424453834242706930721359982788026751615817336938415465276521810567113852472127719105992505834909039128757804062836402405667687008858393206069506185053227041702639660339583792377901703488040742860754954137961656150253717631545162145928319107620250120632232541802705356916280759249
14 3 -0.0073504227474441887563667764028183595836802568255595004802058434436322956622033696593859664441068910926153600823082794651241661090303179563474846623075355156926810452270024251936076284035681448742938622276229232186925191815059571252303923235108172324317063582165358517987700443059179073723718
14 4 0.0067781361008269142380568138225617096233401795993502858293963884897401824073898492417505990467667074398439730014382072493502547033210702597414828559304341859384478000661083008090814903403699598559918146860018194382780674248759204104316006162892397695549974040017627185608262552674936605011025
14 5 -0.0075549113183669938618117508921270252432563603759743293162823855878731275968535214918513145521969529408393596654118010960085067763342842017756481937036622399419330980914356665215178287903281210026237948887926522075388068944255000390127002942650284626069232467576234888755746883540898421524008
14 6 -0.010728617737450664102231905459094232376833411054555245063626497187865041817682782298536070809513174837486104194703326283237564409084712527144181161029116432805055211430520968192202131777122031867931628666240415018497343753630352565476929409631084148248854741928852214740980362245467428498293
14 7 0.0074256534829056792333869317786969322424448251759177807457359764809273279483483857794727218118333546942220571683399618817831806131349881620572660538728330677273186847833898229712975476414387266195376237284293538867560761559298827678110121880592510813061964509415746001283505829443077285848607
14 8 0.0012418169086182694134714372322730021559822390701901918787311627326654907516419959441735470334374135548528455288288421952426109254284758001437870312349621061951188972494392451461374952474893374698127781516356800299095051401790255289250571380104611800384054935303057862080111843029602136090672
14 9 0.0039857376502808729254203225844929274544749673852453839403920749187326831691488255892783111541869866380192920294193035841813932187260461851951242598280093280474430523267691287168359517111036035332343973256382222959680778322149391525243271513911159235057517779224771463115287151289769495121756
14 10 -0.006257942155464535449606198088223665452138311033145177787085911677203847860945319847887381619668238533295767886393231286425131644514092610123698157281464671128854206451878133567562868438141255378893170695035242033546054143215205052109496613631689565794355593395253469969256390566342287924166
15 1 -0.026978881125624029941441585367289917237318332908098104574799980789494552640634432521011275052455493336660922774581306026099498278875466653329287441968955684422930701411357149627985508905712777520037026590379989545992995997951277093138271261453417323476420528506097921082974272888337792149214
15 2 0.0026467296304171897834868749482800176797574558306535526290509978599020126847750994773127070500980825386615419066413955824880578696575222263291770810726051202606611747384289212614896139358720020463369924863558628659010244219785464230461920379184904624144199719556160073082201395387289926754779
15 3 -0.043336809270235192512509396550303538807384263764912003442633990199762881417157232059833102323326237206546053584828696147309137496124792648975803378381063308992467141121799558406297709096203411224746037941796000996321530770175944992752716544319158864423276937448065178059698514183041313814182
15 4 -0.0023334303602189527556195951793356792606546643677884562387870303525226276454447622190787549695518562777475613404884039591499035691739528096553920883033054155490212103290216807274836074239716700014417816286682194765515699179820342287515870559416597837972481950827838673402587273574447857598521
15 5 -0.013277741680335202942812383957521494531850896846075410785917586048400827245689602331959894870107717798888401076505383075631041892368250663180559590347056704277632242266761577344836211433166049831185542976360616602655689530231142104166749040138714502957390995074353815403710643114375557497393
15 6 0.028382880336762680265614685872425200419163433173424927592570444573752535761198620352786621994481901272289256667989430763761164332684547429089219120961926119865079055793249535188326163844200971588983991712967218507542876747104139292210303333272194970876712160504463463419256745703776319453063
15 7 -0.04251501667567920848856989839128950492661873559320227768114808693865937102603509844775520053593302500786573887618130673671960526879264849179550581525934579876088538036974535577605991561630094592666682027800707737456852808980456286354129271631098511222873664582185007692459691358987142040476
15 8 -0.013262211859543783851200500040998938823851061886739918437889962051276632767679901398258904600119680915398428786686747542504622147857516013063168714345143899097289805384015496204087162426489863756979782729504296494331719714863668554781401373400899141984186525229586700311344257626370956118669
15 9 0.11106175966834847062376088776303024655448160546672141896225878636129069906922361416862858852972229478550862423081585198707703527369631374783818188052430840309237541058726973948209754033056993113905457164632336112583213711496534939969299346776701237636558576648063260426070573139667368619759
15 10 0.088743067237293053189841561735050290133961608923763100596422025051801905988991979204272737411205203121939417846011159476237379916257454161377734694135258987932815294934722442036806972153845863909764216724231165912108465905988903878090340613170413703308230540411795973543677629317400925489594
16 1 0.010154677424068190509198854870164806417263648109821302140894192119618417974692669633208946031264641249914485711480278984732364631645201930994481778205912157524374909679611764145756756384803159898417135361293154617287530946913341943874122129313646613446858470562579943196669378613199900085403
16 2 0.015197656554587084725479870198000691058432462174302613618696803751299330837909483807028258362371977744428479830271895476436987881205408630920186576182492555504152533911165530373188982815276810387032135295944861989369787819926904588783793096363645596678619338506385255068614932690296786270663
16 3 0.020014378957916012796882734610689571023676395800332144071090762528924885519188892489949669352125175747233591806521549259582252303350177323643723227660264797652367439336904554961057664543074188087793304033931438733448139766449419690804456621300429783868634350843257254689604273970909374413466
16 4 -0.014145304079675906839655006494321492585343925895841173371792169832465754846785046288206813863026245528347185777211849472412271431438937722246141794356711567868840968892440907817028229821364532986939344838894807020565599011219494236261910884949778042134662618190756118807103000139124743227817
16 5 0.012260990748729000619812695655248509469007183523228308199387629108788791132053160817795637972148447279822394677360168781106217665584406709685439893436472240282924951279161338018109645044431611000627955161522772157488044904065253103172395258997651352153350978233535997799495836900746148563278
16 6 -0.00012886954182085329283089858860224624868843218090209118476454885798777566065645471287010412494197652469241519009315362793024137452173346558310184319074418645918366861296898845271493420842466364383024548079970561751479236568718964081168803351852900262073138432559519597041538505969662463643422
16 7 0.0047555096897724332742062066537946788678452128750805215552630693551897723318533789268056001019864947355247152677122541934461052649126193681210253423493613985856594688002580628004373163957834316129952765307211005928173517964249940929598890487194554549989708343423779368509090636634644106263584
16 8 -0.0032610138722107147283790239438587797867797619492415779387751548284288997470552588687053313201124030105158073411383227242684646320599702760431828366262742828794000342008495090106968405881980985568719918464021788347313564013416800553106358108100395272302451355171114620255246169302640755167514
16 9 -0.024536040206067268416229792863031500472564543103464490754508047559888199698600204348416687998593434296789132258952032310129529159274700673115510301354476212125415821090831355899995121033929302212950310619054842692440800142074735436759011681553765413570955101941659165697183507078716276199519
16 10 -0.0054495299906141783165985174761050148418528516742794700708436836701278271336619238750056242940670393681922463528987471842794790806705493455726758629569680492045227157684412288079004138161396033419573782884727363874156726842222914549957766237073098096460192638974741436172934480978589710030879
17 1 0.0098257893184446658447568501226576154566426377928990505472392680102737464123049211460742592589286809464414933615254455003725543174614111630848684729099056987586834435256204409322436078649211015106401943162653099139103029769176702796287658790584796309883230924006553547027656175473196157748795
17 2 0.022137844513155277840290103069033483429397560798434719018109809323388531003230095338294997575424272045233434496843426522907662322165178976282660625564423792034978145352376095090992845427616934620408102426581750455759541965592426826558145511382035778069803712111769052947362702022755012308163
17 3 0.037615790275357305271469949234861860905473570137949775182184457858978299170209946846472254020870122842354181678872220440996926625153640931365228742255895511998833883008332938521616637207094690962404754091579242843980217888257449853034030475356356121784230760479392285604017945656211958940346
17 4 -0.0081027780940325998235308718409092424657232882920556003185123821980617446391235892238973178850589525366283170631887102285486842776310472949325983730924696642445404541406595807980759226137211070918791529308879187416145310032411888747512827831223793390008861857734800280915274494709193434834855
17 5 0.016977133804370961781893924611585011521804966450483682322688091445443830786841023751490750417936624222829471807800801678145027098437920103008442210624615274776540315193163723228254238822251636441621870071842093845931666575958067929793255216534548683229791045481121521821564408633481245013644
17 6 -0.0090115099831435162094273775714126117708538596383037961122559560016143151055375696278213922253389830106010862100301424195451090780819283137160696913385581805139160459696101987014861129622610467313204739691450690485799269686456803571044325364618864501555934561503245844663749609398328845195823
17 7 0.02012134234168676885907154183213449611525789695321430405737337884609272714915948885034752758450350209992854201700672976991919057691411404762480562995390439249068173046353400838914006547525454226448479838146286584573150316425511283143208619750737736370016683490659152111393892129847525995495
17 8 0.0063216038661017903242525302437643960956172896659076302027219789251652048454640277927704391098611876844445079155584133587353379646505252660480971634811711576639045210021002747626363169738995872547521153296714999842616962804965418275870809109565337907973858881946900004673151511276369280053811
17 9 -0.077723643902653883727408407839193814413709669602899221204763628242855322031911885198404160476710863832310495751239002980726730501901553080052566412301466171615444563932694523867351943474261107252931284235424101678447984434575168555891409123500981477067481481772910103949308818944903472884909
17 10 -0.050934149467880012794402101232126321245760950689147002319167930658662168463162560830999378375557887296741164405354349688364890654621564536023429940951439012265245591972375796836843928056889627819833643895636174715634408262462328969165062005683325374232252989851658179975202323352512764956948
18 1 0.0092947981965672041801981582489986169754525940288668423335327446276568501391933902844649531487842317643852205486364509511335150072678380105343935344472380082535009877258602174736768547213656748766978139838154394154870267323472449107467636173940035970325146654248244039795525440242930820671732
18 2 -0.0054805243837010656387439418947477798549678787745531467992852154538547636756085471508055088568970732203015168148402195509687395455059973834864602512778176977932038008458855668315347784261662790033615029194969599040519603560613770868252511116605699604378243629479663486963172357945523479371111
18 3 0.0013775293790919291075257269895537717781020612031568051584281414105416849246101626988915146830583012806562038742433639924644601450020814693698990090793938088418660924570205629367315476911679071367673221767282785546075382185807046415918308597372560936843453667460750358609326145591160103391023
18 4 -0.0022210823913999019265062500841942012212598495405793743384435164003798698059752048242586421894000597757336013787876401212805244775494661494349267507755351138502913551308881182053318810495378754995725539576346326810063306155841350579470398493450814468424633351097349710336135275918569711431449
18 5 -0.00031710933068673371136921330046874299929526668678967415500264991015799847051734770112867872328529111806769594363772622203235352725461738130628377810330293053315088792015188389857196881451977729536527521991863038902387136059196226871751451349849870002279747564468581016173888178435753051792287
18 6 -0.0089704265432267799320965504500633448087503800688258584747064370857181707722291607721523606310836900225934407201389118039217444025610187107767984691856529821210290342260509020504766493435862790776752852870650870754337942858744512609944848727791003544947544146952597333148696437036499963549597
18 7 0.0073620598734613651111635592833237801836580139854451661011930923754364426498828187497939371375001942274115165637419813216284723193746836770934511495927270263488943909026758656410916141121273990405590772252659887734699287324980559789025860719023664338320840824055749163741716246995057989034143
18 8 -0.00031493975669388848139485139272433871146233492526526818326425367377605466860963565491135871188676804492348125714465000692176487495427995512737919352615873918315008595065160141190528854599336201792652085471020941533076331931981904296323043332379590882970928677789275373403198054830188017576285
18 9 -0.003749844747592371366811541503956050581038936047372198069268838938304333584382920059518838026584677416561393924540658703663919975828558858811522502065014919235779981561942440966375959587349548013856118128221745266639857948601699140088076771064602063996079993157726634658049224168885614977939
18 10 -0.0055259374534861415114426727171178197352927961137861374895263997661880385277568380048171162793043428294458503462899665148893581684655430578673351606470984832431463546805559669861956520484676102909618483448488799670776598260772204272150199997666864405174944464677276798824024713717260799508631
19 1 0.010401139821936696678245256134201596536060890229123608409016515167845615777834271918487054595700565553671517027348417558309290352024060215437324066735342140364594541884553344749039304423473159906635439473120905258247147745514507691360619343724715669636540907760213667746054439106897458541531
19 2 0.022642497610874914301663801861375982715666749347884012109523003006473234160304323860638329961890339843335711423235892403819116110419044448337679205482887317151975697427650315620100611336050244379054202774062104289672821512099812603067638162063496133590569043420000975781660516489872270713402
19 3 0.037344032990583570269166841793739106916393221766416058488608955836557562666994809936977809694398669629207158899665991460137372242357132847463987482941038638456138579849791496206008209958545343795736790265367857682908924027082767821731833438358634928945456108261731630387195622758135434123681
19 4 -0.0090628386954059883804085132547115732433982842681720577862612263551123081572772146827557280213935820238179104557286898081410088047543622411017978878663188688385394492057651473919012266746837900907994234756303560321571702338237802505742306188593227509514751138949028056739831032772318523714032
19 5 0.015782232925274457647940503623732374059602048304299249109937110347539082530683883247437651567231433781049887121437607842364625593343763895251055031357642444167018282215489773042277299738471391719773459282995611259101337769270416176518692874224419532617116401269538679976182793996843062908185
19 6 -0.0069797820335754861281298181316109878964273996485702813183452993565096814893765453291500597862102586628849166103477579605512520910428552745968591589890680579819143432800468373869087003195240491059045299330594213481036047170124944487299500438132716707153474513198028865106053750609026666112824
19 7 0.016846055655477969181410476204481361997966336293555073120020387026492544190854100500025016959236782072088567649020750767830508952411410128497045475717557187929235437850872702297831429710232142573841097642293520553194728509233911964166883271713172080307635626625756087923191196260026117412329
19 8 0.0046017894516218930325052174027433443295196186670448889914282462305588416424457725966419701572601828249310482984242599619671729017396292493921762013280545029235798208584306297842470463451751853829276113753681350091289626650675692216185235467053447887603501424985701939975719789238276680806505
19 9 -0.076858880275210387275720639147631995063487369054365630147694959920583301947144375972238421875333824885414159120625643899746331957841121829524442954448105424129323932109648551967569125490752009921170410927639802755810519140198433791943322006919206614815105475664259837318525513639446628555979
19 10 -0.047665876649493250450938863185909950621247682857270083535448134987248165669039506826588009490539400210443894508739078102722658895343794806016049198649118747371709159054545994660128125510632505405649517025952577936513327263858765600578853615967722700761815892131944656820562842161423236596872
20 1 -0.012509743404719902882194017978502903658600304765758011401729258345823747512880669600728103152918907291435547652302844322315109672546870071068888811569565931623778200405940218396693856215018949713600240734585789058121960849532694010025748127301223515534326455985483899872928021159112850707759
20 2 -0.046554243222148417570007905900828763657973544293693365742799809729978539830534357479752106779921236916274121334760992562383056461520070427593939762583837257159275573017340899779653007774332147899543150690284526497690504991792767326140090422193245418749092030558296645274893536422979848761141
20 3 -0.054674857519338754766359788028357262297521187576847549397061799575053500041160815259306539954666944893842591384775511624596992879622982630345406699021736611601760131456245364762557721323213258649061256509189439853783043845307568285195026513492127652928602164519403720533712660711324762871623
20 4 0.022211403320188732563774099790131418734804481334435664919543296908570635345233870326455656917062083559020946121949435001409327235656733748914507911450737165926745605968929175200316152397536176899101406862886047595798273434461382893224669145886892229370616985962919505816922764566343667019255
20 5 -0.029094469285999086750905427357478854171635801765826778949342075038177448945485730930632307458654739647140490982093445498831107895500987102259241508972216409872905313743606405263520003215511566946737720772458668097829743105213545494292255268094044766649999918672006206357969614736021041086033
20 6 0.0095290017431461004874261737289823314780907417101782544842151855290040878785660141974404840287524432970180455381081789245452222880006258102780453885473849778681936808586212095734034270247998018911472690965830849668640925004744289841294874481127183460765282139321564177257786212972416558557987
20 7 -0.023398954483671402745129089405443151388538453203135178277718997884952312978871444299600528518458076925020938956656888056508325800036602905188037286432077472394009028284766341917044643408653571222210545265306268731909400470588168588660653470935721444354217045813797476251635648118413603820182
20 8 -0.0049459692088499654529375583648606280035414586960559587315725243193901204630775163163828532541587061972032839812710975032771270137792854056494469758104612939822869902581376791912012927097227395671439109335729308958977352227523835662677535625035424470824540585188987339427764286180892774369485
20 9 0.099262777413846751532310617316741271440283981414039276526729653106757701364026961556747093060823919805771832401665574823594490744362130898909961678987263125263993603439213198371418066408310979078396484301392157955996913705418070015363702332063247056227593496877349049152615575729818352961611
20 10 0.057371098350119396953327813951802572528170684013859499309101223242983582136764862253525096083769420885968783467987290863727966396393293911672339171495188993108839793202620633950136577825436801456478548519062065035817594758318930269845383260752088437697328377876994664265213855304236347201999
21 1 -0.012056932208286101312945600757573287891079290341112465535373356960625796104096431227439678701661846622222643233148633508027760875607156347102019204149118752194192085358472231592562708021101406393887393048482696232258750828244050082714482346703106202218879064540904876243660932702395600720911
21 2 0.011686755573030502031179099066915173165416702946410901442492287213635154207439287172355116715494161492437954395579219608400907666588341725649477147263298216272324045570786516700946387998343774262656823773302686954863926357477208481507651295586793643053323255693455898881406588356294447397237
21 3 -0.0068548309402110263933127075974205074524172762738238425209419196844396517934311777837502133206291066512261730425996676013323570814633142081387197699418415015956815588023412828632387116779740872994287438615776427621002216279953795369111146150701014936363314210658697920452754387700994514221269
21 4 -0.0044714599117968301051359090770271032474118427303212279322216826712218325155698748835024736484737928202704901432433356025923630853483292564938725179506763712579549781224547000720117082500950954252111019835869828109933271740805799476458241500844451451366148311350787680454330462583560404984759
21 5 -0.00067237582298719970104212229129142693951952410612604964334054353600598251748816900553936405749371916430172444818270604042460079846085521402094896456292590522247107419498199754541302673010479132752592821302112165305881745956490215481185508231245211196857059259639030788863887505244515406200502
21 6 0.015141441768538077551930871622748590283053989012290866064641930029152561842090490749171638876846988374074438556703518844708875819534914252643539223277177972227397277395202836804533058731607881829302058283055722046273696544752294367731807798532770131289464356132624092320615658847767146824672
21 7 -0.018456588097252987777125691331308623776026473463541583081268028275954428031853105525559669326997934605250806710716573129273973915395720959671193311625853157679425460808109874233635970803424211838581126620206223845648221408309183232878771663646484222450104968648681214615081426488397644834989
21 8 -0.0056967619893301209871435771957250205899916865390273035339099562154973357978712248361501399169774381457543796211396821993179539767205526702594194993540582830094002143621240286594077434736550932803169478431123629393948381476253422812568134682253727870657666749758728708082507316726815359394767
21 9 0.027064707809585175294981284163172737695418523614910951308964837103760060016727362184985639569576809044830606163118049186381018891193621549103045729776758057821408976294684416662929777903855048623136434517182760207740997808962049432966695376587254536524510224346649237581369890800693341520435
21 10 0.029211229808612393482111502244237100705439717047865206706602249469241236652275688534955989573994304934405147083895349003484957286056464033972580354474036161610097697442896117822643074397633801820442285796250994996303729776777427460418116373577334504150214895693168695576734674210047599518213
22 1 0.0083456577427651108566606749533770220465124249791594479830989725082205917258970270605171586919825070085265184501659569324889941968259876069222288886681478116959347031699583022416737947747815326822236797333192716279764806733286514703397656693531976896895877921542398102076672527169971494563795
22 2 0.018880935763299345746584373401132250719878388054316466674596109728384630194773635780926666024551665624891094524149092736543655221820516248602899628323524212734613147080040267817477072534418617001533405395278826646651331502515198270291911523911388430911575966567296418222434683279981860512956
22 3 0.047390836962617715773644990572081034935440960320239537252940845362871431944904090704277257555328418523648512191092167387607312408353419292808514415935561293624931458960273397991885329530920443200111353051129772348132966929442931554228112012657753072965154697557175310470614832272707531595232
22 4 0.0074646883694830076053920166486083165671180710686885073708150366351409599662100263131756536596031371219224040472547135426259439291854677961864332386322637033486466359967962626422516331922766194419421138809540291523084045981061451086377615481707826743871374803946701796598797447700623120405887
22 5 0.013350865052841406605957700617947084234186910469207476069525750808795588258119411382931611280421940884200748919917634983202118943770485109569645234415485365884314711700323623656629786337430962969729508701272482044459903051392304848309721609620826651850154638140541565481191638938779203864701
22 6 -0.0289452604945388241636702534596515037235412636844083215536745029897556909356259522389801325603121332009533500660768384978094633040358886886451136956118504384625248154410802479247017718688473781612274129483757966154123578234849857803406279963904536185088626535437716516475018590079271877275
22 7 0.042085604957368719328695001274960974711662260544029626992147803814669756476974677251301268073679791423118759411834063965684120485141466620278240839506268869739438302585267619826178497406928817914279928034685664376851983636655698955027825418858746970065503203286104193018260286462873796854259
22 8 0.020905501901468467183104464977473488903032132606812885701035144018136352928886568408433824946438020426070191216785535472778354068024473633648505032656822198071443521416854190308346376091024042679975707973413421959066662068662652179552224355943418649217592699206162609599157846447942625701617
22 9 -0.13334301576752244690058211755913454459417338528732056602160317966110821144682740875258559348500066275424242621050900519516423120565408134303326563805789202985601946456962870826282835069629641064798201547807989364241629613431430069606169310041586078048270062476831613290661390705956429306306
22 10 -0.11193128433658132230434974528610075011408009865502487453180008042724247882515482199980485837342340306786758285428663221261630489467149851957127211790920509074384197932159836237192923078148935427933360638509961547429889330187069789545652763981779064017498560839718291529172382889403491690445
23 1 -0.004922396564457553572325525376317157296872082091734550456770365752377417061554244018149871360276195237216034309847864401605775281024443974483131299417171700908293047133199526078933127035675333761433388786248592716949153773374954555255180994918462091836541178722676383691169275389445187433432
23 2 -0.0089565042178284942907322319322082337077663683170280649703393415749563473657898824149251388474375100314238644670313761925008790246131664213144021940349981383782908336357418445989319344223812690631917536520528995129497709912906265685282757570419420731557252980311007259544688500041218109767832
23 3 -0.030661191422171811104272410703706760757772845310706857789478301835099576811482115902888282943679536761964467676763351393942934544437746783359903711714963956937452044404962824923381701014150732962589406664196910427545583411385042539910144129768780202828959982673886757968931312857909429970798
23 4 -0.010038292103374803372603992300304530237036283446416126433386360287249524405859610561300197276439427312436048277833962735282838044199671191764946384769840600574777221468655187627872763771148681417134402597689370983999154051561702329059127876497453393651519823372265449370776643984609333449888
23 5 -0.0071707719957412863645831712980159975218625197071708685702774420849007559067469162544651747355614814177667028382488766499525519264847178724324409235145267900464863690715927646020236756426226899118295615283395073894671280280649614126561519479334783384194358164691232580926267151460831858711252
23 6 0.025593283602144306519430166211450607428479399290680972845551080561152598214881258089881256809439942133427068697486589837087852977915075869841384065955204415870538733116588970853515449406530967081172277187808395806587557886470662732986822279134632489923461815334161550125283103250349294496738
23 7 -0.034605126137704062132536459711985353285263733998683947400538621357969831476488592208929817892746295095192637202539933872226656339394967200805896631077367923559959385751125431052720810089904619217662597197387906437612926593226536924138641606087492101254661967364374568384600672431335192949015
23 8 -0.018183350939400003361913486068354085145522207255500753738290709650501435488742909322527209329692733581592926965692812578095332966462062799588793422375803660821146600341142780644465384500116259670481660341952556240481759273509196741327030533492481081163653179151371828401651328442678815634448
23 9 0.096645219499380157892914281525159532077107365855027476971561009886957533220796713592451833442212083199043759400850265049325128046258613156336726602827028645912186663231084552372183101368804447022892226291730611555408016991097919389836960654775937840156205729501372354829092534593982633666189
23 10 0.087973834978973058254390198074017918301935891265694009323983090930182549750750889183488583026883962459176850190331135754307622465776383187406159039604111433403835349781964610279091190839896001868175578691648787485237888367347969771296926775968624130384533279246629400914362942990879991758238
24 1 0.0065382340053070658053040094098366053909955987164617088876758983253905742397341439631610925847437581357466720176555280294129400322136591729025812585543171948600308177571994401994877655742888673760379668900540530164023068419108002344084348035860758852330593974610133666764721574575765695299811
24 2 0.014284049508291782175774787321490217844202310786502781686140676545366625003667764871875865096741698000095207888846742104130553244047583166102337482151198815189356871713030925978064603205409633835806483347935832661954763331245396992461168709527334097115366623608103247745052230382809475862582
24 3 0.014748015084946869459242433225905103758506049554297186130772137292918200006794392254785815952414470713257981759656678662745759378650574948787099369801757881947238902078359010550526473836488055604909020446013074644354416315246114876438962580270551885339642575133550103630226990069324623298089
24 4 -0.014214382654318501413360757105016055085019160914586430172456432231228333996668392592320492188659079065466725013899135451890004571864304076322821511196115513721537479486999820616722683590370693329416046225920308378996452558593530344603446934235670287823439289764767161823657406579527595489997
24 5 0.0096848127675020879853048822376848375241085756428678082037854131721627745782373368531384601169411871316059483138843568714151011586323272395825289919245759423902523377618728578927277913440625277978428453725641791044368769187236323796542116907804892632621907640466403769826769092315017152892305
24 6 0.0047032502483921385382255229727288293133769334243738799912242093978408569039633782236655807598833195797538586858379395736793387546453639332153232800840573525019571346850498807777440469305338398835775594939447004074031122715279468113286896220290162077159736998542016751524695663486056703496422
24 7 -0.0022887579836901969258379257876259154650378872041056728029216925737818890663201687911459280502967556178844519775962111644111380143873731371831768480875066313363382243168928312842870999708985370355537180951850459197965894705895092053158716440114268213508889473191778680825905413342612360376904
24 8 -0.005608475849930443476271552154422115743553419906430771480390658774719366551516239530554291583429849577865449229110890364078050347039859770546518383454106481767840369556635194838871825374087624401308460332034781444853911719728071895588261481041377616018552961008921958249211177511081170209322
24 9 -0.0094288535399599985700246042153319653293045229551921716321029563368125837762693228930777900147729098734068211263337719409293010176988444520922966546851436997414872210379346466576321817159756770106814506294115382522202967370406849247773741889697275751212478064920663081597529905520093111470855
24 10 0.0075653921102916345688311347489795572574316735937319004028195078555076314461892224449774724699995976767219704263801729123782058388874094817669627839512522365352198489973211026424267331912739363557241661074055521133080961524270841150074707771033867610626488220405528835047778738653713665333197
25 1 0.012239357466249684783883133993816558105747080709807324307645633930202815404222691239664034823317541911671059784749991502252896346623306760594828114018482303913780931284066452438319137118691294459392690637442478749591280962407138441439228017647379374712171592252523971905615991470231330993717
25 2 0.024229608501413192985568653243243734422280747731629017298386378305147070242833128651183019298976474627304565176226825864542087363448819870026518881302227845223398727570780247887430713747003022117807029677450192675022699676515261390093604522755463902940160256644438906316067097623497122578384
25 3 0.036828103347082476719188538425643552278595425974392226779342694484394968295679409838784700958352727105423497814833548765297401419507038867379906539918240394067778868712407924482306240608719228491535274748703616025379845312307305798651671013145808220865556450951130547847733920498631524233249
25 4 -0.013633689194355857921344398829115971515314907926331127911517160361632303425489639981997446963987106957768245498201699388586579537294069491877160136858816372802655594429469267478749932364785071499524833356963736816179833807653933629230341256651570481068295642569369589510604589263357476335814
25 5 0.019902364178656812490227443779062565030406353789304312231663448603187851039331576642580151968718352458134070079912434439425952386003743344173808697792042650324984703033276927554468357453639513700959700279115201894961130004058186461166703235148275214893792103649460798225671722419526327535637
25 6 -0.0065995577839919334712630144669211031757637906443755748317277991644943824736632796991432689962891083351917714625197388737228035153590719719332504789894545956860170924754692190006430166731675643595659844796157849085463338844661491089313883770724492564522345025473008028272954152779668444135941
25 7 0.018574453928062820160820579365003668464549120980799515641771636841879709975303240127341091364861665492313607210848781253897978909114276267725609835386915723580821852949698338746232154138396515551492336883312558148080453521002152685432913602126560405714398558319771075291178913729326409328025
25 8 0.003631506891404219505808800479960998252911061191361910882020772813728824035495443214106973921345921887465607285123479717687478862729075350579615790553118084221126706826728983234411000709310341738519582383917070159364173166531589486197071793120060940818599451241497041303125959767072785326982
25 9 -0.06730175374638671616706900104308672711683315054257449290736708656745179832084547794189419051088537965967167405235239057599165118777153687835851026691908198450322012056969403547286244294464676851586859378149734324969505738121143095937813548619402949740929678353937849868334395117605424897626
25 10 -0.039488208629253727954099351047310023888012063880943003688929003267493690423063178052635316263272543406513007362408816592477844697526441057027847416649788860150177010197831104953436617815193548950263914803554956301194011411081661182525769650719237782988946984454718029915490471089309722027721
26 1 -0.00094654740748291169676051905791990279751835827331585185467333467483584713691131718083199973040526643901875988064334543081592694684158934738165899609938839333354242182037751632855781767739992230529130501774377723792725462379591606265493602150345163195668599866530430152498327550327198897153481
26 2 0.0034677253417987224794613592674381728595064954016501110544814541138063143883389311473100910323638188441560697616625717769672872566885960898060335020564866590103314232433260696349721703307735898335752684037096454348030548550901036561414328508221626359271623366228137851740802824973980806352219
26 3 0.027163580256645210715469187404540665652395043630262705378438682870348356961091551407086197608396971438217775275405846108799932785447133619248389762419583012522506115788172597340381854156991645423791535743352555519677709502018325281057760896145625395092736510943639323413024302307336221477537
26 4 0.017761098173171306762495803755970844803996114551109837327844557088405576243566899312353025891194626139089004681748115128353158222908771661886733291395835741408033507343462879741550373235214130123159841254427863984034363348041277634152295398878696672752287486053614352021943173851462907151257
26 5 0.0014396422118477833552340718285523295970349752310439698543282930998387234840002610155338723299211387871890370521125749498588286230745661092098264576285330053565690383972836358121539215544664225619324410308275517452776371152971588484113956596844593905706728110531752801302785617180390666653672
26 6 -0.020783095845407949331688899602743683095563871421689599773012290392387095356905813811768554985732507709973121835667337623094086170471067649788084050577790697023551090520773116965913580842805612039133724654525010357954561864101560124535144547760453219505861782215188768813717560600755342280709
26 7 0.029089131798093093305219185150216539433376673070018201144129730183567860312282916749576393641744071446681444406296165529247600629877663701415627044964521397652257199265446725650933746682705845884970746872121484341100670588519072392075261971252698639948757656860312700597177750524327101283271
26 8 0.019237806395704660001163204786636978735556803440285513466484948448685292352784005251817647296346327577286905069594063514019902479332390450184193244993737442098003743473819071809925579609086139044276516249287499581145258018517864380494439772131878653391724069806311849214681628432712403915302
26 9 -0.098013214685602939654403682392697334122620102161818153963274757437086833740505805652389524473807289581564138978125492761615974488175816520348859835242577080028290762688210210138901540725905412235995817308029206655132237832415533141538821387935129666201091436399705894196317453835784963499584
26 10 -0.090256712945516435385401903999015411004000017294837303370300692268400094760789766719586477364818456377312384866520574077513099524245339706768768689408442762136849918966581180629805870163294867554509192652355762829759838781293255140447982838906066459176549942764630128664201335734899270710206
27 1 0.0031928501754476383450333270286813275950298942105917733135776255174172776629399570606724040846997379273155459098970400144059987686960500926074918397672505461859126291648330619728323148899442075572911105444858351840963986945061070789220041283943612580385090522600483400695812274144568562042223
27 2 0.010762902414534822149659686235215347010890667169501798564358889130055887587872031064925676874084449161981764645646341745191236406038095680648482973253005847849074536181829392960744489131007263635098256618403304905450788483020441822177502174284449459500290699529013859687542160033313828124983
27 3 0.020689589516327125779011934152064317065721461893279773851628402433771699716321433961723066615468978427892047324653567626654321422909580893599935304076095353912375543444324716148635353017987581642473908956328882123448832421439902877381805265896982211276347321415522977525265437769247826860942
27 4 0.0013081207645817175503678638906592500217046466376699816523029710768208173355753903747547417854854760736199243360084505442917673029184856777673616281733834575827661128488218936492143715405763567112576738128752964499450407698120009429723587992688455548787365332902445350267550279417424713881232
27 5 0.0069914503849287943535465026513207152954209166692515338242980603256916315864562164253599767819715495812451965853640769450067436010159571612266546927688629302711029129112150996559250115869951373039382734785332136968819054101611152527791939826372350050098771654282689514250200981643159989319016
27 6 -0.0094078256735779784324743074023243406571238634844111918884355507562081320567595817087475654825489067108686367260760950851264402849949745587304831423303359233896894281670716462045868942060673596258003307872626226016780265054480368063649299125224539768389463052655717123735431171507781592390581
27 7 0.015543397356119068174875831054023423772335372012490980258860221843692437575838815377637634653028749509562231886199421853805235359471249403696089666236904802035538168127234001612775777522879354302206917286477513458369078135516024338708428492338512528757174011716955445548400602223190369606032
27 8 0.0076876571925588772511052004261914327185872984073652877495379983727015927611016990272918616501389635858463510432145242389779137447908330771764737353332913154981392253002551892672871316150007896006768752102088927758070859789116104843857324725850727995035437460004010099671088032731752412569963
27 9 -0.054910043143553705786844530271311645329589734359182311151797421123427941483571347862216839254458426058803941205336952485963323346294281295451654455648405796517535237993281931915479800081241743795450071486404381753952587417398344303936372055835589250090861685705954690509956166833607343667355
27 10 -0.043292509313549335131241789578800601822468135142455342729315394188374007234042039870886771319465707635634150460127884675503898312060946912722465967342350475859678374601802442089139352579766193438776982628295505842504763616591094148955864818149101892520312116755044654836552462955153287306697
28 1 -0.0016919283568617938798849014262762373747744568979880130806050068486552557408374725635414344022920076680937410819558671450647149988460003463226651706743702251429992972443084964828504919622380829179058589804600414295684850952836908374109647061591849248665543678978644767577982173741569144827471
28 2 -0.016470215856989269222337770926791914286153058271529773565239739037014529992972118814544027944092395782604431549199698115455878205788387240913747282667689207444539381111149710653309501936105623105221418048428182471047941796382853592355315567292641011223264045187982405658226206454997898851099
28 3 0.012231783726453079380369896472306395219617634738055890311138671358979523161264922177953443707485191172432722191817059606961111582552519931524045918202197695291884100556246755187960436074828100890141503011713583707074617068151556356762685725696580393748900213903054357740365102261098475726792
28 4 0.0307612520725591182741090874710664187131075714265912148297573236743792923094103123957522388101400492237364211643254286256202256231704844008880736476603968690818790655440000840132527727830785251020327292274932761719141552643803022013407758707957826682086898887865903463439768995253273174682
28 5 -0.0063765437823078828359183752713959792801648070542185182173841899331218354424582545674374908319749866103384578834522455094012463657154339800676043510050125878516646988350449119695209059824874838514533346985609229841333582555773998859786805721481411130465150162751677939698531440013859913043779
28 6 -0.025412007661875298995258661320990441985974966941755755082763865842406661726420498621942521940314752788584820302483555478661850118363646599807575109788015110461104871224897747637069238966897770722617207043404223464771614552742382298265352141731799938644699298874847109525848463717712010390481
28 7 0.033972269692492253641595649957953051576407783143542188137582663520189535091085187054599056924460057082533254256709400844661787199990879730507455318496283455211532866707650830772092519806065725570252354509970494829774130064803816076475973617709979690620633161909849013786488972102379560930924
28 8 0.023833040034453598576302560698469477774469725854299676227470681600190079132793514609722876181116911598417777444548913995436168683652187574195646106602754809831764960908660948928046431493693773067495143530288219624421874846389784073949434593297699758759309913249483717607486023843602791330722
28 9 -0.085916735669732830799548676790769086126231009462974281701219924266027377176431461309613401093508293442081944186462468853030439522229101293317434214310490436384717190677090583353469221061937350904814249409975044446711236981408280220936359683292316502134396732687398919798012276104442946153346
28 10 -0.094521261984044695584974112110333827505248293070072356762179474452134611117573951257586669681939461251419571602803553112526803475786601042630951249391058515819248648362583981104860351276205234345472473787007625927872318209649023829504674366691415897690907595895214768362529421762874858660022
29 1 -0.013874803209392468699808786648910087067054980512027099035711418819589282262005112993155590946504682085361371839483517955235336564934541319138067402991735169822821142902088800521251665605890532643384135278635513170488441348550912791667240415416972447721442343226955428411286682229997421768319
29 2 -0.046169507247417572593191791832753124117127360979658691665838396911724157691492673709807922507710784495913342137311581268061185889990973547151915432970316092787633188988942157315431810061926580609926292209637267811426587039825398610516267206192355018145401469196236041330886519280018424940012
29 3 -0.037912734082782197067638120257478822907940684819410454177881962627073618457637082332731951983116855471256935896276569766297410579747886085358884777353536460130800974179837074167527095446211368704394894905376610983505409729906756220618120658734182381846499762963367129169435316824579484510284
29 4 0.039259191025034782045351788285831122301388202797608931164256627529082847181207989570880193430915437665607818694077341451952597254002979813002608044344351979054658383702628854355036851322763029481557540060884003256774411974107969096949228857561951317900549739937524935074949435028188201192486
29 5 -0.029307596952125051477561491515136588143304936493984757197633756034954119166162306280076872848238633467660877525986253788253485762848708585377785134766386917491262433674878524778424106880146021450999702330946496426422866026024201158946918667415504862646073665168975739032519956806906713731256
29 6 -0.012444340643769199447971363512204446022218313230907350885911023554951926263249409865965568462515299694958980685967266933324912668783324405320273127932804625101325323662774836818785036486529758142327233956133775611854454723701158070541253605042860275234920442159907439659947191496232117890235
29 7 0.0043715940590601249814101900155720884217875115815857625047572952872947357014780087228319987340117124713623486905741370265654262345658083492209111115690044277168140936944389175728919900407130010190777951871802535105963393617804364983724952982627259261092529124886641576571095970924058467163926
29 8 0.013061085517932999270548219728110813147734226733891152833184140766653191256845244038045063387730495582165239969261028296671438930625883288726901719552538363946792520882588621200178801435005651575206812152513537230335433658539837911408493536852371034986215540369562538140313849293391796034668
29 9 0.024105064431974131446279523782101651771993937625112598213957013758854293634025581360985153077378274183594381573908815130257718481044111485185221195332693540411228564995802506880815527095932039738746402724344834513501847771587712304214063300270972367218895085623526607253777268586058459080823
29 10 -0.019278254798408313296671031181719891876901887344923622990336296693001594883636857340156952826743690883832060022711465508633581855887280059686901159945897416148849114758018631595667993728669835369302620095826419272651919623129389529113704055837613227334605420618554220496325157927424536338575
30 1 -0.018456738872799254487388943503360116158228483508491194347827179491232632357311425246553819030043488274061954928794761946048431754510582866668115533646062428633249192250908783346233545789167064997401131360912081931285690132833486993027224934724795053161718428981811597633962306891825887077437
30 2 -0.025684370632962565331401143827033567602661248510731634208371808020353878160198262680477963163728457611662386826854441954709165782019385309888169771827037778708277799235005433835222252013988623353357031945713006944205355773920911220696956530109460611074211070026316037572927014649713118379186
30 3 -0.028808427813174618273161660722145982738151901070528984170903748998344138404183765551795179392110270499593882323948841761903910416824130410478160961179240302433371070049302208983959149053250996744064317242680631446711836935730148976587763275597397107092963505822927941246802914231769417421258
30 4 0.029135037473981805024441678209719237743761645272794194290469889188452031571529070803277980473572292428727444349291842516482022536136975248558374192767179426350507120816704018988265036648629197580797518232299939914732938836106691970125818072732099520205472620752153972357234425870664746662727
30 5 -0.022077747084461610197346883164443385125049898607371611397575323333000942870649545354001587616424488385626642580723045158062732005958289575501185192047950776492071079580434800908692536485513608696408638180003491248233473864815849776518821856300350503756307877125033801534751795939361538697857
30 6 -0.0025882932058534263707717214093733857214759765937480777412360742506309796945536568080829295649852496869484419931832228132360094431644361383049080365678255023351929081657199935627883299728421053216428728421181795994545867802941342200306463716058393295783609939057572226199587503402460156329404
30 7 -0.0043625208373089078654320833163070178569894701776819350752734570800325058617746180311405528407449301034719881429341004373960086661350055319171832862225668915375746622837485386495285275857421958539689899773440669484840374366747405950674149210713983348510292195076225662890670067955248808104562
30 8 0.0090952754606570550791294231489357200764600908009562505971996920691899240586750340728194297520391461467427974597496792641474580317003498146198210733981764767576917885540941198069283782033925802036034225457690575435533222918936494576121438351232238001080421511216695179026928634530906567932551
30 9 0.020177715830166692884330864263188652846788804523573725066310750583762326299313401727099282564064005161951641502493523948238362549192878587836871033278767617362878573535275556496575057242271414955440460920454418669128886017394072945257731406349775909447332172231627899378962743188181822544658
30 10 -0.0094605957901361401700896074037380092368923710589744488369092833736277039197381823952801653698786869725947510069529246139362112703759895909180005357571054189210894381185552506636044568673465866214845752682188537657628292605470687860868421201851974116128076773335306157128516242128083911172563
31 1 0.020308365652906895746250994100332159101021097791357579203122340046123780641754212524600456443646066544695080131842080480056192230410140162253392860457447267946436349884190701023281355702455538565703041063220175014941874660634686282879287559467122897207191242100873099339665514460029763445896
31 2 0.0044152034001149171804114395534714381759734579608305947524235946270913620620434498897653091410905013236925683773302035879765491894101306968741531095310258235303247867473431191772372058237507177560968035289098162015468818173989210733309595945900722771500920825703620739813144788552421197961266
31 3 0.0070821851223838877476334515458625592413455979543577553771838722969973573145681494692093210270268250359324396175060805293962809115781937129287042716955952041905417806944329943156558762364981889135733112788816483974966166102379457958530281901658178726641473340995366266728975561045421149777706
31 4 -0.023885558943850535288615858345752326099925915455396954692464151814543572812998634632286250061380445967195021021063052020482312636905334378347151089094054392070047244584843210185710353011535212135299278694229967338901009987493810107012875514163403854443462740765278255156710671216063846548954
31 5 0.0098885922615109589556233774253778485000395577592337912820524214309332926765199097168675035112270173628799093868999431139072794654269986771570172567701063252954370323432814722171769348166450983769162541464663390662049687424310960849575419155859391945030505305820094598422286988820532567660885
31 6 0.0017910401957904120519687802088892599600639916014714523186547335998859712977755813143262564713358356672362040522415557140327188794613119144928001961687731955825827733985960125316142531209281995653634466464763334809988942704202558092997552229057283936010706959901294762483790576048809545081674
31 7 -0.0034157411222793318604804105876252891196887929863087847245933620463519902698180559110537537496466125084562816153211492450993327180451837553039345661555706027085849298879966144604312183478348257502689781911539737847361309608501746702206273978095709324091329288909691441328997672788333645007792
31 8 -0.013676372017433575802356442817693202773062822972534698248565263554684588781917042711035470819426103731571248086632767672397144509502293193967520645838400841814498787651192469379510453244825838258903017535137777344477554797999803043330360851903819692810563365214646147524145984533850277903861
31 9 0.022743466167038782805055764189395920055868157920755495845579560346367889416539998124082022831904584754333840841174561327894048053150138300249715595096555003369591538355718141069094935136494205488186056075825915245948652053634841146858355163793500859845824929363199914855127640491832272478477
31 10 0.035771378259121956172726111336971428704977760266218160574610924092510658952057155813805652363690605545988377314791110182617379630650329364091390261655632964635928739402690056470673481214436307237116387353300558863992539367829945924833407314631336876377781816725592880021281684342628052294073
32 1 0.011258178398161916088665180192226593314365309782345653702729807186275914818894689580916117262229318940495105219202027427969318717951963283931631814260026303922038224592364231652253209446694262736553668440857184990242977696227972271207668978672713345587177749858090541095620050994895784590612
32 2 0.015585292855737092165590293572103081476192811265269516497096260425326311911614394458312807380511342553818525289525821760829648120643081114587503558369294007431264750985036156209902585767988538540969877559952929818306060800969947916735131049263245364598009319704092187046221966912876068404972
32 3 0.018380940056545399624486315069690369959832026637490695092035411729961362888861988714843960988924524877396479115526296283997336195741277790615594080210527122161447284181284937940367194655338673779009312147184226266763287319332248575779066659371917939150483276600218226912154758710825709809628
32 4 -0.017874902563349810733762253395153498329872891374369342637158999414360391097422266392762045444302696755682412732916546931698101406024719447384551938560739715976485163974493168653907069422232258591096392555691513199398024366999413805018251859771610405444502729354498398731612265824140037481196
32 5 0.012642158281680651529505460327657613526690273352315594986835947768804964848064359794523056496998379081654529633406104845335664916184339095897398913918801154533096669906482343881765817218841421278492467359857175411606572760058760355737187250638631450124689035221702330586036916271205088506179
32 6 0.0034871419649840886424129836209774788584622358480419744926188652208687003920796379706095995635878260835919203142099414715978507048544904088235937612914499817844659578460804494131618030712920572858960601088002835981506264229720936704887335713050168085788496417674168104981427525986923865429575
32 7 -0.00027533123613361877548865071290466726863855580686892098295318041769391401072083074250108153736542812372815563519444321339566962155838253025386850568683517738614804364211235613415432222545635446209609953535195263543962184532536947106432036195914733527533419398991732552028348258990663471612945
32 8 -0.0070033259214440883841589581926187331888668041823933648193483738997506210066726781986998632099091828753977676641482896558389791281479393988388314024757997390484345510566542594067826168164200734152633328679343770831058727060769819454481212195476114027270783338530916032721739006101486751089868
32 9 -0.012605048560254076966787675680975445860496982695977066312609745944835731895269988565239998635726934649562254584544983099851922128844173273094591989944816895391797821444074381827189042962322458028021807093770586704126909614159711280028378383654846642569803407670370549197286711583694472514344
32 10 0.0081321537982261443344891632540962696155461249272985756905941841662975283688840531796873715677331847132230851454643715951551682612622120580878064431769288316008435230807644816858040166376691096846102772786769454214086179477854088253869032653844029770512402494096319461123177360956664341146405
33 1 0.019667171884925881163857155194502932827147784609210609420303623712526239677922538491232700115549263925462108724674221998844073284675144868037987111139851998708224421153808080847441341365050524892443601906273486950338596028656251548561970756436777812023123603914459458699129835780238950926055
33 2 0.0093198045565215592500168631049516945595222892198609685502748689691410843611015854861216280342065669405392229765928293730061999789554483949714478246336720094218249420571935626554667193183857186529094259331224686465553807070312872472227201347075278190724217289896826169062907937760943054361137
33 3 0.041462769339451397197960634064795379001527388502148938997423721189403705556388995193280990787867971448325682321259989897751989571825178961649928452952698489152964266224326128197314647966710506558753596036001101625642105763900424809663165094939540717696213831821890805352711879668837118600831
33 4 -0.0041156331746742760517890932006184336492803011712717335557985687438477526114265221155309385939422806549513398675545032173780124309059701341030129298545241841986614858543856508379180024546420224110939938514707882168729491419674617950391714649626063315124250000788851349602179398553314513207307
33 5 0.015894532344723186738813293219396888350640364049421823671889037128022605658739957196490744966363698940020876671558454910908279225113973021822386307824948271992453256502755001264954785635192439215151935030602466987671841765027326324501158359538679151166583877944511800801925501123390685636404
33 6 -0.014895249060814641147708943628278726970911999876489207004093304046998295591286003574695490837652948890392296318428968259129057742325336529474894930502690291715705767062993025682518561068596996930188410122797869929413135782942765072304293309540086164971415138952605429461414290945304386909955
33 7 0.028662519561244391617303125769006315618590413799477844930925451665101266325722137843010981177281590961957226515206361191973376780815633987175582466395894116042296368367576692575898924807024122177126905280284893692359418722665422985375156513080610155313790062292728170297968164302165845821635
33 8 0.0080315159242969245413815349684831082691974796878698151785744654852931382861112789111189706891490739953179339648876934553547484396042690768886946411363544337279746676114951424667915551966241483214544351463139506821827065852784427415999098545555221739609835778317932851990003918558399750170588
33 9 -0.093838477894319300165646201571910656256870424137815583597237976184197946024372301702482505850551143243661099244637877442204722828862288487723661394851053197207318295050117600695021719632976308044903995214603933844696654159973710266410406873150971863704648594067253623340797000023568184114274
33 10 -0.065522856426786654402421562378089170157195755094891645985059116622281158118652755506035385150361829928360849739392532060325293551676858088698326721085807171607418503624089472131064686942363040464913718020414444831539984107031487993918882878343898388481985964873394293458602936432337785366838
34 1 0.007236950461111640275327125191203853372587130873545081105713626483848663433720552738429185681997628313006094544556615656356827471945953726033654262049313364213108221208975484988623006348239373935291028139914557822806887818115368667273434604098597226823582383269048568985359322587748407848352
34 2 0.0058106160342754671338551352943759592225221364286738302193357667386114311688229218612518871641030279058460290426510424357614244978952991700020347081133608643106420049910673358848032208817177340689381910703348086371319502799746803416557742025696523634349883441803085157331701344628333539396114
34 3 0.012408598495608560945096108121019163026166957993189651482118472878837757712200116217430298428017102633811288331262088130197922604550743941807895211187523257726586962872324080548860471372167595745405252011131056273994126697778948987663653099710840289054705985740587403637594569034019923401425
34 4 -0.0046276773440677584485509255966385869200044621514612889927836089960632319122739892837978560809113324606958533104765725761363921259509202866932775521455232310398014878412717031570507873811017738904087840281337423000673894305513087089859595649791297499215769798234881359014483829017939356767521
34 5 0.0046529301903708296133465849561367955890571772111838036555508727409291018788091106714103644879451225633140821808530982156351471590763262677876688665607784067653860729083939507114048147434689583094104930831074483427348252097687036488558459485485744351112109743583850521024240423298657518736774
34 6 -0.0062450288469370208659595526453649324749646269664810375122255777938559304247444006809366697325618643228791739636356443172048995492237056926974640742510382329575463269058086993246439279894516205657016970561099725550875970043657307745425771312409940304874289175473572277070249241078461872715144
34 7 0.007828016179802667938185564529587419254451480122878966815508314831091819447661510767976442814713193917450940661100315381945032630205418996284289903239865402336427283330543299892346649828835759472524248723299758483068228031053153024181665183379561236060452234207662947643984483884877299844781
34 8 0.0008446617877839373972919965747876636099408507574273086541804388340634605307031987379019534015295899986042827298873774306613490180316428268322641465216152501246977280507172212036491614385755713210554866782055971234744569622056886719511274905791422697107371270134722070797265795321107646144903
34 9 -0.024924154591450902059751272999928747851684105192098339237178574327859020162584455708866824896133314340408397212594025447589885510629420687482143741202023808889573863601992075416939682862427880596951650667429321886545985733697290664925874471640416144270245477243491983096024064686349469166129
34 10 -0.0162417894359205139730025182273034013020702412755165610416682143391749997037320561742961542873095487747334662765642698755867068715672013077414522888585696756618783029875065124659524413627016920572431236002289816753420987205274359413821153181625398518125914236515636082320802130460095932887
35 1 0.013300956851664896979877989967535023374800918180366280655840489181405402089881939328524905241814767124440119799360793872793526040288989169453800033695805625149173936273499677701460780239634038135609589950318260350374558984627333439887301356652456241313315476455139613764249671017082516411672
35 2 0.0022219357698413892437847736058575509371469055452739085267941501073008443961011951566339522543053608649222564664420210677126451146027149208358974757811040830064930921174096538655076279067797709858198075628643535752579974471946914593538911593692313961234010665474458416134134500130076293585441
35 3 0.026499655059449712657625226418727598062713392535883602403164090110079929025317188016852635676060006320228789979023116313234851119571147946999705257396708353077364913885774430330624378841046595704246603514641567298263220862447241643011467531732041405163818249594261410387509188939315588439365
35 4 0.00010954583603212744523561813087135370832312054250386618856043111819698439275637914437131261916725096857776705307789748402110703719675030212223356939882746270554222097706978329504654527337101589679211463633724984266794821708721089016408426965303415333092425308288947809619906480206988242244124
35 5 0.0085731157134071594250814519869289983641394911167375195637055090633361992608443078223259226841057814002831596996117053031505020447743765622237154863735267975101759899474881401292412561344407198659334402703551312582602110886748135770578583142589212374727204034021033817351741813964302918868216
35 6 -0.012470986644629631280646762205324603980250525912765674724478063269876393802934288070465789373361495376879488021071924205511923051464193617735166700171167925042654929256367686600923578959400013622724568897506465499335507537360620352974448994354831220868595730798776846542168328829915034693971
35 7 0.020774352122998975137828965271545813783924396097242001723077308943139241862696091927506019211062833964417323869312284806137646841469856441833342525062197547724154063510695795561900316700743346326451865954184438571120423893484637308771939824410644278120426287530498542035187976555104133399303
35 8 0.0064454342206644708721388653312476969826287878044287628415986624395178025316898226675454231332715838834195226499182637847576306689745840857227275225921011018920643677198775436716195591806958615218938733208597106411584144521156030562629969671589149756243277319402252824483859465609794489259575
35 9 -0.063777593083676403142672282058410727200789755612706371644795334617037991610289311006084286428186281682197707917411539476571150567124499543250743660500786020920840962623343668885385323737057752235224410463893443311479728381798216145968037483811951327460400876769124985355596659514319557800663
35 10 -0.047543936262146230862564866859639058837718445040216158479821007646222704387370374600809954568832244707307688506527101184582322884016857143925194127345123966857087449073893375827237531204044668200610268398654006240148904741027861140937304191852369634989466015606729829569674772400965555661949
36 1 0.0040021629949030189783576585584557230522908264770829742486499615094726558787807729890945311481671295776844125499834449671330158319658286242445217033433568019171875358637648720214654799504294790825978132881551178167494013447746530555531636905709711820268942343547160019812270762679597898036459
36 2 0.037771095266655593948099924779486737134103065029764727218373029444847654570413423727814272272190446642599677416205173961716690411674644691437538399171229772709595613723474415802697314125625365171783085510296957326618646467574788188798623831594739714900370520751969920200156094325698253881156
36 3 0.02416670074752174907518911433338946033714275032075716679695566108992624431648759592874319278943875464586088716775450813441980095102000078678136502956492330050262924856874200525712172513508304318055720287820540276029273810845164823860234666179368746021645113909943963153029376483754949760715
36 4 -0.030348974335673497333301652741046097547417070719279987399146407567897342854052358712212363794421450269535021037054024679161328770656927472969039528355876176662178148367760308840144047838423305821351976771469900947790341196771575135850242612619688205485075403422754621452888569838762287877227
36 5 0.021896277138227180206892537757869574883296522930198156636213343959577643507199695658286251783306427444482650186892468255454591522811532613733302083362275941504608947960858063727993068173893233567711200880782681334402190207904064900660623909728808691022576150233563043550876731446414930990135
36 6 0.020399921569118461030706448307414736536018652902940955355118942573593312913810635655502448828327895057482420518356889036590144267923501327049115923461675621995989392946860309767794355657281062265622069079844509474891072532579240969183669983326995188914058625245543487180057888867332711431501
36 7 -0.014330877740450649464914878061696591699648021051104286024775501021509338857152978731383656173123016777257090824839935792708341217039165840664327850930059933994331040105634173270114914696633161027357492346425044907262430713239438159048831081260633298777725736737064628434144768791336554669653
36 8 -0.013146994949101839973378529365566376680427975782724144190716073934387811220168215698988340798579277799032060065064092074830775809097119953161850041673766520072220457951636337225764896302199557757557084396553878261249153940176210449349384133812002078479130648226152496601779144024818860345046
36 9 -0.0021478336885927198158728589144421518122559130051885516983011377734714872451288841577663670082259274182369968989037848140109466073796554869647916432202917546695156292898717890240858382079598544156302651565423999971684131320373725899505521088619641213424352381784447277278791047280499112324084
36 10 0.032464987943794197987202294180751971881981012751120328321316012332829428475190079657027374224507109537526673415957453074078852845833145945728700036160623626796428022099029049265631566611789605111812752142529013377625688513710430279499983096721485716341563935298452440904279234141953467340456
37 1 0.0031441516032050778768329506438885939460483241864641135724885950075028413938222239426510666075947454041847747859178384611189046864647186024790661713353669874284555292732077778009761611630637123531088894577869454296855120432783779424518247388614027667584634537506493505192993134749498978817835
37 2 0.0090307446715688427892395629820175255532190525037456288638840476646714263060328746646786189017285083171793408388556850967120145206912092280233690508394692666369183072975534458082735827128501418952786749456113284492164161693609979010960614647232154567128307883548668273757306897857614606060302
37 3 0.0098681207660532300487826999727361808388731306985959567596389655674748252752180677076913457572897046472958889027109749078670200352755827874640878864973560316704683772978432166572981855211952442981902990164258458584173425990278803502521019620176000997078124949928318946740014113185352892922348
37 4 -0.0058502206186523286951056866654305281690852806135670487554235365048146640646878101204527384361298493921394614379173816990559004433454218216900088867452086427699369310595515115043190432248941343979811719359939213314487337599984586351236511397167851155089745745029218433924606398194678634370595
37 5 0.0059113285796465991229283257728253787867840284005297510049179335034656068004681989807875771215285005652999889278749850964756733692186555000195535015841179690479619152663677436158802845014586494661626955233220829047662126404842929975317800368859061141815426915349731760927077385933188196184395
37 6 -0.0027175573094222614370405390102504929334673738882083489916204807565466018421515565312816581767322618004658229048703027062773794960357845535719339139207409934887405819546342840944531500164061539080663570327996821500081416958033322498068848852737840033901240922677207800069360349240484637077801
37 7 0.0043222468979694156700882500522437645773154333138859544013655771408450463112493041561757339611808735544316231415742950671724232302955326994296946953929297014622179458457271384312305421669016632938180328499306443658392215468111082503764426181150928058836393267793410513288496728501252535665363
37 8 -2.1587277158780281755928502227151939915301764562492918874627949693194078891597602195892829107284194333599356360051527038096497912961309480320972340439274419431796787932602727273607981953942351623008036783456167413105481886490730401495537641845625164536709925104158392539678783473357233827861e-05
37 9 -0.014126922132299636751452077835701054434026484037859766418478243603837191657092475001935507885099904247511901998649365295072617129026120029890120605723021749707057063620536695223832273467734752635331951718479988719988258575563535952165977634276845205091492307034616522967972412492907552685414
37 10 -0.0070754071812439922833644653412571756953201617675919587926708176573555129090733198352799586214591883640572047644750899834183186771456097165094914395386991546810642424035760812652688340443391336822437300519030659618032814305371571155227796876227411990495412623242903305680076134579252157074999
38 1 -0.001513651560152561963319657860524434850037682733749511708022189857147802705837839386660976328569321596397060987160270889235974964847691332122998801185956250222602256053711996103531306217662078885890622411275109946848941308200399909853994430112349933982422113454578073919784304601079251415599
38 2 -0.0022708731466498414375509042874560347587882349945479716002371156334087840093549942521259578689868622540491237158833782179725191026768470954285820794239648638887011232341973533419965326004221423943239701210880661161329271444649079100265676624068437375619792074628403067758223250973545167350707
38 3 -0.0012892300555512606052049812190268767185575690033348505405627248316421822239218277633585686141424318484606357745237534435824972256084144133610268415497635564759557096383697582938212978833921472393711679736683681875593028826338590612323996950777765794040845053371088312582690974268967180172119
38 4 0.0019074327110202171517268753372432881650812254579168131367026781192650861070266430541840630511978582361742058546651915830071705269466876090917333380912097692905090444724027499010813232034704358900871692669990459049064726292197082269759627790580521581588376186217356369728248438072478998990147
38 5 -0.0002130436041767772628460966764770483292130478496764078614339789801209245948906585136488066960103907133637430953651564404858401010700072298441947968151058666583884634704448438497820919104667862277328484910895979911206459883302372766721106444890356661888508536050952913998812120385124224580474
38 6 0.0024823547456157768452404542119856619774506343528966435366842659983966504672165019930119485242902647008296040667121207415229669988363355814457515224274212053266119898745932415816302847743139082044309865173311604887809626054737728047538360514748326958208597989333663663127407439434139987940115
38 7 -0.0013533032537024535664892531831008342638155443524674158849062864535556145698539382844114697693328262223051467808930327046729813010131928042636400028971044256346074271622932400526874130358280039123214154602959250127458277259954584938256435246370541013018148362095605277204311744907772251791505
38 8 0.00016287218379708483924270072058583494213966529488829960619714767637579983929302828271272547753381515344077145941971202089723985910622669610215486381037502918763504322580565182198454351452116319891481969882174972280177084029906355525743652138153513855061705143312354685219378586826864553410474
38 9 0.0026670265536524890884620784218428369056786664271465492492235012668443631128097830813242383214327838206492408945465056180631064949132455112956013657984494176263941024731165293460439741810589145133351801262770211287598269069206827978458237980961323922887045029287573669342917441376525998386318
38 10 0.002194576983170490093103919484734181618527514504428413805190885787333093655657735402857385108016943597869182966957171855189488227476485494757630151110270212555564764488014142464947473012452064567638881427277878417057726314809850464567765215301646942417221536474162368341280430556468847923745
39 1 0.023112360712449048285930822426550824595644453886199535121443167245523870354302599767282091054872269421303276426663584999021610013173593441759198843085488809098827202807760424172772408509946051826553265863557558915650341538632861869197588213949185349774533264313031941865049900126552312594152
39 2 0.026147654319004023866104569849572618872054431530714613023274991678158322772666850852835772011558837793240948720681201576823198572587694475880223535649522864271554786778424504967704126813279971333968890510782714825288597276742379978088671497776946888828465625153736040552441306147914155769697
39 3 0.058436459422780067990911372664442539942467570522064926966134512021109082177959591708161965147535541287261441005586613049887659927386680679976063631340610043233227465345132970134424302694484921840411676376250123393229626994452314719849457807945216439764808110673751820043548589112326989104214
39 4 -0.0095123258096652641518895625065792774456202253110150633185750928924188215459396279245131287448856185595185704293028577426589982540132590955100863820172509910389324244598836681572854664551740980927003426392894605156197335862698980415460403672648936460238097886253056808681325630035659819966377
39 5 0.021265051798734685361915187817934691912766239651529492548903426291772546516229864085882402445837290938482172191391635298021115212901600467051498850199523968599433133083634291500496634689286141281628761243018507847037844651044516262042665131162525148410269422011666829841802498210901053369313
39 6 -0.026225981330774870353787802756180441681217071124283752483972357701104176493957145961296650331485322095621364169263377141771305230381458330709019531673608287906386339013924191553458567868021584202216924063272908749761312316486711712988367480633766626415485959634128377408670328682048662311332
39 7 0.03927897743853238157400704220718984577117328974575928613407588212548528067767147965764389151963924785120020680621854725320093409802354559902021286041873530053440125002223596494559509683893334463344288687165497075066575414298836275759729812763110192732052335585481137009277066655820496903297
39 8 0.011433834273046942141694674794838447743924589405769912661919328135750319852559182371790887054362759201151632899815907160026381371950775155731778549909205998426312640547157463639479356788983010997643725101022401966331741878004919127323932274971901408627786295401981029001851655395023303651557
39 9 -0.13323622713453258377095082068378573693842272145923339621478852274402101039271330556318227761303489177583483095014162258485476981688524645903160999028905309000767908313834565441889140996603698229093027217009014289983677824517584331632600470814711282918581459738793274340780883137378274899719
39 10 -0.095350594802058705170310607920944721227106566042790466596262124206958089954407073536865969733421514158597724036901612689494510242058815991604395103732888414611608407880785615104486301308193175059432211630150264091039078621391649786924993343595517686231132548370306346110174247397806777935904
40 1 0.019273486515357593564729494304281968947083643916933592600528495816301392622950909598718874701500596734446393030731566905603637826269282201253427762442785965038029215598592495903314838623297687738168742384858499119559789202475783414251594837698492591858669833021183016371243879693698805359553
40 2 0.028664219930016510391413747477600186173485839222666628335162840354919046959285632617023107664027425635952781403955156009778782898257754308442527112705641316458504416902089649149555213747315719074241586579551498680468806542708041071010536819823353882697838478333822314413814738139338690451766
40 3 0.059083498247878021675890739109510112659472827010370917810212284262033358935132169170576130274272400785979630813406947691011097585789923143308200896616890933006176617967955530948598578442789255634596517191949447966810798394972746251994013171927950906991702770351820701226677939616825861583645
40 4 -0.011136614523160456533053668649800666348402541284347269224722819086991661974087706837569257996973844727579974541253225658404700589132370556186706981240986853893633777506779316191744078677652706508584301253262899826849369029963258762990471118564450859823009194488762593758801768554736630677227
40 5 0.025693521623708770625767025023419131180108308401308210450135629711451034210943400831425457772647172065138128059141465750237735659051228926295364690242548621562918284944845559024721036503060769371136163526693732935061801122889946924898192917239065743349874203726065256044240762036397862336527
40 6 -0.01432258835460264627119456381559130613689972909578627679746497531938183319064461267533825610306202262758773580234964567755671658385469107769394827244726279801441740395004558594622923013215058116385746274772695516925565824626602909499998365208366254953790365970608738483989809908396491015112
40 7 0.032899761269321507345919137478567348630640836573062921165965629240230135892177992622039349160228573464465302276731374864412635165944238233549749973948167254599006572288823418673322018152457220170033142749453501517598644753862485616787743685331142030905207804094858055422646949489513807188213
40 8 0.0096908250731131683357433973248291878943971780850417400537581434700456679467192554980213687052534033922389095758391865453687809216529775769967606741015648313673449361799714935967776153919002553715493555283858193259559994086277570267278023041323376596275480889139920791206855401497332935875467
40 9 -0.12511563729274592753093035437239882969542774874116019641736165967156758629342704038862198424740512974882252211650333624190063824184040788899109376342870322261104671316561711905680814304611918708351469996089800264813952463511031411176791417868687664267445341616969762964853052361590833329471
40 10 -0.082095201702887715082488203786902234667249478220818241410862927120366038641615536450639813045059453302615292154141668480971237373749610179639559441766315144116700280845197341338336559032916096185762543208866911672219288695870563980613851796375027647073860129646179312609829535150145719855999
41 1 0.02228065225823720430194683051248282756651342474118332287172590168155577530304460335820263930673062312885221896576874965712207467076898220642239683151755210996079656172846483890386355105877423514163843068298310686302878857683625446869262881467586348094294283460735984797649835165201347219441
41 2 0.031806290765503114996007414082414376177820320484164475615208464990206891754573089472324415776917263973076291023880749670140453741179516047894882516255054288822271422318910847141902881312443458860518887112931080839242079918848868901764050064242459074889915494784480111386998867622317755681517
41 3 0.063246385912266940898572775274998245348328279977043497552566174311941814336662038622242811914663375058883984075065925313288821702652867771626628232425567923278148232484776906625017214318549851511921692689767085338887930676460154642258539160473846618813496228088253967253528939027872719023971
41 4 -0.012147793392886252843162759086196775096203210661624417437241044935091445604362330628687223700839212984229952794480402972340985722210185259012167991573875317776210325758129091418877431658474196332551593375477116200136099212152209912806036735457499766110323622107968081420224288347871306686245
41 5 0.027461371610294589773901051832513461862679280317599900643610883421375461886293491092485966473946366041284322966236217204552980003319653808601653935873839326382612815788862197303740108393067224814537947026711940940721600397372067787883986865509139035681125224136548563269981528419895195726253
41 6 -0.026707375359510414550065504182734175304603373311409091289179713635791558711539273734011781747946174019182483002471699873925140521325573151409771872921783216522762721559014412424086247703888500020197585635044272355311212313047697846802401620959101128850712064278517057587903859177045824818868
41 7 0.044342744663478894399037002230150982460665671865804740537987947649665719174268684956980696120844740173296369482288501169330633863529950396931861246236857091617274632522484599906443869498058558641393327550228269799966469095557558760325847404021800090709409709159307881916021491969703653807627
41 8 0.013688927691046676331181010573227685689068311742352538435475119259563606723479684943336276604619484684230115708543232887535960711775544002164672988581650037603451355335897329769457374574786509867827076251545988899464838272034889376460235453483712921056554216372299089984007330343480192779101
41 9 -0.13791672864352797198415770573858685005369910680581528629589898618746839537950670671370635684510031431388590374364906944173629216610929169425006927365924836762601597854634870445459542404177595478717306251969849700781022636433237772281110446381132721251615817970788991343589305814417074867332
41 10 -0.099105882235769446587534387049578373265020247762963109323651973950238394804600480907930387843168017812345954324424231103334093286183544709703746560523012685660077734383578738378806802936352953407322598531038387331915940592301799569567703960848941610561096125338617007839690274970980615774196
42 1 -0.0051242022916711370874241796263208587239643679154513855668041179716046002107950359485890861318756552126904544905795600733982325009442093716851516962339990936234088874988794623747371441774418502829393291968615221378310096108349391152081917143747463032684924116197328220352009701197954020804779
42 2 0.013706427053549716901392360274678839056827756430234492443477067733811250249089984595001463909467861988493296492203247890696496375427849810204123481290323305067248589113138051911311017846470953071193589558710556833312604723186411134186827351284610585931220501542049632134879971286597574621893
42 3 0.0088011407461394015218596140425075373018947552030323351187277311233332235657222422065024247797105218605685265111374793805832084099260596423420356572845828973711196124901277134246118577409997295716344198362180995481351921063729198606304006797697699602111006532146976141459323490599255702119876
42 4 -0.003076933345697878672377576792032453169732180727868125964154910439254850818007274743291502482985662564318156118918074212859290719074577651620343631897905865417832658380471191872072144868214186880392961511635528547981541819927485971913419697808309215562990733778642368847536476283548984416964
42 5 0.0057253117763450949610811656056444700874607592679468758439055040162295635760380879661522400670339014080985949381094189196121061267488383453073665220585841391741828786491071843963938562115108043341781155452586697537527569749817484775491189045414037828175090472980062311846430616016387927918078
42 6 0.0040087251235142545067666835621629036420231395582043038288492992211025422491797512518760179902719063125351708918795336068911532288397981883968247956211599000588192888519164074603267342505019447663164080036645539247897265611478637439876206287985416258350364874508237701733634063036527693889747
42 7 -0.00062088657253636724833830406225289046571588018694144290290636418753787933537674498608321254438035956076563805537069111752039632597236288098358745539032320164780548184042340459016752875698002654530861867950215988057647942771786527306118808351724934881755062993694262830897713895446956908437991
42 8 0.0013495740029114775100713043165639178567012424880812309845357138048316886804564190332092116739913069904605151680394773028167588741935386497778920252081533266182419500383108435167951798486773251941000175853780241309551507850264502805816906355281840867402494969632992844516399401127806118211881
42 9 -0.014357115773330850351015088027889363026243390374365970270844583719334090234029824967800822268491608315579878202888413237226098435331027325938485864164745958992335346682316806429364551880170075612526139770765316128461447189571981226520438812231664650708988949648491123714800574451141607353082
42 10 -0.0064722223826878851857153969497432105613394794415604148634873034997307016718477393968223775888885152507043276822825855981632496297810324663637117358123750052845191037042349768441636397768214222574796786420679129931463765830780868326144067711603740642935364940646840489299137651637602557830393
43 1 -0.0061940087087346697210869293504395999868080213132235164102214974586893301646003446177809755992873315230769000180399340312490649414872510894235640732364598483940737777504973539098578874851626003829145290516640477765229264360778208220341773776327944352685972468379701720745848593303754157792586
43 2 -0.0042172850988812633055535359064603483018138387225762002303717138513232641330406604939237279545720962586452155973614900759639012163421767514443611423531680706417847939353174923083651780320377620311838136802339832836298235240660991714854801615890359048405819940000980129352573598888230436354656
43 3 -0.0096869961322157011531103437314134984787040975808430430453271274712206828755463290889213913083672692063303287724141010188907321055490076150492111779002620008540860710354820270095869353543797926200113566056987298066432076103629849250542238093484434418474066521168874199791400780500940389645752
43 4 0.00098681165934862541793448704919722301297959796422165843742912853375242091131879425909514750640535562594079493597961333528932796239973794657941370651378662976734544176274682002549265275818069380192510800331209052524672963500849721023580544444927320884674275430131362280601198117047975484960393
43 5 -0.0029945471250280802612191233909613177569044104591007698558956651745631864825927285596051205885544647076364379315488898073206827707554426751664724656777817975474522171616510726149907761692839259972051364363893605972323684739374474989785329163357179847469388382235474920029833916133174838746278
43 6 0.014121779148429045373966656962160475294092587508653257065688707301046966098394685562891944724892105694487370318343646165525078372095623178432445850708221810674409623132389732834675726866224092502123513023041026441015411478471545900514610583040115167577669011843756764213215251684078593930626
43 7 -0.014832850328096431967215268782665492876739858871356044510348533311957163161016718680942741214136996803191144385139619783034045899256472996138459056993921179392405634877613071278003464055583827974907414545106073501822852851565434312325875365662407321818233758621235581551937613821966082351232
43 8 -0.0050250607051690253058725559570352492895581513969487680735414985628823344800089028022946335561817590721587012441275256730017010578499909748470731369692537253831806769087369774245572504470722508417790924158808592072467964316963044004159560330570480382528977351740657695810247943155648987988285
43 9 0.028675186552482316518310372934359668378761863195449894018070619098881340211580876645817639165559718674721545098295425953840843208245676036308493661858203500136397733587970051800303986377747075341690146586814690382635013927021520304942082157642834646611014539060447865809830694894403416619195
43 10 0.027984261914613495750389494016718958446498004993067762648532885182664952893230758215527140595321981686582954515508590134527741569518549970933336124873221981167123841261062494809936699064572775183816546382340629518627175940696281498191857606053563918377569246923724841635392780741319883144833
44 1 -0.0012289386299646019873526462195037473892888533031675092355859064439383519156058480174245776531670240069462100784273697351750655471109963917499730018326761733542728350303430298846835220208741240067001155617386795721599706110985939960070831486908360648493027226673317513729397525980022774482828
44 2 -0.0083778434205701946494686585067619586594631358511384250704757339054081405479562459800494138175490749214009765449935777905433533290840548374599451862320766104251488639387463399055125675891608175559070454742115863966674007216784551341889839387171969703194987220822285811060352053546053941697337
44 3 0.01644546248660251055734306835645028631509121555972625925351260657738979674458675512676156617247821708650446586710024208746611898812473242388564597660119191348033039098492316879760279193717580661993134847614095277575421924671680610538115218136689658612291876297833668912573459359620319033717
44 4 0.025097357165858268831917441027863885537452756015431233317545118467804840080023736564072580833848080531545321147455917325733222146183279840776305139674402273016125286900988184535685064692080413099065968013216933958387291158393533976622774707031718578137817335774839972441253052231438176581344
44 5 -0.0024828525814795869630149040879251761773969856468399290545732919212564924426228379704878931974161470480786739486690242257583913284500505893777494768048245979728651998275647614771523017172961128074729986046709026507705134515453635847585697087776703404382263028387347661041774339782440935106921
44 6 -0.023883857959289838253238421809082286075081082843596789958020848158066370149167142346647002605667206538454794217026687577689056292079006554710219078666045515428789877821248514472850610945174893932687172115978262817620180221414445025115454984811306789841412654028135092135996726417011899888708
44 7 0.03256830250369712971794976648207484985740324669713708126888356977401092303587153652668210200829274203621809518683429334812999515337826643302653888791207649196511628478289151468470365755304074539247506623572644493673339140528409946946126405833569974024150186273464078570418307821742360089384
44 8 0.021996556598965522579454118262666106937189090941149476951681760592618055385313487132710687215715054397167573622555671234708290375710811119530126030777194369907835375911833289040449412324094248242103185139843548728221079121474136586124730562950544596982380284852426589540341764332198272942113
44 9 -0.086482142556013523532357921786470984928991080634271307280002818239549098827176547120704505902686726208355923162093834524020090942449872220686921949389313099585110373233890960847641427142217988425366024903215120483241660607201046991894167895019954822837118172887805365236083368585735831274909
44 10 -0.09023858071072848353690141123807769603142921960028355392464989974422560924838598104869972693013318428285482873712606513246383376004299145205364517930867320359854358012877793836639652923852188782620865475869331566823454856701468843339366051154716083910097308286518912823319138521237404107437
45 1 -0.019460136315243813297126407928642248669602991164519827742430174494686429897907920922932170839488438021261700703907526500184157631624585942844836686037302057907805820629471570532679985556537717863800248538433153492435376737038324938581051103377210879608959239498300263629008967279197841581717
45 2 -0.0075923184753519546618212925555966661622499340193662922629097290757618480892396249586781292129753368125738940044219321781387113411697174351365790575364833405731364784858183448256777268151425855689606942843270637311870500095187610482472854320578223279201330699861580471917442998761067770412609
45 3 -0.039839530924835376545391509828704973653746711853185075410044857342356464123340735129516420781657501347046857668652157088042531564357258785217999885373845367097380605449974442636920686589947579427206756662027149509024777840679213776421110302820545119943368107176915834945731341098871624129451
45 4 0.0019563943788575733337474835182622327772609097872488969985597662186195280438475344162232857793936109151909559562153095960480803761267175920250826970288631888439942530653824475977426243808617991612897186861573638734892966006188536824112980220829925726947152912988893831784621489770030044910478
45 5 -0.015230186716663933660188334668623876704025624471646706794138045374217653569514263460287564616354993799705553066934254367991831243561908547114205043328667914310455200876311712269228930344654299459028833926388117151680484251570687568267260737168446985554021273091077277902179747857028025873565
45 6 0.021003085095997605358707522794430165929236352800691039060185692819015057390816047899490650592570016569433716156212639498412994552809220472170087328819432653871666840598022060138722385035097330680645170617876932632897693526011683524770004921258662375486043090103644184138602936626061685646375
45 7 -0.034041968780614533315161288314943238349220859871438472553863592367255068261587440869474907170705615399340935678934160961988178840163347363405303394034442992024377404591288306101505956739053093702471974537042247976374788687680552872733685198802447909090979289432652673456959182917066713421834
45 8 -0.010718598826902251501991116171098377982890693254869856804884605592076165320012003066398153085608501005768532515597471007151341661530165234734676685704300216921264590750367087023447554980947254517680468394428204718018427967362131290300242342305402405496503620933987551346947570132574991298558
45 9 0.09476489499111386275309320931994270563179244913709906077886640281992767720241509291308530118661830587615418373434989106110426187398338599618009529900494510582844273542274541230115655544017440893859658301672065203873987967729455485289996397647304466806484105198821837138121491704262235731486
45 10 0.072333257804499264635253322324485893619228243543632093329087915748690161260100222372418841194030943537049980852169060109184625786558619568329672140632054531560595985796761577758799056989684132709030930129981815886432328515257441796729065282078914185247377235008203281473912707790347736851525
46 1 -0.011124460112426431931169599483542724252078864381188209939629700211433736127726620684125525309187877988987650586712097677819092847394634254823842887845707521498381734627369438082459791386750546990831199476644832970251058028338127922192627852000686528253983049858214251029143978607500116071385
46 2 0.019335028033270501317373682439242561477453037282500031316212496227546904417006778130008582051709690067806063463017885137830000392689908470655260744859652704749612386522151248506623321011435896706771235397335842779675532418808064326356070016605493332889595532219790706555157820936191632139355
46 3 0.0063808703218561310420560617643117950400245633464614512756999568815907773127301047691606176172997201429251675787969337848584460738298784474630305706432047556696338617661499619995352617418602841634692593829871697741587392265043402792099970282328288486225154420978012843949037595125731400020009
46 4 -0.0033289491455734365944367212513901677689724459102792968120778307345754501804381308907314186595892860001049391952203764204353350974436520454584874130262555877550175305547628018079622023167079225305406162787040312380161216825637042818080298583609893393969377161682593215876786918948437945144971
46 5 0.0053280936986219945487774168646923651887266570011376698000003127140432710548643227043183695706638374221832428619572077581820651447422730741358283512670556593391794070007517987014858792227704842700342809396007848076035254379787841617929951832758412018708418988284908738268571483121562159239987
46 6 0.0070998869782418260156320191245932408620504743588969398733206031215174156803297823092795474181544268278388472278119194495053951530187097898199152877742523514469978557046906205960883591753874814711767236480070301602565364714648759576546057242870626343617763476068003050571127750261854184613123
46 7 -0.0046469817982500059029988545369077281305823548254251786885473527372733007738597914680679093245128344594974993297043042230704065391442842638144897257631171910728442230421112551840357384941547998565920514855814494133419240988585757484159022407699400479837986283616509263581040052878811556834087
46 8 0.0014925800619646616644333824958672095175917938484630951009162618970792263438966797075896612272254978804220374513451340143892807474021192206631738440454052214796014799021682879027516420090178114506470611308562897316691048285088110786871674441798277057536512061468065585127654266725321154799188
46 9 -0.0086405266169977109346546872821469709001172033497901884529115433769063518671654989778489993241341625348252126233326641642593930440061874732099023125900718268264146289506196899331873722927246721109460247051280074995314236576002436355252402152602091039708819404776639549271551817224100024554773
46 10 -0.0021872316690761031803666639651528362023188145042103719171478658054679203302522014135043991566957063854155397107395219148249688228341568329119223235343573415283875431011338864657333941121145754256246581900745885719650408739673126562476502374046744624098079000402695908058628298427173477793436
47 1 -0.014654096585890997498620591364058726502923339621920911581192336446337444780946137540567492243375041348104960664324112247098693008843469186832549805506884453720639009455175507433934535874400732430864102987306933765853825551991349215224128942419622007905701013852668517224621204896403780228912
47 2 0.007396632082585615290479844237023421804510953105747803188987050776742391918780761178105436439285468835579991786911278283499634539137165038380989659440933992656945936873467669659602901588061203196390450081632617242161019832631297377883732996418213964605343309196344077187482751006617443183709
47 3 -0.01504964088886744488495460902619476639966907404301045789716442537576318425878070004590973707650108305958926954052046718910065402560533780368391256847307024245501483580390494865645854065194694901295811975361159744153436250694607800651382989935273364734849857412818169278970460048983521640819
47 4 -0.00077443265565217972554439382150701367368353457780252448094133459044626562257177340214128473106894103073057500452623265466521763915009358174539974808154514891618216226128281127784086757371738243163650338102921018917474394111148471311833608867250423388785825330842286045495349468315044548784034
47 5 -0.0039725245764130150071276527047772377460338125951532379436577947335552673541539800716501991834005913022184971600198194857969015228012327005949342553030966212732368284840782016120994250829646633362194566585429869074810169423963876699063453604108546713993528443172483427670669895698430361073301
47 6 0.013180281938803133618542565582925567228183358077014001717321135020650360647932868137398614763721919370979178470007468837023505697859463264247280356397205839124795539526904049467700702726298338582098892888954153836872209027724127477312368768765278270702636181935281287937369095109596067205915
47 7 -0.018190529698262046522123467390527171580217046931391872017982750119978123121612717268511933710435374109155679394688732235413865344009397323101647261852562905345642834509416772550989925384571848502612492020319110173951620871885934575001604965727045132087487838614918901395766576057480029539605
47 8 -0.0043036937754238793014900877692478746646833822688827894154777265920983717323341243423370882104554527064290054081013322743469160162140108719167045761170143937940199068041198137730220883547168317120332588269064320680000932247698551030690593952326311587986158232305077853604819442812167060373683
47 9 0.038209621986575113923125449109012560752471576969152581219619148124849662370784216270738198615538115299643595959184924910025681070933085806114351393023666841483624752451032079413166022556869879388722196086889347460817059622312095957746499120457365298400353815596489820484027019347941384008523
47 10 0.031735103186512075254966761836213371606424943400839190953147790966183024087464389085157196405073084925463374807273879489588554539026380036325430444092528746471396721555253564799879551669423544920684043031732385665424092365102678353401354773235769186220723751020992974596003661790602836817773
48 1 0.010645554548389382110590820385117352642856056066322704727708930035269043051735275001010309461225837730596523404827067059344189571586349984761475815201199110192356239591973904677773006088811034434311844087983019902126930990184693956272110357931870518984058424755189479826529156211209348377116
48 2 0.0016663140808005975605872298319946546746435268956369667442418727535148395534192820484613818978331962972784560677153390334010361804207127670524775859718106858397141721770465517081547598962519493912869020636569316521234987492367689259398299104057166194704719267198938119366093634117206547110368
48 3 0.012800350902826961193315218232608134832756581623923635993632865273644885720195761928417568414579307633086522014321731480484305627601224402041546703864382367303672307823008447167595826221242091479932821529928876027553190689944774506644695542218143509656008506283666498812428858764941012640371
48 4 -0.0043534837498103213976079929369486203917857459924531574651015224468230184324613420810642293657506688059552356405058241735577532655019497036800777194167423949018039665941913142575439096860931254601234420818970483905369972371594582387670903555551667330643913218076712913340299142223495062371602
48 5 0.0056719925050921816014702605562916448095871789579885985439681944479445906107214684335504935817377507835802934190129371184210060771351488078714608795781010599567172598111842769159167873178903737100319983632763702655836401770595399743277559390553006225845335020495618833379205516293480856640619
48 6 -0.0092022820759904649848737218269821722552200944577688281828060690381152682125338794764978561813258640397187187531144102920465957109448082115437511252335265901350021220737277655746062065217627100718101093760886916778024397009554130235075209571556858775890432841034630675102271873733959125464608
48 7 0.012248297084980062966663770746505575391234511360182869156894087288096854334671867377765810165460000735855399386945273689345246032587212467015564024320326804264656616580483696378433985036432315696115593883646053635798779789676913546933354509254783428051005942124285150908202524157731549608849
48 8 0.0016847182613344928821124092532288156476302639310850020262180542245390954037132559458426387028536553012260881015560751587120552490108807985128421252728142683797532653058462182016155869841862547202996441141466671748520650514377438732339326743779926965655258842459009173390624663726427720142176
48 9 -0.025597666157925304284574210700623649576917345143118934403210682247052327082801548035456042586089316568765490998272435672723592554441486519037867182514144858047909312913067668022073400928553960465836267975185346001030692148085533132537225129713202438573476151399967277781063579696071894231868
48 10 -0.018673279569361923580384270253874166923154781596772335570232377672793656586043734392016524561147008449704553856084085864622473219505447483395774338817475732432723013072990995991551421435441917187317678032917952332767993515018845734869520379720143913143100381202651377387820326550264880074747
49 1 -0.0043378540485563429549840558968107787999950835697030627175258571965977883165955953463479519632307807794917942798290878242496095013901583523620514486559263641132066363122123249567288871630858780605027735678016341550597772859116104797270126747719744128100760299909626855984796060091519632889582
49 2 -0.011973191164352518073440301122207561598512957401624237695360349254483567819484656003337746588700076997146877878910060589979768957320448537319801330170750132360817830121355327294453361879667867207273732452787229853024105123536700821337452052262417343455105341905210323399227354066246060461412
49 3 -0.00079447412579082422279216084237035947188759366614346780468006107869294823527431480963903141751139646585192862533715651398195975582153509716012991343448277584312764993569719727949849319333559780942432884400229878563342459426961059879823950185883188341292076083674617965148564718651258486781394
49 4 0.019460690968609022578146775465382401412349997934819258331240275344343678789746807873235696475299316033179171751380229539964457445293576240120000867840569951712542913083023764241095979731078859643876173404686033934448125842525910987769497183052487698606482840471472870236409108870979550083117
49 5 -0.0067533994822248410747317630803137097197565005003724156085834622557077959438296022103656182564449092140683395720175895024621685763963461593113235472150931553397216622896219500174150339323800369412326331208150886371384598974829010160793247220411080529090551090990456739988147126752441274258364
49 6 -0.014265898660032745907009723828914473336934430281496509028011626315025036538846162554686385266653479942240170151940747238044006083826276398854435066046067557674332919791060985390820378058126752675632945011499818371058110460073640240640725034843998796128669390205685961649151692470541991387053
49 7 0.016895343560007064987598432637127916184501296116408662972109319769981227779645468448817495435001717288098736751695139973517324285980615209591074988872677968112809299210263636185539618984932814352160315865920276285066666602677426909504219926435048246536919584845080265919978046969909338756251
49 8 0.013632717780553447528747841994158295190950876568694704791599642973253044731521298127362455194437665496445461824027559234653185306152103670124671287301902879775835754862013582085990700449005313757379161414629115972032201938107716855621356307240823172736544133980675765047413754921924288952257
49 9 -0.034338595467638913316229619819565390444620610686073234397507365891675641935326398554004003993382024524114666263025074053518506649095722590425532057831181293166110427003535612555401813822741481809737971013103445377068946740786509741529559243516286577148711573622203155803503582584122292774735
49 10 -0.046440403719833201611247569130330741885856975795288920878772493743542258966274955718858077257051042494994711204222497052680980065971299458472335542837708580192205692135718375827255478698944977777246986218171269510407905346222832987253423612770849054958287263103180746918415600391949840821006
50 1 -0.0035959820320432427590379659565376887182403344843617793285434880398265210443539365606455447175035526393775956640043100443327105688700520696983997293541167072428935727909819262248974282470263753419534596323642610853103252054693773884879462252151165077993897657402425000063254701315741438809425
50 2 0.010924720619852688717508852201623170486438306158490941016215425087686551815559802520844126298917249155175828047129487406506124015381275225178536519031120099894371699514833887365078803673531073754405974660740869407792851138228329973437569793419672008546457202293689053606017811607287054451884
50 3 0.027355730352150048070499281511906033322733709104203550588105208520474182741126011796621596474994995701874187342607405615687352047191175051930757639606261255810324815907599858428558674911023565310503794694964778368424715926766494995944876599245730270231047370121411686191247167948197957696952
50 4 0.014571563368178485777965401207571341398532616171615286681345765480440380152128977851189253830110773449651321570455616686485852557755155353256802854793985040745199062268447825552829084393536673021509188274322469715064165453989173148924437827269358206059061337395923739505751762543145431762656
50 5 0.0041908336756198881203275496450955776201170076968370708708998686437903397794193319968621531122572541168456356442627941479805027913885567373924629191387635965757321461914398504205591962812167447486617784693379840828782949435672399075604694168746820060829935249738949389080359342860146408183011
50 6 -0.016864323067691902303833475625151499728429716472195746787994456106237171818480241215318116418065637267611502028148320651130301178532155753952078762241906002271264268818621438796820761721475155025821653726123297814522956370334035175627596998756045908490312803122677142325119428578367860827976
50 7 0.025789192124370133404978187907664772628068956362490788814848177461217585908494184867220522406736840243080021054526965378807253729894122637340023395191345163756912634750046806606784489402173737141544678036573121818165530855448842363185059716532246939753374971701961923383092387383057016334509
50 8 0.017994496015293366437083095731884919716151258748201764063607187614056667355395407120912604323897683361679141749401084421242564462822519632176923250145425152748859663486037579167547503111258005328492661621846709985445602922859463265930279489728202988256888279652013945725874652358153496027697
50 9 -0.094687656521558909296944927210635476881135220892775186583518034476613547821516439969038396297187030605760218155396933423173382081669360989432333935237469911891032670225321444686778461797951375951139491400970118416114965126713123321583358861739387381503433267445138210853718409382809886528419
50 10 -0.084410063771091910338980632357387981338086652464394778444813812568222821046098820774094277149889145023322235385336751943622346349272940851297436986207796877499051313552892751845861906823685223120096577245197852542237770965181067453889674891938216742677980070298307597996052561450747598753053
51 1 0.013797578333642922224047590539204718967586572212128341065729468125564330308577057310897617467260762496412752276069143633569057583496590097704951529039110631004214623461228840766640429160613567629433421000396127912102927056483743212533828403200688851032586855124376455220213008815204271786395
51 2 0.021758674557535319895176592221830299858954130647879351094522393010621206368980164822189154594847227462943942487595981012276150959052661965908279918274376145806953087660663437918898318375112717026435164534584348518846182229097227905512166698818480380201364062133732549786162306941194321316302
51 3 0.030663768794543226549864922173456860366645167150118128358908444314020731407643488148516599439491054613931069800597642100016852820953282264655785387866798269037945477700305466952062744734568800283166787406805450264242752109287378756478357088239492021794484273794756700063228744699812936613117
51 4 -0.017334930097537674953648069122627607195101399811093205919299993405209855137112731538427913197862625810244133144606375885167446574164468636351185826222734890899473700630087905940874186625397832526053467457014926885788562606514293540621766913970414485361863403770703713662641329269816987614525
51 5 0.017616277321141105292672292568033746131048215178312951202664064868112835054222659450078391625587785137129951178309539993432258091907048225550462452323469106709785409087952506887375422874342733031684907225617622358823731952568473997687912662160563746781141154591509491739615223700272438834282
51 6 -0.0028590973395101808711685211647047690880038632274960676136967209953679861403842373145165292909507433747041174116714416853755494094302239481298247962279265110579928780651718916520569982060726191701783502843990023487900816478770979645419404817153282242410828925204250763001721687187553030993143
51 7 0.010782394567916540755062328298708929440897810717654726887470050980655440625694184538089651294243202145056151960572910990187385804112609556456317424404082109226292446292003833417259959027991992196923073541824980017310469433275799961173441054291185477318757591579351667302967402078765409246943
51 8 -0.0017345018079201239969912516473397720567971781480726472865524285489474355952552513355525697710183636573022249186656056953305390361764372088639848806666464153370581133757147764783889450900367224156910196904535709814472901836361701613194940869738475996391524743779774980891162913795435557509071
51 9 -0.045670276360828195114909687499354548749478463429024737809756799813793757863717116227616322522992369777357809513897798879475970351209478657352759074213492356711086837638841970298137734460926139585429983709323636523977714158092729576483932960417027512995887234860348820639200382011275354945097
51 10 -0.018926555934944380382098458088363401976694274001284414978196749000792050972470220004949962954609656095550521159720768776420983521283217412301800579199360143078490141482869026068114236004016541972976452502902160451597106708773764075940289473740412051025487339321651607812482867066452732459752
52 1 0.0079910591858882268863222314554933240369045705445901675716959484965952871442666406949592479557524847909704478467199330523475369410855104843285795327434472643046245668125356386235748269845495168087361429178974246042701379479800419516543729783336527628845129755609742724683622195560676910673083
52 2 0.016772832050834432054682780529430368294684204612126403655389506245969053176183588772602662535021014515429116432140740057727479838078273926648674655371366785864115715051290473895344991774489522832028019134074656683619364698002469392384540150310469961805666959683044397290120233778095906361714
52 3 0.018466718314094153858801900776205022681530311418433866024747385057275477098304349803649762777015546758487697738031108319273314913929651817960062056259825637756004383840308773264435046892472532833918925150488633958293876740128441021355634026543756061194992657834870952357456204400846568439916
52 4 -0.014551449857053532751596092390111999486852279170852145188520809776563224089249948437704959307559763407583345706617293582596680308879122979074178922921142163275325332385474407480443548852013822534226591927496823981233263426233651905776135973785058263117698468395002995006417051123887720628522
52 5 0.01298999747110954816381377793813274495309228259854887627921390686843059169807303222792597670796431564192043284982642701334980488915994219841008267507329319413251800882772565478120510658605893524855529424402177094470615121789355839152446387088981832693610372590157430183222923562703771714648
52 6 0.0015111114162429340680207721953620268151598298007610743706970611933743098825705889300029290815162462008096851785284541401709667567595137350824284460144929554359610370410810045479455788386257671221988454653163924691080036846513090570739987709282991493720990179108607799334629391717280378748083
52 7 0.0033714791538420339746366102092268718735349148939935849261941454641075257743649998929965801443684575499804400082772831184886650610496261143227180185232372182365424220329207232347826446504752358550139877487982315210427735690383421535971350379211365100281624207000997070884489640363727627038189
52 8 -0.0033406994202813781621590666045737598792636159405479101421094940905460347231205560055125112475874178793621346260326882246024138901206843196728604872322423935438850202255339583283795573369771955670050605182851118091870994179808852052050409738743928401821554329174428327677032372415749394582556
52 9 -0.018951348188464225616598145865370141471314334577567563348720010125971467556315113906146831393427927784332370194231125134665898327413976036796312098024603550646622178419220459140401141313638168465333180014473372042644432319829016632116376806718955288625630644602515923710000340785610571216773
52 10 -0.0011137414644938819759276054849261962901006526658533841925083497695414062282780568180534592181406778176125962252986682768400991115629667371906962872980077798937402475824683371469839958805361491969381136508117491317189036159793827903484456069338847774585816546883632483627808488587752439004119
53 1 -0.017552884373523170325162444743292700677157325538316711602428581941537299545082559884590820331630544815047478748910144390443543124014386804708933230075801634511463536030038181123773349061902711474265804842145080436700433324504451615035752143427719568082766006965475023027332823243373490026395
53 2 -0.012652258424702367507008365525970505735649859999915523052913519151628847028797322632200916538748011149592111297904292842467592227055449015790513011479205872227532449117512509779458783136080928317603662731739350661288019384152049690142923399355685118280272599370241980797842696188394076400648
53 3 -0.039241906473134083204128897521123546488401499446656000213878899090037042217390884020873741253843046639594321191138792471557693953415441093335399393707527836512521990392431865857169155576029985575603600118124205171589521944265691098993390043521517062431919800230480828020068472129182430132958
53 4 0.0028118716314572002400212222176470886520596001169930017593852143154168389619234108363592009002927422379204756777878976587534249962286311121161329218558484436312033038920886368835264855234958355086127819190279514175514249800405451760052743840783851310954839701400005255538919794367110757366165
53 5 -0.015263469264046352931159297438470324478839710603524702600061076587455755720144824048773720171073573884784625704604610621024082850300830033128083348318559467927803597633800767207983460828330875133811960594695008845393531012231400628549551155967220255846187208816174470110903509127510358638042
53 6 0.025950665600798650005582364357761347382659373309864063596681677142271850046053391574177003136603277114025055075485253336331023604671386968426358029051657644678043693877375844889686550960792510377965811056870511772216394592901969714422676732230913496528331616330532667945113529124959743326276
53 7 -0.03749058444686669299237300402937933266836356443848818376969439397447558571129852155417150191700545622259261025372714540775239007108530909309842742142399691085497845228497861275586940847937013899717002842216315557566821408011509785767803433645408659175326120457765067440554316710532278620633
53 8 -0.012848022121199601801083375266861165580854610245972399523796766784338865572136027291458678963124105521270624565644604969471584628244120355397942338846373989313299578560443132006783875295494527251224451288715961895870826260062682010792700173859119726328490978737032951348083935011886942809371
53 9 0.096702654758216511036577710618454825848055349903014657169405302396827039983465529164375429938512939417817654866793193590934627040165847115333612243663100894694054801028590578956086884000393541803804891179752046525209149621669337864829006024118120490049550158811689180976485991385844308979584
53 10 0.07830240897287021615947991099099019211234524461875711970976288135889575365181845460292038857662648346924388751115905577277344771519476607404701077412885675807829237798546005556735336162383828908067384362455812597479348824198959572170582376827381953820038079677281469291942043497758665887264
54 1 -0.0081246511004676184396568620949372594729084024241936344374408708522166314843340564195682191443812009242455658466745909548285323474596057011346260536347491549663643856396685255242619256585283257212224447231723889248603714921790111144256455044948840478041118289365241857487962997415086692200727
54 2 -0.017336544092515499168290706840882300025798660929691941475063684050123345719658205504778405276772517898045425843314609688332360823850741654227576432287199782120168268250766694684434101218405936712216292462302449591610003594650808302671302101410345708174370442013946231137181436395167428048035
54 3 -0.011975828381816373735961292810819396401080409492557939346575887543997242639559535659749474098653030488145115445446323351291783853470655674547695292486729364720877856355717903974292566391444159676176046112297984428202355683675067580122179894120275759430140668485019435337687843682697113439665
54 4 0.021005608593795951102147544605484830768799748502958256859653211107185032019707361347794310388613216868554611051334564441881541979384039175762055169837184502504200249867493794513056028128808069704232792980605020571185689151040131844819042623264082917742122038614567957048098761177466627710441
54 5 -0.012418705823918481589528640553744647519872989361715330332610961632473315726236383172497161792783100751012753723046944677259367026683765831015960493733667889658788133336147158641756010922684497159806707561041795388949025956128925523163931366785171060846175142950234521713295467850830824391173
54 6 -0.010986500243004078127580448890375294107776281667860047584045960598802924027209831608898618606041633371734753725085441580387445126172002803666285101875489496949717487705712638842378597183936939804912134761649573897110699204562319312439201698952692654690171706118593329748926405201664534476666
54 7 0.0086909644595717760512558327857773664468146932661453821398096890155972390853725817229124462345419658496871597311733713511619696841265250477049184425433633337743602786106125487560501268954523683933692168684006679048875117469636884751219613685208392544072462394083683773291084648071391949871997
54 8 0.010661159440293910308295099187892733902545492362301706688335883228995596123967894373517676937587876817167546517301498645527299551020357066531248481105023339816965361263457237795371213436480736194685214408720904073017902062910801369411641576922601549741626892210897391784520044127487212324819
54 9 -0.00858385269582980022584403495279068236279180347625423300434022402507893281907022618152048582426175871518734611804710994686513946579567693519973372097639989870912981175208349619233325479278877562888928667184062419443674305742783401018626692353482091165674880110901370340382713947588229356418
54 10 -0.028121809740031722845977957998790222792905831695287017466687384014023566302580555305573906232766363895854510169478780329311544980296407979020931785584742939222776410740768833998642550892934786727743934356316322291658814133189637526078740507480563023730497261179277925193787899601808241762093
55 1 0.010333509542606967136189645283923810031138888142907535415232999505478759198350961721305066598280123504266113392011588374563796973018338996669392859656029600990803228972729222445277711866538172212811071055951568855272778549372294450873087929934479444359784232471817890257719750823133224410195
55 2 0.032886077189750246995229553217163176707131684138639147838246029075976726936210245889205871080715534750455840811104635375061099515956636770521713538366960760821637325503661535472422333677454131175861785583638536340603127533499009209951702337499666975619449668743306973206083855876335395686663
55 3 0.052057434076712460397512323787119798986975699007018278731066324364234146809060403022727788210275132240766950138517128540931272659520697829842740905562088678728403787220343724829016598533446993674747145916558696379858612293557724856815891548932469828734664410646671431409726182001586673289479
55 4 -0.0080736542694427242375216428637353158771971285027181266421048833881437204170666432818050391110776131949451601103337838446519684117193948018172248174870146001503384457629532065117712307544086112539442796634547047820006821822024009269673620088206530812845414860444246266989998417273528941838017
55 5 0.021731458601462355910029176769099800902364219365307962743655408492048007365458029771369342374751418629840221682919218258655081625955273225890603484239930285557944577477493218308269349277427521284677104256066987005388330473243466348588208664362763383118484000770453361232280778726209721217777
55 6 -0.017672922554595033668817456929914699046207500017154120782785615344696297715144661202650025734647622032980797438364606623952695592986585300945857966813935437987612726676284072111186671420080469080175133360185302024899288008131335141024210061232913928799572817251655753687723113703639772912927
55 7 0.031412752433352194055268348075283885232274960955959742273178766302708982489842679131504457206418037919794387893738298258658467245239235012803598511288517829592520684798111203530610621490174349663835553823649523054458122565354816603772703768997119864896686663747446739287125318751722407292569
55 8 0.01203416286830812310462494750126031202106228037404119182585717810139510730243900818952110396693811747182474563135403257365541526910510988301911562622095143391576237254708546530003416225101110140829825552644893513265452157481155821271930172016391587149719380578647816323182091363499350705172
55 9 -0.11562438855690030999106729618698340088073317024033237963390815166933290299751919613489454645471874077329196708767279892427525662175394786987767651653755051238534547763633145732032425720113130875378353929696695593271825757863584093100212966539641454421812145247866931385650215845650838509733
55 10 -0.082422191539279786927683714894099510441563942316225069936207761120773789953318005134961038439773529158907462690024313593387156769483072329918444840163914688512189953111142914112077871922511786705077203503741267929397421256616868045105226660854536950528207143221812221366421069576352639466064
56 1 0.019566619886606855669892262541640524837712335389327767540675174761177033240913917287895837206451495314119664418216928888309659403945179915138397237082205982705933648539861717422899508974009450091148920434044521039518808029706278281480475829961687056535218649353115959656479926156569795475122
56 2 0.03836596588979890966238522999660937051104484813598955192954458171458183813548901262260458644334278826745235801382114008390281872254234110739787586470206075194793476061547380288165696323037338790764053844830286945514845430153988028341406190846246485086923689414898841128467359460040686855763
56 3 0.051372677132665227823897664775268038030961869210158571111158740188898912022400073208855372657881402828800665632908977094029759823433071377783156117643416242829846008259263541640430627432797787928648113456379683148170153434067715600222572527274604212353678939944400448796253008044738433392048
56 4 -0.026421856148637359434806096127823379681019198087997222368410378519433790770906191269334329951481874741073565833488050258928198763702469665269087227180107410622135236902141584301423053979314157772422463195281326397521952663723703231213181542028738058503150994949004500414016781390583459505191
56 5 0.027529947833161250035800308171231026155906645376699181591422465682941424313634409788797644675063853662113413511926573185813365514101410222737774989141352465504940814114711754681365163196739471295513139317743261610916786307643327439733357101406679573115454360592356783085138877375252798807982
56 6 -0.0082285283763396506947388706870626206462374818633502107017556611230663723611381200842345002622349475315250622598703735514832251319762897006419181771650055409319475995625971111570405841089903928317538718246721585444181422266375675526106425658213797112727442431884149083041037896982271223390556
56 7 0.019671874517359611840875807100402816664237079504185362319244872460502462325470955055660076750592799103489962458878806290335329079849083710821697209902811334504812528485806259449243969269205302617686368880388864183858504948117911687452326731031654335966511466043289682336656322840922267129949
56 8 -0.00057635102933725088160845641757434870347948354522792454919187299675179717147638499484613539049460965638365924689183461957915058216168023417461260744263079917354554151688271963055679223683752097002919826096214332805146121553542006080328836276026001869867745748308375516281005179131749186915438
56 9 -0.081898655183436013981507032144250994057161184089419218507103576298168749737220254735157227806430027324381682373815524219611380252910477780507107405370354406473959604328033724283808422680133807568287437193034990725052506056293215450811049304730494966500445772870190395025105328531451248032969
56 10 -0.039992302258527339053557224085828534533058344735481962228949591963813058034352766817403720685418242271343378241008180420943363762873523379191452253049457257834578400171546480113647919773447642240532274097126952854591123357323666834239052089074031897198148650851890506206877227608476823040216
57 1 0.027923277571460937035817097019153581681620379739300162406173300966485561165563187490308186178178276304675521898992047495170438723322068280716120351693957399737078665243145430013275433549934393300132120604265392408563402149661203228912167818713699135810422921511499575158149372969414656125711
57 2 0.036143402278670193780208809449939713220531957151511227798517452581274578345892201598886974077584593503414237831616394199106901304758861289508788432689720337491617174267303205336384655655870768375945848357003141530418376411892993332473690807446972208133993017012273345632461920541363034830557
57 3 0.061199742351636794464234109773779451540944089885771353609141744128834113167320741951509785247328021500567360929562557705599361502418479331171580746937824984913721233810062383026960176124390855647884751495149796605742304169917798468998706150855755894575010356060201510392871378776185667821395
57 4 -0.027864704924419816065169376614179447606787325747706688576567825054081337015517226662712036801779007347329041503585356971727128391979604064091503948411556809812939681867520245724320921079481910215345587281285955869428109469897599909807379828549265602933960702442854171828511488336101965635747
57 5 0.03292122076741680031158789271370904108671642091104747407800433258489274567800061181414688769704690178367168377601641283693449996883446215436083450735389568054116768389931882761427420742551275738230863803079009772417797525206412873936031719292288259594147127511623860519477929445887230576846
57 6 -0.010354536600324735927723626232743925227910499601564645738843000664723719226493459906747348358635988519724753369054725358448961432252975301331551524825421790669960211461080317158653443531809095344458053311569899559434309862516805800042813932326090712628760795896926759785755771818205940091221
57 7 0.027837225210786592729616597218978400493844711747025820825897850660322933027592072814334834503093671456970369556965181745473879591047455797541022974325132247000377221953365589583683032440616567432444915825196909476254887686590648118569678707710838217797165029381273487882485382970950508644866
57 8 0.00072230774829965489547949974885588937107360914352789960442584857225362411674135762777220247163087908951088505945032005672258716056792206290617092126656328806081842502334232689853515371162275051215375373629511534130436924418550159401509040650715339444226687981711362454956863992101261879355477
57 9 -0.10217894058852509916907687447023000515579039812581432580367845160410809258649147374775171152369405640263254844340143091412218993681366274450435638956627709635892846176415171165316865718342585355666990947266737512162304664226773620333545414076681630833023969990892910662409937606203212438976
57 10 -0.052547899927087692982842030592678842590316499941543571865015051701273831043398110376444455025654925246349061932726246038013746199886726933794114991826783124178111620295080190076422556083949379944570622012762786917405435113017259362112479000135753221523808238228557994330959481881539015418127
58 1 -0.0039595514055514967914467459034992286860524740988129539433368801472266952117248898391905731591166440683485902474472728599763981548304564437616219612037866438091114773366630263106531226404147250076838097132880694829118509097274054410045700835859477928315286051071109313583324596327092520748473
58 2 0.0083277014304300820094133710942348886942467491017598970406348049488666938737175287253222165005582035769096364329324219091420735552096171894727892104275142476269287769352382439327701139840020824012717537003737851873765659284082813745612138343492778699327234187112957312790282625207065518149782
58 3 0.024193516242497827967460560335349208152948308441800336824524245464543565735542924178514669485909505259072893822053132495919839075002718389178021664335497217518153636773649853473269792970701276149556587430712173795987961403874099489873506250366179408398356175848261451973345694297069147378103
58 4 0.013360084100530881879970656251190666853449130207507580610894112106647930338208913993415272267145389688841787360561178494264022680197964200354306971137072990652451042848469958445564198189935734684534186863160558117247930633093190864345490765986923804553080180014381214152709065272749001878746
58 5 0.0042877598028816085281987644611657308151275348064015753881845639873592715088551319801722386044405239677337615800277971419069006797712207408952585400642558746694990934906426142427526306040870772706846525439304936218995169349000611113988288634925106729447278182163904370154312767109986527996031
58 6 -0.013422039148328677787485197693091970693188077663601918445323909374669397826551469956369225870761596932072226620817012926897653284789329608406161962619100948844210263849689779745883216248534340693593272980199276495580832392329302687224050292614842077283594942772315339887319060400858007610606
58 7 0.022530201401732926705476741207920573004265367549375550549434917302468213683558031129152963814071406584078943793093997537234605194908804311401831065904574245409724944612539077004575992210328468459362891024447086844373638747061685131357812606148863571355739140133553686428111316587100260631881
58 8 0.016125847190839861923650504550349386809002659364023902024514182865446853570041279998408649747521701288593148862848818719853392956035037156644890678437263714042675115201071306100405304634889878106729369603444522627432440810272973226581196821233785649548885740482924370057775697630679199072105
58 9 -0.08129517228589015483602237025560538817923796533934745729824137847850386576950033877782468980741637584564748932900748720078282897609253342185751408088839138438746305953066008347770737027976619473155604777395079456588622160814718381027516836356628294813035671495476542193027135110509420460987
58 10 -0.072478992612409397350647927489933705203902575903248303548810768990281647951302347299595854681385236650047521066722289132582989999903626152968700122462446742939443335330586198596033404235445885667644390473262683481467952808160641786916819750965245757567857739293135391068018698900984525566075
59 1 0.0018419256033445155886843685912705670984873625899929870849050695454446133775118907483085756266860801760780634166796391792098776358871992841568643271518390883447227423010958683364861337368096517845422631490435981728724054119476038844248648140614351066045685785660853646633748390986778668558203
59 2 -0.0076491455945945189296841070348310463924259220740504123460854812620602248048285042840134173249638482158852896142881877176822009855125983023188372839980674303646646691028745490783193947506494651535317997265543363884553688880587419438802216715147394860627303966967858204280174393860665305656224
59 3 -0.0017750653307817454772539994957408600928832481506184587608466438074725087152198358738299077833970373232339307110582461628168453742848948823900593664289173876186733831850666642092283912528722835691852010761340326688427667635467788067608515211353309397657600118168388861639572408157478117038566
59 4 0.0032408238723482771329653626503625814927555470088627076071639573608127082138168324934762996310829281834393325363707694004833785807210971095407008898665132670542142734852303181367551109458411735149968149252930353611208549382492321052611734652326359824869992197379584617011621508277020976502346
59 5 -0.00084077771537632399646077670391793713956984751229139861314027983390399618328121910014471728481317551806950273825294558757110880373175315116477529008403367595482813588216845042100737289843059449578103103938402286831517677092672461226088691472464920033457976066289708013019592430842822772775089
59 6 0.0016937451677157183807030658495372676892723950225010843617209242833513460503221458855542992013606626473665782507209452920732088615321977421821596113531318529474579331038290124062529530831403984541536690775485363473437987891252360521312299793309666445635384645301138456576808933422187366250996
59 7 0.00040715321071807701122967853355127911816582353291393849519618121499830504081374239150207002264163446444474823639822617154794310692771948818358283671232838567315600896756455259969530304669330809639882490631275386580177723114632224111467312708587551622935844287259944757713954825383885351799208
59 8 0.00017345794882850496152734407221719566157422273631611456099155668714287615175628423864786422962813797501944327189190710065428076303261338702355904728997964118835750219645747048002456489152529743667417266274789845833170266175641322252228428705017203703698629219163233255133161506306020239185771
59 9 0.0013210008509974907370846503361412560018191164963336125854197784753361167535830237539797625598885729522347215352570107202983670848167802293751406529072969714580204221018007860068712167470004347482689122078892811121176309281299563593047514414558480179497283867424830427114339996216918028877282
59 10 0.00073206149617635522183330818683977425201394052485471644559625611767776583393828246951211379078539678540829774983445226740493133403993174977193813298517758149739463687843902086054351205354314800256289342600283203908653187727782759047379835432285639649779629201536927655447205559951396818788063
60 1 -0.024042659834769244442229543052200666349598390580523092387891002845301540353915382437757412453854739882520642933756838437732153673251895253338419530823870987452969480235738962416185829040293660923508795436068329290874793377314238172084639386528859282477954657087566570292375650544802330287044
60 2 -0.01568360018642341252276727594341608220103819437902287196672322902675538973757008563751347356749602468392276987739541694194781983387559444343521318871476926657401892506695946813322085648237850870160584880378177493600821354293935686172137037519512154946051259466416847713704067800682323410477
60 3 -0.058020468589380934952137063778633046975696818601380898250365749575692223522579198056870668816542043293547347231245700023705233641193383509881758079353324701423144716667442635542659796082125541127550411857218015438493601669066775812606765111288439304474155412476000370565303834009167853256222
60 4 0.00077501796340669960516864556637361369368933635322928249360899748651212296141644782802542702741389993083224239566930458110186691574482858328650353297192337019422783442080006270875870418229115285880665718556521221569452499825234831076886068323885206592455313373377961158403106765503904666859047
60 5 -0.019676436561227188455344255503415897656387197368263726937006883704866137760573294637278880445950449840085661316270978922558556403695474710315482478393710403076276032598259496300040937298552057968971567560611661095416552977014858559512967848206705128443488259245723217089263178137343251220078
60 6 0.032853420868391195746313191731597187107015157818316034042235260829731761618123623718524622186901377484171348296437742394196500040630069732966018412920475200061855856058599666802175210544916288302213993013359165058149515710854223792102787042180564990508692688674574431701117180912690972266495
60 7 -0.049249475063238715497555694627708074991488695037243823628877700355774863177445224988259329594196319249926103755981649961313589031340840841964009342138563354463049527392027524582031145751461560648789396498818954460587046249919693659721856542636038925345640955461102313425818834840632407505907
60 8 -0.017558236184540393992470915528087323634704978169103801110718720555601176203718817377598762260316912226605238923201273493386411355904295136186930461375582318834802283035323835933114677541800086527247369445499770792666332829796940936689338285675260924231486697812499055436645158596102489561087
60 9 0.14480710517739392499076760833435765524478669711857273604898687142237731873419310961076756896777897456879871876783093601435555411585498219222761440932952442753845011827152787699975495600596499439156808906380158816278583900865280696368112787034246159617345194712310854137553435672138972777908
60 10 0.11349528810250382949707447065204206267148667984622534005987038707761673237861524279077358884915007443587612381381339791354282872863291621672671394696356957003325000547785077946981989966801052304750257068294455080408731203349435354574466038830076896150579654779938805062826330591469165986733
61 1 -0.0053860941701055859657137824661228448242289492883633646223091554409977707318296969169140463982119240065003984695857851179939842642819431790632741305003185551338633310103177479466239532211997328909505110507657081936922563682295884334507921169577760846176799850601860320256052309470410297449937
61 2 0.016851315656154607747810581836966786146923460624602796658123860983201529998180724419828208420505017902327007927516556071484936893315734979121396553030645617136103340392165778057032519717325854556336847833561108822816724475574931543982106466639917405711423598861720841689536923223504742811444
61 3 0.019924282410175021691025046399269237306893445421763267076324334142273127438745870568371157764308721232220402863677161000853609274466084963693300874851078213492587997053378697285034495273915544785837388730197303822983816622702675202244184365481791277764384518576520098927298088082696787051564
61 4 0.0073543386047619906967038361014468696967375514677784071177457357508685923917702876573665585830822283609475203563620227471527858447422787989566196208322321467826496011405799542319037484312011803982980480357493545121456754177914020840614315151426312024589418154827429859000189270541010105352548
61 5 0.0056074848828647434950608046424866558415523389565516743204357459177010196451969524782321493209260187985111716179188201614890679828464498650648915845638414894073788493952093269857076972201017061788086443198453861549254711058144548771316189397610562572351520268622678506340971402824194723468395
61 6 -0.018699102685123226738505364830728311203982710263822372943809345844604620919243786231670768595538776259523951695397904968605249062122752103797824692541078508361604142816377081672629758448316419550423366026136996943621325883630294308418265557245567274349951396146423565243183723640223574839695
61 7 0.023336149475397143317144102750050782869697743785423705994285921528876193037539641455292622578366014494286418645580031708830256558304408194919010401679453643903017661391640729423796838831086445373069909598966142156803806677498798217282500566420455548166953732238259512147961339299662346874264
61 8 0.015181787001901757754282492533943494623681072715946970080736149186451145323110790302748408633965167326754637152626269371891671250969302096794432510392442704028911261321359305732164169163277094068471192459274690773901092122446764437136790534864742424790512488240487828981244519417181383222062
61 9 -0.06662156972231424438701834224428109782454127972486866795954123476997720394822890664248014808502394183509863887064018752893517917013209129452651489785269031060334405806849227918147392977410574800325923672176620246588412546427655402456884383195019272862011142445243704939664246420489365420575
61 10 -0.064354775036673691834982078226806817723063105678660866531406155838520106406302217973147626514583695206790356216365152867524131007838382627310223478402028223844523641757164419036732941670821986099799051692910106976071938479753928047217442587725465552061111501924022310392447314883163074951247
62 1 -0.019934131775028705306042234894149808452574819005976669649358140832605194368837202182725071204802886599607151702859879881223867843904092353176507114158332370421935231075311218412099210738347481831925822557857608834658142507604606923661232576768137040515549268654889843508674595621014944870612
62 2 0.0087784594653757650279919415520391817980858035527650881219307929626993731560672017523863048170453439215289503132933355442716401895090642438028113055316195187597816299358401215579940674198253110974329076189438495908965839397022604828020408233930512656019192537042613968934656712419937192888402
62 3 -0.028375998781066155410779618631998302219564302984927311025705579742560025714500407192462228542757990479684375689491308444732163131333993080426728423620106057782764725415160964410577525466227186065552279449416368090253222064964088436401801584078855036729165829966183587763955976406835883934399
62 4 -0.0065787394249200828215887314717513259655470084811223685714122914920177192277582208964113117065002621436184388167057589945145566742114009019845428765929447600890132557646039739356574089746817407205453625768416942098574028064503813403272353764825831703752348530569862143278836675693783312444034
62 5 -0.0067160671832809885947459524174892362464496111842903823396257844834274479447582386127350562941822532073429709034137423147343003225345352972577387258989376761796100581185926364719452473695372413092674592343616559679692014374093899755794806029563559795184606026528103678970418388184060902498776
62 6 0.023979293461946941143294609369960286699334833250170185050038251832101880026289289049458576718249971077893658062244372544807340368322220004541819386794426106841237941600163976219635321731615220651188578188496959578226151583573027340778393709989872241985377499047399807687600358421807863976659
62 7 -0.034392860414025150297843956533424637594672948796796819238593858649928001917888518526645451838274321096258527745176697334463132306161361540778805011548959321383590235182197828719479935577159089581797239458470018911213473291986514945000813641494937304654846636947374853765398917662127566087976
62 8 -0.012140580104352992248181575158680615235005818771160306124074225739568028744082089844367396192992280172091831744972607752526848363687617881074935805411846046955512605228874788113199823076410165692055650349341594220957916854955008240760328210935771828995819115184788626525958572463893002200377
62 9 0.082181846601773806309767745225210013347218901631885609056191545142091534733254145735402894205868493773042031593129719637819812862510863678074730722601523356057153816506298651310764687211038443203730648052661002406936424707771982652848272288842077230625233230042268006808788123267717368367456
62 10 0.071056703457361848880266966227022603352828176457174117343585677285127869206630658552193616715930525193492873944842997152166147353346137477320173932835660156413870855896631651019005170687575310111926707652966109881611399515272060168205239830248479894819009768870685757150980000005386669519311
63 1 -0.0006697703847633471560525891695866065113348076480854687148152083227493572828151171995630310612381289862457115356194322025321421595824751336634878646864913080434821417947496349092191293795236575777623756926044668903359884184573334523963072036421582892419720292597395361968252870227559556355742
63 2 -0.003434525139046532634236441184235574811260874911757126213046892075673096007415459267538451829362896232700524143076223466060809385075808543875178278606473576916814168090280980282767645116244467310768600284157421312790086710503462561777645180750326129058448607526234996544569869257732748780101
63 3 -0.014172748599300416541414001687847649643361524705507873734149983676927623192042342423554255230665324078174102366193173955310379737234600389508575386685188234308964494835716380526125534684545856414365835135553229623635895036725839634104847896677989238376764764810433008750302260275627192969811
63 4 -0.0054579090220506206720323412702964295369530141702925248655714789071611259425347516637669563857239482882253341442107327677560045549801278709334276923551555790334728154449955387095056524663412784431988789293058115343835404667228670102515794258641048826676196347851673193400504434375583008984098
63 5 -0.0028795878110640992551388460527173652774119642790131621029246077711983068511808207154080795668638000474110823064432912189752919244646021263009752518708453319800581444076099161214528689202046066196425886714341438890937027946786219323257243066991860448661560401392548018987960674520077691829057
63 6 0.008224043466903787779662147921117800215136714406424413784861212434548703926255245734809875685102060029791757579920464606592156061127268758475311019065530390106839436416459217814469632232584611439192710829866218379360996659971374991932489630883662192711497038025907278282423367724251817408601
63 7 -0.012756060533869706751120817946113147050431955132222274820061972574710077788340953807555168320366343953474495792172861236339154301333977062173616800144931556649072235809515215709398613993723181154673759555050659120230451617000543808830444840478664420949527295369621551647636266023899393990259
63 8 -0.0075447250522012926553557405642915077965164395704456400639001472385283181469218473425533550504697182861328538785458844885133138063466314355127841203006160829826721123118895708191728727437256286294580638501659380365504552772782381033844862811281912042695387488172939746203867132421781926955147
63 9 0.043089636625321999532965577721522230469124475992348572491270187345753749256539266239680930409796090264063659969177196363673285796742034496588598790163327322263172391971655026632311092935101559771342911590855547986452656088467192074103080316832785282773658845853980984449249410157090310584498
63 10 0.037323725337006252959298696998970323114499657338040979568231686229476255788507854374356687549386552740613176392801605470747440893900071020988419154788864104777301551525802033222002615276800016319751630349882385887203628802566058487690716594069148368442482359481505408538991667459929575827963
64 1 -0.016348179430685591621745509596914110509252677566306141119438716156522546238694278791237109514388601960189323101911308731451641012191384055994619483117701169937271927661657181150992143016230981170801925951256484169334913292251386970289892675506246752648151628197115036795879095301692297159219
64 2 -0.037748982228370018092647332441265736968336974247640866289487117269534505385866242943950577610717612779912437022569222185642794044273456970119065337685195336827875116155246180422387540251376704747543407931279923870944928010562512145514923238029213222177376705645356700382463131716679503553945
64 3 -0.049162755920689049294946794912310510953598317864028624336316638427826030356681247916491844003892516238406750867132462714526323934281346406743136444265679620451556592341614513055733010967072687814182090594435873112971233828225783498214783469777930888763704866347918943685400144028907415998389
64 4 0.021073524736683795763572483052142162947460368201902236325696947099482661089044504949085044878540804929801226095612987005388590360023259177576299846252391540977349996149989776543697611178017341622843676759323327792329329407019922078199108457147440255650943081679351394682037498448694794490141
64 5 -0.025271596019136872209185906435128378432868835210418946285518748286890724607331790374719782146942720157799465134198434439148188265786343362322887529189616668046523872633491440026173548229706960973073717252173554131529659706834729442669450160584260632248297932973200036882595370991624104647037
64 6 0.013719169652352290771237402439905959447783408010859896869737802302294531600091117461515614036649540751945728526055744682999745593796381254465112706438267328453774159288913638817543160969620195647338882681641822268360493394721576658813798634730858672201316434472695114377772472143718570288148
64 7 -0.02475300636924753511882443579298229735543868368437611849213921559514317728154053252001816722559432364887229651093831605821591568404384037073190740849201197182524005465779427115442442131084251058031907924148917940062296538614216499870129448452799260264685734572249492693229395447835129079771
64 8 -0.00400108016579978492847406877568958220466731013730362095963754823179701542226854461653219646417025056979824671402494686057868444768979415592198970456458595938619033168347646910641412482453574562320542813600149470198722781785939197026472657975788034838403085404788564010487073957110442943627
64 9 0.089246105512995200399603232092689385006583488910721427994877092189026470149053260269293634420138377740768943093935863507172373419624649861554832673832300869720132999450557525183861238725603958190591118297705145190534076145924943665457973241453027050940601418687987984390727422858674017122615
64 10 0.05343083020358295318514898398157387233306281384713308485426080398826512875471250347006891022922850344062312549561163852118504991931691755900484481264114643895471582789671531997905570195289152726663792621611475325314864540989440667447750872747716674658386737418146444404356834645198415919147
65 1 0.0019438739962654338897781337111051152311462964776894283367857931201976839230053992984714361036524521316921122498154057719346459422011431223617061812841370149459238665638748081187982969077842252768228568485004604173116624602645174442884941088405798210712533447152939622363350670724961975917199
65 2 0.0060822454710841492601770813665206112777810454218268316973077416721868988584195101741529993915182048464393023964744562938724300252027510419107747709357160436838353700138792892952734303114874420064455507143365653475660025649305181153191870128123345089155758051404644518198342418502927922981696
65 3 0.01892116391328607850765646569732034603016465773041696345094830741870748810074090469386566331013119930851768620529063480806198888051539829153868250609215042495129793216649931576680197236606460905615935429954807521962025961052563139170489245334198420424003396679325630319411690319154127716649
65 4 0.0056840870326866631465088393373900809534922662593438994527036537583904130823524840227819011016449930547434071118005602974192712218903644758317468785443184896530969700517220757751548613694864779948381043774253275876293901284748526049001757554956816170327266285622647598798869740050177339813956
65 5 0.0048271397279288510459042487713441588264501751791474159911584417529956772217381044277465610712454289062212871952099187200266979392171977668451554106960055478688097853934465651181922972055016364936373744568722461395115513257962082925609038463640781885077177381742248775721935926178265764236286
65 6 -0.012633200303683458176481840743166549456274916062757924737851697149980912003199387078215439268093407011565334579890136818528303535734201019579768922783568358693163984656965745919121525323105507526706135988091044159032589348395623328458368021766077424999527625839314796376209090726614298364117
65 7 0.018890460802406686745040206498587617653410191657917546344799615529918803321626785450652590889644199824245861983727629726783900939792438206107337340278066872221123906773187810147624579846406938254431912362380128630845914398771993053008196870793029556994718105446294897857894674219770053360198
65 8 0.010348428358779874209631968382128320953206987571749673024190849739609096995191631118037060910705046878144628286295073932655460663814636018004665357149279678103786492038379882337410041992117750594068255095596461102805497830050768600764762763147267908836596904316033502478223413424032276820042
65 9 -0.057197618458104028492751115985477762578783314221328869838492214363088730548187414172348298386416936543232345278833195060869286179615259083476921593909755390839775249523965013392656324826915705323478292569320509931216822716500462865823444905040529552042063866828183425518069884255447461331216
65 10 -0.05037311011611352314184844259847850118176319445700792133163929458814508384903646602248476639387479617551505839548330041078367372143862205755935640583165351088015893800359377146627392106918217761770715983663764531266574989347057133641496663421519305901978057792742929070195269783915137594536
66 1 0.005963326168882568068368761195966241866427027783045447653885299572707206302991825585591891611124413748554680716061267579021641110982087999080014433333507068128670993604211772850926657081292117471607198847678362750558255279058892141742335859026361740091353268336938000157968964025813258762495
66 2 0.021567981172363627686049960646561085857644064590786403160972835561077508987866323867566326736905943270149181144881007605684101069702049100775947623913673868670719213225019927921036598684832040930470557334877953140596814072441583532883241056655658772614001259411723244413602290751938893558782
66 3 0.022222311965460118356430778535705155687970124481397011968146570204491395004788414775304735666095115387724596328753605706273597221904747553014276818039066464312427240532019032537793253100306812403883777469455647508337284024839441026717299454072057731921934735613557304572542986869995341201694
66 4 -0.011591410398450181863975335572183432497684612079802565593759549104990747351768125246758110019113390865014121680916875894090916105738703197241205184203921982348573959998745857098033005424847063872193112842177589724185514776038620893278315247004852869301730723170849538513840476464468077262246
66 5 0.012409965713686605286885897903872902475652561045974510517536914747447490365487392915228129524514697319482906735884367380691471940541708717357872544367005669910051088794275822375586949023655829611741338599835364289098033992534522336320017088859658047539748322828495246246005824386063858299007
66 6 -0.0059375009191940845218037487141589625240690231202528389826781986515300063343474641855471940705283871346773475305099986914544233183882511472566761910406451252562153326009447431147888175784080748829077920647201463787306735616663573700375970039035395305398986723428632353639909386899806372941689
66 7 0.01036641679151167708736332071986375984830015230791162622710021228731176159961868218628980128442601295437467264406428626776050879717446741082998742631144658155640219689326815088027764893015172046346108028254387898454717422587016598044045006489442514193621914195402848382327137122216033182511
66 8 0.001541448942177429817570558770013105435361060553339128396957592684691568795535158690345610192956990052559491716441339772025026804759974834215179215803904973491629186253676560589210215512557821111900624070940050038587241572564383604055655805472311522197881125251020981054855673683330880919925
66 9 -0.038450893977541380466242121513822518312806003650993060846783782801936488727888024576773782946631037130640215126481728662597667048268685618290859683585723587970048938705477710710909598191499285477270910573275280836561469000631244820266764275706393548147539994648264609750093080315391471174517
66 10 -0.022207091625210581959527575483259153372343484975901736381237019759436973470908757546422379239421271736473908238301752500404897189595825818271048197065785965658108964259012391785439942458685710169300522042395402831359182329534079121403028441346352067517000851635192498328579817627730551618914
67 1 -0.0025673078786754686462806371923699925027864367150277994995530377467037692832209389839441584608342659066616852920833465045829985625478213873316578604831330819472202366616320352678434340150503387393176346503267453092035622874235016083574535657250062581699860152301270320812892293267843366872824
67 2 0.005796849807724819767294309857189229414868832876527891999423335023319689922068685183690374438593835533097606892425228297843879823349566086224954529935654099075622192936136454277398380564140661031056278344670733417645946292553083999491082436055853756489064038486088948737350099746657801298787
67 3 0.022238846687378356887192075363828383361962862544626242872352516829245859491923813906900683660637270398624746780462783518900469157655421612821068178888062599806098474618272495958544083514727406889429023625119685471214553055744694482961796557287576575729689328065619587075930890890588783294785
67 4 0.014246069545451089181836466933851762184743803559066144255609720633015420558590577631536005182358345057398669756435359126972873506321358917834818556580517719820566577252981306458527238203031869633958757860324069434512508585280302329438517390459134313273024185054555490815385168179826594191928
67 5 0.0022365040717908210982249555827689492858137786311705944659137389322134958096286096552601308667452427833901326647694695700608390853588964724696411988065061841045071665889616871038643723073952320559098244435615750263099824913915224649935191864035810869194758378788692621451519210130228493702643
67 6 -0.013798321813284321317692000467580461391386116207062387759447944461321494887488660289812739108944356863147413564793128493272539724662801247407034088779595767743497659310041751357746292396133914145023774554530764254591646208558880481734211977158569278049196233660764760838370239130826332092856
67 7 0.021329052364928532954072287936648833902533063071353920328679801909849812886384801495803216993517752497019909516385266339878393490726980144459535209001299429111115750685519510404211789998377042268672170013253038698593939966812174378007606407329824560572950889980233994160453323417427068239014
67 8 0.015280442177560705753330577324640841298729468200871706829166375595390542074756290202775617864591698709896470995631887826101021211303620114656568986974628560843805642895438978379330523690200145671813515479091718209880237946013049295161433441282020935992292514197380999436137981571133848002085
67 9 -0.07981417934311075334259438722005671867214188132170031103951366101987109172068211226417801587170917009328925725225689475052212687232812542651894463715188646162099395212236548290311434633879200242428960948299001395391646210295187890992005456673112461062479196811082570864934778724155192836886
67 10 -0.071285646608513472705756085662174138574622892785925442780694676621802034179227686819679609456371998344821625280240100487973007898749226480454099081821762656347725542248083422634240960361386312827291291904891227309889478609118450378325491617826646253264760986554177434234305361299605432378358
68 1 -0.021752423925152114986629389949348423735410076840338366902469748166510916540746704603382966472367825285069673527621025307117810318672928270366216117642216385393586730258068576203715264957169055439595953473568079761283760390680529596348264544949715060348667299415684190331585652303768045513991
68 2 -0.046487181748736204758443838539913478341588762486619311441813990972944926343767052368136134499410250674139835063337929175186096390702444924080083772970495798486626422696801021898389498838575002460107493992750120186026455197211807960636810656259313950451031116885995698754664977932450684141448
68 3 -0.050415992827403108157940081834144307828999971312562139011810675643613909915701258897675099856489398784658347915125142018952374780711801057476317790197867561942375509668823445368951706138890909720413538306996555295426948522699862609406180378735121544518206776393625330207987014709449161499732
68 4 0.039273765107067099889202154944599838687950973710081168104840556824833553532506833752945724602648425533406286154543690337831211043714303099812993204321692497133790400285534229097412605611567731104384895143341552654150401561053333834578126678431648265655850158384071115939570359769598819822437
68 5 -0.032185106909227215521704539020420759066954433124674451361885799382816597055420944654573520886787818499209113604860080892092184071949484918274221171605523389593828624757550760951963142376162173077669085234591362811256300829710755424448875775175699085877330951383254862995874300413064290446673
68 6 -0.0029192625456671109303450597715409815345419089592537815264866960304071613771602801002004541447543967036953737357482481902204915224251388713269891252825760339441737674986104760472494666280809468948392673951225856753185987409548700075414081254766356381581209529934314586245023372745833080061651
68 7 -0.0073108901210575017405665138018353839885948893948476736837138090761541821719526136411142057605418089588918930963657510688456614381826964747204516133743259337114939469234377192475962683668054361083367280046806866873669026728147162228517237713229120553304524168703862848197195287395709026757436
68 8 0.0098671989493352659227282227327610123017825545976539985677560360961848069530176678755079274484406352628328833127831522654655541112898224380589149539882441816136016476385866651667215737753554215143769729424889459361433869423145747028771357718046581801909710500196241720021459751791296220880623
68 9 0.056326865396388482201122727004371962989495539579754337645438126331759473493666935685897098037932538644701706335771822475744969197388186832477165951329278985729203460201181574017002614466281516325280725789949576862324531662475874434493875103188716793011808906348174387460426614062100345282638
68 10 0.0066868737641930611021674012295800140748912725724784030124919295196841403151331719800524040107392442392880532749544692854865147823704633484745323044967877400529779867158976697000272584860843799382290940583425033848494466661403002778287625794900285233912764461267665374989013697382759548347336
69 1 -0.0075894028945516080920246868043625976829438134059185599508104895431269072607961380682778310405372189604707572176499862778945592370750087166948560537995913004589920256848985032101760068559853097276553383094621344951597278215908597738101500980305525978943625316256424863379018205506756186334251
69 2 0.010645363492779012472660938372567101467267227934796712747045940481119843899414798726211828754942714245179531702435351760187838415042411050452694477882376219259838774610469607338671830248123708427012497811083992203226548933543388676939996577450322647525445285702337221684331398540705530207728
69 3 0.012284856535905378968488388049265719619135110162061462352651971764890657700217173166341563082608247063432259005588461551225771438904652949324692940221877038740530346885753693050433100585425886388282735750646848633046776275968357661414767013934334849010990782894484741539964054438056107713979
69 4 0.0046901557970894977782301493464065852962263458808926535857878974650473538821582732979348030443861950408623710571768823916622929581517092826769275410152648687313685101312789587250643606532194218258326100906843473892985351873744472381127167124388149134005005297521825822319128387131215119906421
69 5 0.0034181223764307229021588745953245179454299131212649916649308300555087426702275651732212840113957145829423046906396935145307226793191459868599172590039742028610490858046668673477558754588662456357003973994932339184233839581535437016331542266036530686556285532806996323547680217206063957567491
69 6 0.0041236168004454427663281438876609649100671352838385469065084640647714290550008936736958498490067766608331250784334062818105695425507629414680965271891422850798713681749498464656332723409972392536511442424530706332410808734405829852425928083765908807209364075071329950453509340912635847160569
69 7 0.0014320884520079028756491429440415298798707352527331141717385269822760471172756702638373815733601899570234533337331065622004790490952481760176809052021295304638372466387242716161792590319506047358138842601419753838669734495105764144848937289332972995156636742294704204312122007808678509000645
69 8 0.0052190520545188936133480517455718001978652664745632177216095136680874525673885267202487403714107568595199503248229933857741274806915208365333100682351341782156691713823252508254054802439654501403035418181558395066378810003607514459842444094035043602974429234294667011405647396954369629690723
69 9 -0.034630228303277153407613999509153430537984307000311806231151642196232930708115119570826281030745806201698246426911151102303345736798986951153449086965578894462521041698135544889536834843883872469094215729898255724181650273413303617489730755780846939555686069909689568470913103301136376957927
69 10 -0.02417274479994567673859890292433427666166574746870494928888018264444434143731969351424134153488972029795591102049949671949759914684773102316005194459475370738666500085700744837520293488378022857280778913372349986921238716507856868492685297061301477843458854513786031701079466975160500795167
70 1 -0.0059045148630576719138469865068524176378908246459606882695927864191206334880032794130013838600226473489181350052442691349972185173287495911995778398182581243624462787308992748446096197290199850844373648937489841992996544462638818791116847609302234612448939652311240104462734039016783366052275
70 2 -0.015812387053576280618326647502751922212532193808979312734230297839772789881436015299826182488806306968086326728217942843776710486550922629184689359286817111846806378142723492140019797379920346730600228014964823979862646443257244607614375851089718857514886883946602382863063181525432625147467
70 3 -0.032909142025824544987842900635133834588903212653150186158212754487858635085904823122192177014183972500852740021892469820771984960209151914753760104901761968594482090562174270977458639904047261275219168517282693078389917496354220309902241585150660020382690304945247970048043075739403941188032
70 4 -0.0032419014830283845878143278465375281067755345423618716899823458695753519332813520185333070532132961782533388082998851621413970825594940770975334174378621286010283384972728157170881206465655437079215743581015735740135974943301900803538181749965233922904194093633878934594308842679984973425957
70 5 -0.0098208441583362110793697492912930506401863971168314576879974141903397804709798061066957657309124198892307378096239141607422467423315929223431400184347432679916595543175396852578802616789913236083275842619510669121631861159011338449717111610776711903556378951588550730267592279133390759310997
70 6 0.017931969871180999204163700401603230045811338656786359762598658416974225039432053182396417613994057247210769007701043198005263934456793416297922324419125327858922036178415746128158587806285319116358878898458065574575265585102464454098195156098055204236993371092889378634921978918094753090306
70 7 -0.026881917500778344287761392956024210905356339793779118333257145673666785368227977035773477413074589250459195389655082900366615160872896126902699702731630957075914604493488935185304152257495050854939105621587070807140767581952575981769143542965508465248925940930419446905185913152192773303607
70 8 -0.01318021417635645380362073428416537137853145111144041337816420612950992271149973046845180881251326474243078018838213497132137115460909801339111790110459179188449863357813491510529772273169136577207031416644059729172315067805827384855246219848834841796767713758563407557974133059196965157946
70 9 0.091387797466640941773139636513263156606825044683089528057575726456666561652761367520646696673447106679229196594515168917166340921449048649494074969001539181615219598498639054398520405219436811560836229169418232294392097564387602903920440380959754564633483659111187507394290427938081840444361
70 10 0.074279490164404049828109593567827476100080364653771488901194431973265182502210921483921737584417307631287231513033673015863396317685436514978180125453093057686848224120620823104841600574472363003292769279099956986962357948385013130338936437958176370653917851265216506184034650902787208041741
71 1 0.0048189087766982766539930852533988416053612706540978751784876284396485241449760974345725875462104399597224929861456798338743075307731305862080959906164290926819381842733158627192409361577189120195035741530336252314773251568766356448805158660728579456157730523308564009981608714711057504276524
71 2 -0.0046792604530628314199826211652827478062585390427890834163723783684427359681454665488342318394262935958610107147297262889426497571807598498349398589155456075700966029481384352979631201117602795294025439262884916420815829878840446615400218713131282243874232867286728827091313726873358193604995
71 3 -0.0019538403455586039308941441425222179189831126266121914522277223906074736393280611643958177935920000490508547231120741975642937089750486813396359693768015076767804547899477798980248339284274549484524701766538014015699803704471536645371104970600485433889761268918541795687176982603998082776592
71 4 -0.0017120101172114411844366261990248743662220283778646779063768338506571762789697838519610750096279687461100280692993956625414188561667952962635600283036528702578957145372150527730364081825841960488745148433252865362930799112114762826179988459520928992746206596396494150555049302993525741838728
71 5 0.00036395669586647014053812245835445143495372716690551861126899241773958905662887069614460400764040951118510927239860986503770186854089783616968329950036982439037648404730300763674606580984305574440504667288091460248663922557951351223524660653768376992713541326006993990113388045379602293454342
71 6 -0.001769594648504772059718230247115717923505049414749298557257251133600890543946363707161343347298815097912721563846929008541188680745283027476468559844456229253755135027105537501708248135812383301396853831165378765426307522894171342781936885573830986428326258447132543276845975238029112334867
71 7 0.0016374770183983180320613138067140956303605202958442054320003480731747451734510749381836913781436273426891160028495017698994980922421300320945371025158168721586418629739174860844336001357707359527070091457902452192079681586294238168034761525207131867412044387678189291416763596722132953307509
71 8 -0.0014715370416291120892854254769867229050581030721111216117063199892095080919102294713644464934533081360893305578887348153906797232694117710531273579181738040818104209838923068997410062534794216513864547657895911097731348480396690762782529165049940393247934181472339254124118797993816507173225
71 9 0.0071192948748782222292651442434658065883869771441490191857878423475740303701521684481125480349604336151045954967611373778518321532174985262554203388316402472302652599954121678860310731455930917276011520167880214746223053434095848830016306627211167320685212390230453911018927749308972360402472
71 10 0.0054051470142942400738148390781345926608316339270639972564974527631074402988119112702405973910331586768220664041323870232794742381573339969152962827258408377360039696296555158905701717905552820045359710603378774827147498255649267215579220471911325523103707577940008721433634207890695114299402
72 1 0.0045423884817295719908414452405281580510684091523455924721330732415760239376121715988271690316873841106719356407677795018978235646305074131411028371923607340164102976477008764355196129197490777088222684900222229099541273926902691553731008778568645880333807342264511565087102638070248040664631
72 2 -0.0089960597827804652592181997031951729789082256067200854598092560120846060133823788404597556270313349327606653254255540257846500815033760297210782582503847811752751719254986464264223384081973674263493604619094465136643463163934789329728504043018468156776185426491529628509881127293800529434484
72 3 0.0042656324435315691085207003248684410535078732615226243428578797415813458938279354606251872095313002244872427936435944916201731145505286334971147340616499360622937397949325382504070858314828978938512643652810695682934554570785666437197599237227961746027292797390246170365912653258960522855578
72 4 0.0065001969701443236898638766102075936270098199939020439914691507074355517942885772161565737207962857296722402506849992611501209477401151411154071043511931693153186992350497726553213508346966677227836444459320498954207962454658500054888593098961056182678842397862328432501344493947911097896991
72 5 -0.00060415085035394630403603456983747353945493302681937757593440494196445445387201790271129005471745963065636923431421881562275706230976045035704948062612337159615405006579858845918124352766231810659268276897993169375225125966004390412477388312981311522991127081493757780457172015090472995609558
72 6 -0.0076943255214012791509274583853466782018135482333429080888776182904641758442695333025029860068512944784546707066854245817565215848897350003257306129027844093584205841041700532274253247016247414234859452597714693879167609743493215172415045676484748712064147376218253961834897377448503263328095
72 7 0.01089667241813819677010868686490644847290971843762612366941657295601363893206395731890462758449818404339406838026101355251302201006441125876602540573962067084278792379979531184504443792901758137643272626054010313647353799055360600248568610887159433823891367404087293317835676389062860795163
72 8 0.0050515604260694657588080100908026724394596418765871578179242466468147933477816783251322931312536550467228469267786730219510205505980277266763306693755611415526710162592814011246367358237115054785615713193417793525094071041875363218984231182282991544616798127240311035866783915111244389281833
72 9 -0.020386551606515109548882456107393337330395612090909994368718650507181686192289834969377207593240447373989632292755568285195631695013266243894595668811114476091080930147904390887734451581975847792272790557998240320999921268938587631173339201687762726125553199987782165662740191449867532418193
72 10 -0.021928668644576644179441742911935398509879944734963072969988033302748949146688479596627306395799497420117159526042281943096912163601304229127836005320905352527973311454361368638257394125938237006848959052264327486499269763961938737777982184616420695398852972999193247032625120087212186217595
73 1 0.0072771234943023085021868976368846576050553485246301401108795844224602699828644420307239418546887555691313060604234484143601947187599460131050234684169382640210452134644572340567467666519800399280578404763473577774223925896001513090935313686237592772300656022718054154176111831952604179629777
73 2 0.00094334321740951989713037771402631965154722496646476192613446474503539881157255944288178265390307601056868607746220720072240686231047142160627665221558882307955493888843405681622026685003938398976621068429649462348970057615272836426851548805562920925158172724180197521697696394284985090801094
73 3 -0.013113916885103192570584760237311939117595625256201237012350675959817988048549914026475101889975111650204996604864227265790141438037620188932175261447038051217379049479474445387209801334178073041999692427407722066382668824515396254869974832433091738006348341730681103477850791663926475945121
73 4 -0.021564880226522147787214356526845930873338474908929199023218604458857311484158772091660725951413469726988785739470030917855616051634985729013087835100913391351255690834843459532778264532817365901797538620776248973552498903061024839132697767491940505783856154898496526509833212297376297300186
73 5 0.0034920740956507201061791840162869995460294079615412268943320167705243128513146313870385303027898932305757262127164244040568192660268877388597977064912861122277134979117481008215763602575139222699966422906884763549318389807507578999222689063854899515008837223299897571086782345609818230001295
73 6 0.01914683506192660231133195170820681800899803071888905646454471642752752223143188359535607159549643535427045910755950877432237647456842566929423002597537981339542138632500495416236466939837312689068321407041242813828971066371375845984102831125724378552320272095645932161887976213916327136686
73 7 -0.024228424145914404155894231733491930150881249877584375458485786586349701964239978704167940455633817530778313138997139343796395632523671206587115709044032115416823275226179559638743803515570587046113947782333047312638002490137129502783863305548013139155216393226555240603233504269446259760997
73 8 -0.019189537216672420849316849151394719270028199572439472928085843758432532245915218408751970023776879685933809436654621351463842422918402719951747087066843407874570554054944832396543446866957912705297138559007854493962671209216013372783226443959088480055818576888957178199364388761687288114231
73 9 0.07225763426502660847825572496802556737388442534774112424072128772027194334799742301893217172252256970984452287319700654366773092202091291624960007534363844940275476301375891942874063820175614397990578252873860568652866314436614488234119330012996088293322632896533521208618748412979985870223
73 10 0.076580145353870190269310788037665051210288491406717344894363934004711511303349040838120534289934827487918613408710546036568803694828743605385627051739056200533287022369422502497102188249278076532049384940671749931938226188813445969225325582104392600807961707435460528281653288774321796563244
74 1 0.014345231749903349122516419664575924605719631259408683138065809178527431115916837666471667729002960139797555997759360489403593174572821436570865153764619824764481746475574584993387254931572501151623928755164646912539256721655201592111948943275400404381313714583931674159528424071066979728745
74 2 0.021247723419591818157295374094917749565427274161408251127825358057872110737733156324130878539485435048890274457447687899087980087305364721550904749646472835399260564986985555246748039062160588144708355628722741561836745986927895956988492075701600335097413489797534922514300282584536565153859
74 3 0.039946579299607669594067373093962483056266448504781596593897310704965227542819191050080425015600689754334652046080589656992781502271340303924497296808279001267125513766881252411398064960096430219711068273174332436092561338467176928365224545290641901171870501662677802201361682044536659541648
74 4 -0.01068802954604868070528851899410324143752705732268222173932490856114175877868572628465987531154541797211730444330636111941077683322811099770793073530258018644422501836717994192834540098607391794681155082486218547470802904069533655732682098927485897675318046055770703274000311801013374526177
74 5 0.018810715991778031649002207932059459459129873341905275755557786639896041040316367887286694219190783388016458046229650885980430484740648669670791782777767714346612259549886935025030277069728108330994857481925902640657696594884011383921833464358861581257449483379983707129693401029595342895697
74 6 -0.0085598489344473865518132516670304299757614545766887121312303832102726033721206701248311735825149028691904300393444384126339182259560190301938436630920448989717892118622905639315756926157253709332487954788955228349591982856348246908192258903674962744233120921513175186457948375727970425190926
74 7 0.020944317749677096990636836070861901606806854930787286403764401379302175959944300025319327051339853491972075232751252000319418763718974227483609417462257126782275711789790626188400679987058026359038663060976928432205078408460458019456777773868710128736236478860223018783286675229850200113902
74 8 0.0047991643579267913585442433451876619818706624685803125141921229782892289393734156006400773793801014264407841357827239178165543451007479886772461699267029384948598446567844208203942943101430544206119543203698444656110594760712564195335189746548159782131053491554759139218972701212132571272071
74 9 -0.079793129547246412356536214286158508674768548745668188416312179610902610131561564354885953609813405290114670625558147399376511767919260163094934551584367176031346068487367211575519054163951731165650704968528651594361871889408585532234655831899186494663376365314544021137099311416941497617175
74 10 -0.049453889363558718738295024980544117665813154721379307935945878168665788568162558832925060027442093788371535417678976870969119294506504763672277678832534476619064397941141697401741137896314067335661665365425943749105843498419276451127225017289624330989359623476233965450943167817017121624456
75 1 0.013192562073491361811896643587248239434093098892045209326748352439572785902366342227160344858910381311006488922966261742937969208349134459800128953852097633234422873211613484936021318146095743970387641370967689341512134982818148498689464617117773383248383433034893858017234369290049115703741
75 2 0.0049101726841976986454924893515797217374775968327907691298726763478549096647681305822820618140032979206317336205649939885445891281252664429783838602570778493794254719495575188310047702388907315697278654236461277826852162478410437484781225711411924932742234972773621913607380776793130285613474
75 3 0.017759365368757610947474030580490611398581745876757326155126094849649782449614275993021318677009322013991556449200589988132848457137981193716968686815870805878289164911705454855879388928507065489000806371406672055947882951812707375932384044168119252265167726300033819913597606884943511940137
75 4 -0.0067885218566524771201465572056785580724021265951621239490354540105647604575458265021386389269336592889624648185155147605094477006391685485975376469179221022457106509706527063498820959078497453460297871465202928860743095039065487792086324452034370531086723286812718688414343081413176402937855
75 5 0.0080681358469558992153625438320747391177515095151482661056882935941657108462155804818983797591235729817387576347370722435288760190840101845779063153081680806225091954547335048142734073618710169347282436321393333476692160278483922957462415064517289267717692109476539112083653302402614992149697
75 6 -0.0091467173382257597481809723743001848524386264075653168660396945617648345873878323434560017720872315129165112261352217760080753480807098275558945723818013633351827669555428376750679221008379551955561363380424818287456081044217136529426327682745511208163379137975135795713991780513062364197577
75 7 0.013165578877677221600045705326202449906091445706398824962050102800551114505285969784802377731748991858003054752857577936127276166029421828285694574113550453223789152263469383138043035186635982999278831205553734085440984526770562301085992554917499296847936523191974915092112738111053129810378
75 8 0.0010299696134856832798962924491314891881263806815545000213036486908364157060323731107997964973350297322024974619765800622121321836021448602396214482575687867457698064030625004418027371432792543863655887146171128855498442623984318495525332521555155047862822793728777919788840917031941527988738
75 9 -0.03412713861355099599899619039623675817682071892710859356240367027457187568369035833685751951398321776695042517053672438340915755308327317133774306487136144105016055882495710727979593066911394764804535734638485082084051273707749085557810861929035690338074111461958586969618417612705927101058
75 10 -0.021952506561151646892486430064321930582435312914924729469153605890969469961273253893529948053988916242305506343873230979405543906047646435871396527625469997368661424673046304062061460187964201035029445185799116863189044420906077138676799788847329453629248198008617666663591103881704995944698
76 1 0.0047973813739036109394933509842839090759703950304451702828117043855418980602374119575691622298339180758652248773109513229777074851754538857797095721636031772063760610562992121491956750434576834117341945552448147870260778301511105852903084324180811141112692360566109851474708349736233780655653
76 2 0.018287187623119875631812587644345320277263617515927453037435916954829290151916661781498693305154943085912611977093657510738411526341879131407413253684446174377504352124815334249169695713166485939213970772070944383752121144327893923785837099656430151915659887753910553334443730960424421778206
76 3 0.011779696186996980970221696225507585030612444957089277313551532195207245807779346311445859708832510661140583496202037981211513143835114051373865194056201275170908573014283602931828054303479612668311985359009954388982284085785835466898435291003309212885039878534549678879028189604434183773005
76 4 -0.01860969254778171820517048854268600924548264076419487051001995003326428342688607025422099159572497291760151052023284676391274760004979927405910906285685339768533209550819002915270265090227127676310853220125415025234158222780186443464077147968931311702775336462430005375029742082669054225713
76 5 0.011492837759811290045270821732001664130562545180019397420433890792257272455173990248127200415612430488867801759866704248430500889537054281333024607840056441108198941761746480808546590815984951752676982309438535924641753546558679821662127649709533453392868418278107675917513297904481761896473
76 6 0.010575800227751851396293858398710226432626390952352738170015096426295591551951028019844563996135359179174681938063605776334509682541553788742266024645466433896593479135156742685442318901104890342670975257304894067682200763082170460054682571032803482379258718765830722155832583156404066951877
76 7 -0.0083195645329836306889802376079864358246569166725579450677462560334331066217935669158005726739887738687830517378751100471673871916755920715266761049958004548922032603785087910229070555435175862146416858239682902231356318104751205253234875131114014155391962886591723526423828571990619403055797
76 8 -0.0088829415538142276837664276974906164974297167930892654758585175185604937940471450569485691424459612494734020423477329203137384478627975437874403813234306426852832076675602327595273375001618310538109558843830943422157885586711453439270152948510981630625987076763863427000571938656259449394071
76 9 0.0056103374117010613101920144162859099796451222360163191496776992206223224991407356649979794714009264826220915855078370543009290664671280702285595953826445861346523830196551724668018129205876676220480592239856799407450208404529282652061354876726667597054604853907965783936675494918103332352916
76 10 0.023535568983035655882222297138865533114378174077357924773477737761651868680278061128695517723010769700381107359629173059508824130627625285691436609768052647155360168669590046415008425039546183011928602055197196306230963150396036150041994137961590630440005345087824732266057733788354953095981
77 1 -0.0010068290899230706506357932040949560631165311683347576529185866318651209298675646731381261210359273849565856896109884151221212412036368900019773681982492059991025494987302416969331653947216706566882365877487184382285270853889448884016130232472609881276969106169361778903857135529719713069172
77 2 0.0084088170714679074034167219309372507972635164910654326435921591623747388850854805990689696528189692111488869624914867269330755156616989807266063791748345283737116710581427058680678269492840282644873019406678820380144687570827474880976293997368565256825729754579648712227766394870238258877611
77 3 0.011237827399395846586331680217466163471313372494297147049072838584967053220569663692773457995913957029963704485632491675043204419550783347256308287442244869360313679213052449272116850898223274244622899606375589206270132266102932679622208614267726660635718499992925844718787454141392824338023
77 4 -0.00062727581801735988827121006029527289831955227980473046152374104441648263385422443931639053595624616494692369877253751128426987515402168766237097946747435577317922107108135028593474602902473734886277745191953030482830954641350340670567915272957647083749709892786179644946313313205889925215276
77 5 0.0035037963303974785035923477660479108980033713524971853307643690406164817688651287431062668569890141369337783786306643525781171890863000424827194186283364654174862084859060942136707286928732099195886269304427234179006647303583938839314176244069716770649647201478731765847757502365940120408415
77 6 -0.001296890858090118776098764213321658455418774016853643739872240522796534901237304365752287031735267339209352298174231368344758293607070359351011772001898239730708438985380799271063552314351736971015877756247040632918449637545088506118828768138734961795656596105864879742409617019265614672305
77 7 0.0038450425875540862716595707337566737349251065554120510664235170349162968065219785659567413864606466295516024832432286136024020753566786535730213344684288495772455293146707510161922222876380806299567164528137967400940858058859859579808182349298590958033364133266150944266633785725599842475627
77 8 0.0026602434725456320615639315593703117815547310473030773259325577190819281964175327350025033567298205578225472431434469485904067691375035253411276027358427728990300992774911678491571546694088798183580279182069097479832120353558876098170966377639874916682531504923095294863142595964661026989255
77 9 -0.025209966907449069769105860162970527093592412667976642758629448514140727619023715653075746388381906809544770872657216498400494457620827198826678142672563753006448243191859371242568649788361075137694030456972561089819034274786161880695294069204206389983999050344846756725384401152563685915367
77 10 -0.017263562078431263837766476496930262572994689147754527993978064310243421668318076622371689214506424169725966076773837185833462676615959700592941360659672553504789899453417252195171431319441007223283777277897903601279793729008506342139280915725593070191934630503585267430622597868888958513115
78 1 -0.025299864495492769211620634819382135635576887556245552450925473305321756354152460140119694009636531836142316271038629709529004217780094374271054126186002881422925263545562317281402791471440919243897701746423794215459521553568886740271841372623552609543874031294306633039021216694085242021335
78 2 -0.023324659034383820732911691120229884589049254969285461110350294884961914007529499319486651738310286522841486380729016425577302200019649289752493105037822804819519634036184359172383116343204163439463261257882772980656975085419898775237385867114599713775035776097874023670869289407056319216539
78 3 -0.072013922852941009555522647113412847965355676433499111561169066230629370360109747903449128079915522038435015472924126340829898035438921535454160899344439293655750359970423812932213395665935657436798961536517469529361042529217029607548577051562729877742902880695125340594107941382488193270962
78 4 0.0013448830213773797428417285557029340576742619874560536313121537329579748729006202358252072790631558835741254754320801248720014999767941574688894837839802788567929242160590492509543697484285388794306158528639726291556568215682345280607384897781409346557921265132320622241797881998687136114303
78 5 -0.024292157690292969889396229856719638773156990651445630313535881801591501422827899285390076399998295647810277925694695493103749334616844419931034918166742193670038290810330539812029625143213222434065001750291022938072099528037453982224376465198020009713519374516903730181136280725634665853608
78 6 0.038089686943828011281335359302786768790007465768495352741431846362387052005131807904082842860640933808867801837043289411962599164676921747440286615942993925283412266129359367780488455897579018714333995305779770649684166514175262049991686925234190892933908595524440885620785683004625105269247
78 7 -0.057598436461395905742095540500966573444255223404150383919420268695321018729842799379924403674037728610605482118855961598499356124802714434978377126647597721344514564851145251490956157059821951163050486352600015501424018749332167861699538178200077354052607344090164585159846964759058301860252
78 8 -0.021497500332705309849444648064649294956474303352661483029473481563565116023189043014652527859625507770046189169231221216680269478318491501573387810752987271509383089344380359881112478280621634257242034617918288017999655453073739362215703892604331041131938953452405934105175792200196241133906
78 9 0.17629548007987139416285863589882376413387438984599848832060212782293337189186266059094426733073860661864765602030670467916000933435455876333929001863856982145191600652230685690394176557931452916588843304358844244584724806013922208264348295409702327024954926638111213274074401975502548174349
78 10 0.13720809618174733821401003120882724121646023730387169465124878543019787323713387722028015545819778364956961316010698759443400011866875753171197920927807841028069516487259022836396637434702024632850786861675899577179987154882587852457756024888273096967221559191985784748311335996008438887042
79 1 -0.0043097608550166511599898561547843159357854889483381434772770949583854192400156953620465115801513499953072600834457511521164854357174617798402177378390636638139589564700279253165383506928627823852483480380576231144982053544414132292439481149090567998523576063642824486425826958472124225896164
79 2 0.014663736182158720719605973306518410465832992037645703075793027127468299437289278287640897152002598959208175399807848212660414991604420591041330691735685105584608497851382009136245481981144275975641556995255993955722194983824525450384826862507233296374713681542283681557173503610910505680666
79 3 -0.014914574003919549518945587808646904601381447199872720306244244275369277907134461360344632457835773397569904348504973313530925247265640105673219359248249094152754113315566450581125618265103674253127651544252027673259441488599022605356345092770796265464705572882713595541116707969831635186544
79 4 -0.022620462565142864586856109041852047916152485141660754167781898551309521835325606032585970704436957657087740041430071900610617825250647042439508918038242817831175209625490744531184678001801087492895029122002865439503950323732680027565987824069477907205673154026811752080514698524541591981428
79 5 0.0033246569037727610977402680161871544000338672347816970583214472931835354302362089013138120183041351280267411142598022764991937715849296217552101768683461529078575908672604191331414008714777180297300986381336878562427845849830829006239954722366597506955425139557849987255180854945969236242581
79 6 0.022745536497651637093907058475473226459610221321921843310049740767140729007250323684274369622995289395100556778436431739321455178799954353786916308072491671853672927938603081700245044983054519323137727612465062281613996008357313431288366321082196773602668146070592020263268742308435078233687
79 7 -0.030225217868262799345413683868915347393539617026460410810542520295693027821216680483707701895402618631369963062971320366738231053477391689360842256487616379076272276709856275951280437039353792818481584699174036926456785354150794281198559186554819402669935552598510416794425862548921739420124
79 8 -0.018268474195434211595778723009980077736954494219015860469346451655867177952049804915041686792080869978336978904789998919901278899023286434921721805048530424663029170733961845286354236986536617227037797898351161348697627868089385662916250256848798467014014848632663881087332260897965229675423
79 9 0.076553568576675715436976106610765447673544673537373370406921663310509892400266383540440026396406391178542353696741734580379871179312163127937783576560713439009387504415667515831907864163924963654221226368867723787725977649622022867569248382845257305975047478808553971041127180623123153226055
79 10 0.079223170027923307353493806850158539044492626288216979617360283922190141444922864862185880015371543065270959969768536860739116848470735669030011904128764694592957609998138924180511408877498985264945828350540359858721024983883449560187971605166591778602209338020803902523463068569627472134741
80 1 -0.0076811036334518667356698822517306427185250886382381557057954300089632407205802619688574924203626530907772924380682734281516039446950118860316796507525987271059282899160155081907877558625104732292389891127776757269619914872895635408253432238066990142488418698218369656587097728774007364222357
80 2 -0.015443492153261561395860504432190388568613261201231855224766364913768527931204304516080693596077773487399617748481300149911085937887087635542002983982894030919161870067813644795421489810506530916980924560049365478929904973987245369636632868013636283777730535130182453036748228088554532932118
80 3 -0.020488097696837557854004205994969534045548182960361887071964563495222031930217875814291575477699790735813443157562379579523897613684188265755930860998070142792304426081539263535995227617397233595475002445816199995712874413770847796273798962473734599141473453612362734072572898506078597855423
80 4 0.010339929989710854872736754707654085483520979112764339344412657203631419302205714671205905460387072448685632121475483238437856600535238807152483590296146595776293960669079763478529565181286952208527488300208373667244215349321535802819325656774560037579713987942553082419804398318659459353565
80 5 -0.010241846400276214184412641820056008156396279800941945877569346454558847206263247091074371746176935452574321503157631617958703951901674169957490793208274383778632135544260490554942605498506169956513519217955349663103528751870782394329817434531452810056905601474358892779334301764176583897988
80 6 0.0012275828283887054163252705581214869253297259409010354271149374724680108561788884290418888894494669431220926019957178676047632498635688509323787535635398435126673995064820789328228301719398269641519841488213898346195602987766677696448807614824128716644741865443458855490612343615642057230068
80 7 -0.0055481728543014457115440065401879221188385047973258917058014143126161886194005885651073254658226550303607845219047588843236645476726345504291692765071376610959563253621805412759714532606528315319164439110769129885281132425279323608193660244132412016065714527352758747403249409398474755222002
80 8 0.001086720672362655091499381809782414654191326028867015089914183482574686265376003308300628274524270885627257968356024226583184709506910023141489317904655333433470963049763626382486315153179963193552753067288787917715072507773077886958196755727853502595351044484912476521121380462157897329119
80 9 0.033744820762710771492553170347276712483200885732834576722699948878592902866544145115324228772902444556811259639154851301712890053463327047601960542353762171571167830643423972546419923565621131216337094863305367921358957861978084436839534856648718408799819986211762492252056622043430204865387
80 10 0.014920410343272256648486016189995623240052346925580933247379952426313842301791094778440875764159552410946427581729709731711530979962630621171868371914025741325678340294603262240289936513297593332404235083566798644626382110560001797120495016542918028091286765798193052019351050176404188288526
81 1 -0.0042077641180708004969698715690769629002802086251564091558982219103732031964210116726181503653494149524520615374452256975020686792878941051094102085950819862442522828552283737836275789778401106076385173324696299876139706471450641961752729351052346317709510292965352723283499779243828278179014
81 2 -0.0035907609595966424034839910626431409649591028502427759213368795283333264983973780570938182314902282756598134644598234531488762024523893515805750371516992506700923286933765117393665233308775156598769011103574852740545002840830996466370512379242427727362642613795913945687520602807770990595687
81 3 -0.0054966243039646878202569841642701394884221958748294423608614028086184728447311606676861208279475238919214603995142460010829732628323389629924875628861194027607141985618291091953466637151293671820783698250372200342790426045104852384041870520855253269558706606962154311026656531695417333640456
81 4 0.0045529860747359024397021909942654328294725206994806580684805955213258867849547391078701666478477294587135045570428518003663520182690675116507918549202560331517089640818342996123829293316383752448533151575047476348079476538300200774153119065106934984698486339648180741667642714540560089427035
81 5 -0.0039855213288485664087788722497385806277832052839719769686915973680161146003763055240702345438701845425147571579835349952269401238590842723740496450423670967805127010532639611155850725206032631558193334930196953069401115748311829167319103999537783161616768136697227672609635943489698148964836
81 6 0.0025351448560560168110472748703757559998381630048066980136244920372132679226183667200586906766304837717099576882657851740341757059126961245982873810520404695055304785613330459628427747962767789927968224026888160119615987995702683386295160419895199546468008445955445269286158521030486086628958
81 7 -0.003667401890568858932561891497235197474324119106692041448886452526317534754917899361266335097263754300671956317146708062393219310212627170454823550658477555505832352831582025359232352301595819799454653276386204062880040547678940024800208736248877711152289598385371577481101119900662470075839
81 8 0.00052370926168992649082318496759085593568852061283033911691646006282606117232990736443922889098215175600635642920113568757045699632403142153140734815131276816534256323175939191741724131961081441823454130150232551066996508604655767625522712669427236550350689929262279222140731214657169245415737
81 9 0.0058414324211153160868267003041739312287319647379797113572132185530953658640649105601365057674733815433292613410751908975416925842299758358171103767278780558550549328408727968835851959109984967922561406983563501633343927467034093469952993930169239812681981851732042918775016041586670295990052
81 10 0.0021774615888772935526489212449897133583241687957713121002456849914581477634415634680161004407261159738544946210650134258643592074169193603636287401779754631144522849402988216538072100498475625300803782257409114417477382178002162922067618259186692740081458055194649503583957569896958219262897
82 1 -0.0069983203800132880725641864729838380487889059665615855579651490293911779384316241805039640420812957154515217335346467525481888235897740922195614172837346142942222578817905222574585240319293190309422836849306593346305514778438137942927879322909625696119311629109036638562341142542566547305622
82 2 0.0091614372414094118004835778391437545027472634535603310334307521975226148793417885921197477863226971696602736198701953890232059249763701969161749986349399466409674431051509194602859154434168562807805521240887315036622131084238776892184214996514282319985839166840957419615692365521719693194353
82 3 0.0052379439214059231135250609336352045081723503666855786385319214905195247693231704820709474037075112281954930543223884302528069405987079163813579220711604535145284026581490272593300367934208316484265990333040532840026868107463442402044310073180086575923784936582538193246752486366352477104941
82 4 0.00094418781570120532697519460654262604109039113122462436155505539295990540256088892837491847114331692299876659073172546572878751737724895863017450146528965483494380921199129142412985668794612440595393027829037633391902765723574343839546256812115530611246463714637051564509359284089068802690164
82 5 0.0028130821710958196473074581855648373052038277863016669465428421016721989842862845279292602899248480738110314739756204863730129430380234306565371394027216095558091315211828485702759105728668079646441251438550834306051257929367400213864332641723903381494057604841392673655667584503767255905243
82 6 0.006516607518172309503944732527351592196366689680391049351701695425962471527290989056122567984256503130794077603177685856216031593911761712618306781165527825951812227707003148755499633824470831445050309726939171201935413721876988335120889949857206135301566134389114837700589579426541721298832
82 7 -0.0031843803491816359678799072281623842249341761315204382736394438905529947583582403288368422145935729780026692271827943792655846985952296219659533207813275264565434933683334331466695243804803906072098812926491193987229596601735891888870260910760026934957715331673031481342106504239712209426406
82 8 0.001654852214742753946580120546385662068785373280214823301893822121118537271441899316817525488704668214112293657480841400801557989054734774059499930582686345662807650642774829653281243479745369260602374099882384148817961730294774406680646498599395720221018089773962799124270627618314266337707
82 9 -0.011817718983906875166750816314243971557114005589103209317832078345958919577301656369974137352127709670504106767140269805241651842797834440039900650814039360720718932112081934550447478821911083366345333233817460641645225836454330940332750841004496629385261417962748826462912990627433369917566
82 10 -0.0054724837847643465903849084973221547957761656018764619273538660779886489306216474236235941894272599646589076915644760139796037534623041752140900794778611295338622052276365146838658238124268598609183472101792648690965061563265767836097218011045037190584376892049838357798996267298155170563371
83 1 0.0068105061159174009896946013774576726868304944394430409669953378314418630667576049805628829198866686272176950220352389534948727068901529385714814540005864526711853245977109650439035770634654239091570237853038055272068399503202589220325738563819950144387285384134234819836152002727352021733207
83 2 0.044347707274225861256388825877934400947631798391935032176813619605885681557742611686776853977392645081677170987348615623683451539754703638704783815589582819493739960988399747273959598014423449789270086883236491335960090888156803726204200106344076745467851320958856351936223804140267618881105
83 3 0.043162231319948162122109821704053912614849602822514919409496045379568573246116836076838494307290360578130333073866903254699338885306036406952393109497153041080991826186144057397225784026853292283523337777144115049386926878540473431947221903450391495645569041617696144381081576240061025179845
83 4 -0.026135666653677211159031432938339928037956958712567009669877229900414432535978537983574867454886610281211947042046626977498646267170825480462284909054685906975552354368611566299657127679165554735071064857586121813362480965524473196062057804781123763022958074671607560712234657307450623112309
83 5 0.026743321731158433374557373913946780286682718313590333226226260428297970778424807301313669697273154065841327656368259196307069243927617998478434878936876446179155043414554980806161138724752177479299785151649228711487083001526737950915144117590962991843941384239418224138030641251379139427889
83 6 0.0051723762733878806189806780553086723448790237860388417842031826646608377992176455266727823882925826615210605296961603080266938283640015847207968318850150450047428744684088769022925937392987099735600883224642669319674059027787908735880395808804166035263348410043950053935378243041759539850436
83 7 0.0058208117400574795492513561638827273938471873591126142157182725507724685360488629004690303950328776110973791073022246178191271079989365506900729965656178460984797274648393376784539058588214981606347879998558878223170096198830362375298286531398867870826563198182695894860351202537814389784984
83 8 -0.0029840467639695129525048152839549490678764090124652335859170360933341507942254104223092267351580745314001052509615750978006480376331543545595711953701426408331340016704477841827696469294684375057060743937417347694650665205791395344491477504211230022753793457173276101041924875077870874265704
83 9 -0.057217109744481757601475479209704868885174198040732374406827688447232381469223595843728787576312707265308869830670298143263522359230651532476421555837048986461140938520020193408760060258918176451667322414710352482360102612415164881733974251765766425563422152556086477962268632822450821677773
83 10 -0.017386877049731713544339485647202100852731439278819284722467421374658576527155223009872990237747995509796213246934213606455893980315337382246659694782677465482789286942178506192834267430958748146219775953429863101751065718861838016382346756897580030429871836973720789781907250737028752749097
84 1 -0.021909660782186609253045805764066401455225389317993552574721318510288846934243893329645934010137741680474078271391329111040653875560152393352533885662561059383178759678732984063713634608632084545445294476961877455672855768019893974494274550316423873708977147810900223127364946596190205047266
84 2 -0.036994911058081976805243968206963875744672171640116245131426241187913714769177302613027622164848502651845539587660265265800434811884266582629691400223822770972110209840209422671208591986692437598636969828318957214376521454587986765420647465947026264374971387728828898443665864744564638190899
84 3 -0.028346050902577633184676471127226674804408684412818967854716397805831126342051034800068276458206233046477025448143525661203347891732430589110340140400634716242938916260628657547340197161969627199074700713285522270814283982710643261080776666185157021156798323848935987254917116321896979485839
84 4 0.044509186442868137822398218604366962126576859033085484273814307139440509344497224257561752775067381081282215200106283738417837717311198380733254467635972963974673612638600254734138816470056145725286776732731739493989990123628450828104405043222217235067793599489378964085945758926696778743128
84 5 -0.027436268442686566428443872232251905491842710498348474063492008995324010754052752036224201564183016282284257666862895583097287813706740056401753408715855772393656116951842494175437838887231918665158804805685743374624961974140130751461943248571917482965451939464325996416715503259625129137394
84 6 -0.011143668273656986534633794644445749118134066020513815172990133736345467372415166130024038193861541519784043631908905944995404043957308953641755155604747786088003947940702204773675466544130065686325399223674058160332364649792370771717492555172286172388796743991131379656185405854976250775605
84 7 0.0071187904594737194337530246527654305929491312517943938648265060996516214103199118543337535610162055703465976801197339160115856224994609741004411137284682000789745511847462933949877818258124508225930564105840119832379569098261127438542571036036611775194177668494849802066820051331756222891606
84 8 0.019022361111942303004518384351075819113605620201787459563434773546275771788640414523242155995018790934802336224183526769369732579117102019958122444786963622307693291556928972728347514278102890250335448678742554403766065585666593317506926385591348789227325541115663507404337109176039466014075
84 9 -0.0057785992677704836510428929464360717729775312042564881720364861078600481398605135188087690146239936834709137636331766974637488614779142232487404574613895241648608051686074898435466131100102865545168017430471884982259352768636196754491476087508197456135567276829767561324284994316756130937634
84 10 -0.043107864915495057006530205914839077603956413514197963843621228817531256873730296415726255721704889751924593969786891366240552355927467625447147795518024306258155089203962703166552852674554311430258314561270455114991459094143826817586486573344848204939657049266207660340289446361913031108403
85 1 0.012550150208756546107966049308019501518543823086183104351920102349353346760874381248601818311950151235453397008501083431946380598809811891563842789082751757581950472391665395860768988087237021876810572660882229040731710448260172086778034873238538698397821839275392358391247386306245388019751
85 2 0.0010360424356989640024426962384518604411517672750442832723796260691994559763693799617710523617900485330230451206706224211970518485686106390077462091704509038967759714821795001762515662942543910855245514444570450620483920388745977084426069165077831107999202954091985018154976352972170126399732
85 3 0.011195269309812909536910474839573439901346593982245448945313041253915568491524272013612776295543848457828380480265241650573263463227874125009916366290859405278891743237025635415894957413490965303059467622860619578663042639559676067177191042753910339809547717119139815759321545343804425926139
85 4 -0.006906165431106839138794890127075480292527384701929662937953051827589477275445969758212549020866066466654261558545970390484347553252946700800728683463471063965176170231513367843309690141551098551548507917235106935054079116468085067489447430243632380046681730719696454888871365368257115680053
85 5 0.0053385995736501871617109660696948504031333683161928674616122630783627684790279406394277368759657151420098346543268052136138369931939857788731006684519000767911170392981546180898534264427495792524461619129987423896463072788744617182380411671980795844042757134836450925323720825498807090207019
85 6 -0.0099887890064854169285414422312868397324745167521450719607205440765915375688076457931222082018702413407186564037298421494898903147363462301256108378951076500849617374875894535968664067738754153467124188821083812694439399632007309987055273679922240138843291388076600235149042655908351744020342
85 7 0.011207086702311177629470668356628838661778588198334735714623878409234497198490287586267016039256009588538674447162519275497572684465663257448838109643808670137988770622688264004829400825489023295394611483748841029371296096309778346941523724811312553268195518257300868265550328326496901629545
85 8 -0.0002145650746763735870641447697441632504455147674337637289879632643279764765698754702245319639771477917458880870804363273717699406971516278218478296359010791348323663637792817928366521718560389957109190579923305115877182704865521250082407024165428507497051225479294276875264723991012698551775
85 9 -0.017815745356237760352627699793717948018922679934950728480091763049406423029245016390664619153975720580961822609880994931223720587148494320893275439443391773456912810220712805302553255920549071607185623995978084895265723787309176318346491591738604941656295956839210905643235884771537657320874
85 10 -0.012030074487382862421117516911442340024824732492695814514284350318679499734270305240925548761708048670149298259994336326215694903818863089160293672268572386772204395427738674820638093944344131094401306136613749069092584629786892781449781966714113384333905976185665891679855366051422491821733
86 1 0.02598079104389780657403279754188160043234519638663265227447261806921361064152137425229899891887231574709182692012496944629855365215537557177797902295731033648634046170931114611529825628769417901370175306175342174710179424509364975933813401748517514593950935266599681399668805698434958668203
86 2 0.049548137534774162620437383681889479151669614078564067416470306654413675206084644870191843694288105858491333765001054124941320810543888398707849843236870235380960051603175617585552525067955500997014650072989695759319339894961868043091556488657127137356902297287767499829433984109505609266058
86 3 0.061255147902506216395924192875608550572255343461105548581266894904856695178469494221624332956120952659045321275220439890696298562001721046734478680121475106358357433563307277005056156179163022394468918552513207564529681659625651001950084781021054967853993288828050854154352581242990968340568
86 4 -0.038350266709534953825527438163867297408627258230635196982799351774430071922697385907679520986816267979805063147958038366202991345982496202800216434193411656776269345115264250453958727311091564827824088549872320080093184414749134965043115822217184486672934234940875716486355275004384819492811
86 5 0.034654100686513654789777641101896516877632829985143746811876519786120666901849242300302116101920030360249030777822492445411918364716414392281603403533749133493564721436515119883916147220633195717545063020061200957062012525096244142041326328342725434780001974859899723467559579838469625202297
86 6 -0.0060565535697044256483951123702143358554628628779092654004407852745850040914124649475367631696179767009780866817192195284207859232577823336350871153770847758654302391840188776825781922534998354797468615397695340257667660869838948805845865511759778093832840101550475026775559587150426871169602
86 7 0.018019591694601455940934892641024405123006867615779041755455344682404748557310878051617589901587148893777157375449788198662751165849316517397313144307155453539214845841941979276656253643419971683607994615526622699505771785968615410087185534059893324508069159866573161900707109598225449660736
86 8 -0.0056085218912035322407357016254916197465493560701085627255885769098938057341739523068438662550158614650271023395498530877580277082834011884866883004962414189085618049468413551715826300431117459302147098202686450209390910577257179311638721184712154094441102769503867406218323144602228477256891
86 9 -0.086481266739364537455319154972312107464457975930036237795417693621749854949923166416178574481065727529942280157908050715625893545006421496006375773526235506742727638793465751617567815905063148572994158959278384145712719639145976247746414887846521457923338279820730906064950685634838873324196
86 10 -0.032355297005431468467443488255921217667063976637696494969336725678335412371027385741310749791226246250129296885357636026659378104509478559611339017706466989535834620876954337976090399085901900485629209913684158957572579270603430076347364967216981106215638798594051777943829903350729573009262
87 1 -0.0013892982435163170296638255243644907326345291042318909403586230978466677412560890747252390478957648117791686224399604994508441277181610119749892429554218082435080158669501227826584435001250421768480984902401587271907893727725104788028479709453472079847639029706148111463554697508393152027105
87 2 -0.0059255333837778710203645146522180511231137217218371287477371826986035435201876113881608334972907851010621594945775322349584870501158142844061515004911499477039244485248019112500930122307407493070046884488763652922428020002216521035137423713693440395203115542809841089364361097462203937530728
87 3 -0.026711259040177576399975771316793962329611632733509880606832962162560426478860210174761190345839859773583738029190667574315213157093380508925424608124134195544370796165352828379977283264699159073751954316632874107737254631090914510370801536555587803031240021622716024102318619249585150953445
87 4 -0.011375250538808400848579944235283642559508266360668027445953944882787509712000108813117001462519335162850137340284020970313400897968796632592305514766233736563372941275691629105638515888463799316263323483241626190402191474046321564770660588783073116703641187881048932463333293826163346289888
87 5 -0.0051704926554237511104038182716596198975688840130237172271256070281984913210220364168018302031263290718959037224484178608221211026384785339570111743460323080070530276112360204201895407069194281083554283368886403255693883079970430773827693029300082277907951846308284493582816104996773113713747
87 6 0.01703054020857676908757603065801526858385946169760926821095896806035102878614148512043302931486125919402269164755633997052345062681884578997421807493932923423427289035853746556789547293640698446412648246897565933859759076265286777344656167198577362944365667720861139947740547924009241171702
87 7 -0.026136499561285619305006774805012195707540361927162077123209741682940460699677836620079828891820563856465639593661860999337601629555221607852329161300797913506699812327799497236787401447611347587474963685586444314882436492778376324934107793480444820903612032228375373234702575180686659808713
87 8 -0.015560426617063585952240682344876059716730389003120710632469834191986573276254988442071250655693809314270888356446049818038936240251756423612901631820566681898313811126280195712781846993840255361563138939080915694543288267268880236022199624021612262059799571806565705862323154530547202509286
87 9 0.084522003710546782305097937069325567427678437009072730911419314783436966680488390099081515242349471881264398967704414138590366042568319189502915983777490382321663687494933248314005553194556777131794136648596999461568672823836405151498511213734639619521657070672036290897536683598193064331281
87 10 0.074765684698908302326317057761537213995400241367590661143264074004297443010262142700071465923418248097081742818075585415773281233133608390300835742700516338271132302771355654938148270009836103742141302890687259339079340625761854521032930507473489937999872541173939639097671044163066708940497
88 1 0.0062727365365910512674563185127508156259927626669887559666916785515886257641469080127876833646112722942051719825686451786846982085827192077060323036989324311604670128801294201519952336841800385623536741685922653978342650052790800081878285263956296731571767703220032180139938759208592521465042
88 2 0.012019962141288789390156933225270931660170476657026884052995062112842911307155538988050291458349291542889535851931488598924628417240875495929528782667452030945329869088493062184835849510712976196602592818202635042920993977730156867462023356960143150135440179448349164927206168085250830414442
88 3 0.0069956239929035563542988828036466422899990631226774202345595653063667597536422542916046295449798817705282033527929269909001919691335466664211617293725045789385849353804188851842703139640784226204017464434312652400332300007316004111198110525620775043856199536204726677002610652496541935866984
88 4 -0.017149504690669056580278947504073626848269684354612002687745239109980676010082882143480995984633516826847996908005871331464896862261204381551832897310384159983078434060052957788954093678348320302214321762100448371616145500793597350972749243414459402601751759177704928458172658502717008051244
88 5 0.0096004418231617502826797890586374085269723313321983178655376723923290808190423565085943984940316798539306670569408524961257769154558693458307730991174473277895799363874127343693751054669896967197180805233884521856252275065370093374777824195056328665131562184777393463334102818077312946197838
88 6 0.011210516820621397175698292110908241004073057376636280886454797381551088005227006798000433679518402279522106310243778929041834837569953203141360125691753456198695731203540571446358431811465301732045733266360650002991014026844203882452445350631119352292579930450258178439920659907092883191656
88 7 -0.0094207914949626240977947594164408498009941443338933510381162274801121254035148428142482009233335220604850433058267059775024336119917084281609863957693354896333221858935593650992900173492312537529899855409809722102843777496320572929621266332343578764377488771386437340242346886681318594990411
88 8 -0.0098413667023113921956416230734823886536916806542043727643915651946516310229102960576828417713801814034113411368527052099075662419715485972333268286010173929698264973651669489120944926869843720095477409688027753927347289898740153573533169009572643482770117069521903414146692297589178459421093
88 9 0.015022248277120584872595495630265946890626215178595603558251770168006928271738660538950603333103746006351687863303010837270341609766838470715172021748966776623263362774901453067376323781725278572101804156267497606373709861521325851858452080508815963996924186024405691735176690263244069552384
88 10 0.029848906930904066309649266840373340758074158675505467809421957890276930623739810233793108272087286598400418909052075477308600000093050552306528970153701726818585042646706453585163964236709509653593138051183126508526670734187296437061171990134872868109467008625433971873923429910591328488593
89 1 0.015604969922890015051070038415391755494003467909639681946368793119120142922550483135199924046751799305190380141527767293017781827416952166388398779987147015296558842690836746139697539594646934858224986578845602117208780623729258822930584014188426245026752526909299314905135670920590216176754
89 2 0.0091381639539537414946088441703826942724420020056890746157648933852154357598979726418967618178401677640196389219515787836591481054968279944608607069630933344023301712683002499738333090075799774251728800713739948647402995066897866885848343351834245138760354971717345683127783710108349061610741
89 3 0.01956883771290822857720731056759994072541640729089418764760148142046523664902121432275717906502611566686745579872596851716225741001289985339946015911185381209256318051904695606503979032901383757215448060424286420183637044876839561492010418966658829565512695595030547644451413377147094664813
89 4 -0.014644287793988707737773091112397796940921233787447450714633409249430345150078067171118479033726247470629192908013378595162055473341972446812599042709880461599196334274340158363978521687314825138353446977283892112722595264074708270457668954343726308001483047140193798184272168926016311739902
89 5 0.011243350541022386090096249192234071536661486436441385582080285468679512957101222394291823020579603117997016065882333451793398869462893562779492773103881763855684717987860858485537843056475452647974890163304514580559738021506336942519516477971478450435647007589113571660484258220460081398093
89 6 -0.0036451075233977201281031521823387600565853081132546465807277204051607293251908760029533782778150316873559997281673553185414650961192954477739384422667148257997861700505902518032394313149540135065136753615678408983270656076891364769104752570295852853679267554337002043566030586464684176828872
89 7 0.0072707187288612950506128130281012349800351641013374477776758758094288125693573999986505215031950164128555384541330744005800811947002008658013443850952785013671943722677000313583276780990011128013616694332492551800569470030889463644703944599729154420158534504227960291641441859102786892681307
89 8 -0.0042393378044590081423382475364951865199388632883911792262549713329732581361317557350578182493472496720419878384675803494166165966321276395497730734226759435154741136798784299123544386815141544901160801497810202911528950939953995796095819065134999815316958822010806888797569252570332914748123
89 9 -0.022691065210203647164788791814439835774979197225872492959096622984534374874930945760020120349921969615203415399452209541367824463307846505671586662270456913526804924919749662779440065677727239692293521969039742312641354469612417210908599109668365363972508672177923247953817364504535652174376
89 10 -0.0048554688926874236023318050180617248681367928460596223131748954200776712889237370185701363678330806327673276463385184261665121727956209905948584057336551240158852351243194168310212616386526604979766154813237039428491584575139341742530094964305874902447211810886944661898442509301509526457599
90 1 -0.02060856295158939065474956414743372121699921624260633375206801725873008305033485840129139162672516715773328489959528095470071958828435231763893126154084993155578557727214356618114602532936703910129887063483340113506477082796385023243668787792571389795822754655076678895537649996493506251133
90 2 -0.032682444401573875144213913034716291136253991485564912791436485035593677943887297176947032615415405414448045551531559911520619194527006856299371309197379937909221430210769893793141514918880200917691821136997106393420832390422472237299945108782480062066541582915370875817987672812930976388267
90 3 -0.047398078683678756809212320527657267240663710098164937852444436934334890726068364550782899252387213217064502482151281136950935432896909584818501176883675077704219448005077708452946824610939891407160516107515833632558458404338680426029034502179459527019793847839863370745262494347990166452513
90 4 0.025066292531736673330340927162273550793334856648936641439745771081726198531492322850609153868616982731534456433095213411271900729916289214509467874918372989070766047544111396238571395556195157817250138238475219240609793980231406761038572203298290121435015122571493951399940098248879495733312
90 5 -0.025200721661751883485090417233857152502771963149323720993486481469960927320724559051402217623838655936506507436945918283344241191601456785239673172802001579719514845331712762445037991619093389293622620648139261130088171934870557019924874513743933238600403592805217348534448173396279958088959
90 6 0.0085913083942495946683162426503513501291314806958999387021785355971548611423441045365139852119136174588195125887504515251367557530614055398055014143051217605665509733587395648338405912214309539538599634381893095489321637293162571551417310693054471780647470342477969858739964541217749042982044
90 7 -0.019105273432364967776261357511525588446165653087945980581318053188531230017047384438861945160478785049775694692038640213932096477303318393694528306582606075086788252910716624974102354907203809865255269266324844644716853619770701961406163867314049919843897256778406980681972644710133506857786
90 8 0.0011260490644955869746926923553346697437285307984214443872560666458708007423333389716260412736793434566738377773160172081841841709472004371951293402332297218089694202069197098567694924818091583107830303443232101931512208989278798562395947693555436414032733139237943141358597227342240530289192
90 9 0.074138181442643870540625210225607539188967857057445157264641323256970245875042224683812296656192517953905542742421242080487778147989915875370462605982599798235631117161966499624417940148970401181167840130493307921370576607130073158477281104794148896550038408256548853277034166528694715743796
90 10 0.035709678717962535896546614048924808298036017359029882818582123114761099668917020439691478845330627428859409862063258556435517777075809745686461841927506936176028114672765402282907463518944155932966801638772471810913368827506723389492256486230205935708447159047781787175596536985811447121592
91 1 -0.020438725355688373193007549386158711943763834719665584391850340146187821686320966816233280581603225063208694259494818110480184227788497579428251308829272064976631560379929497920481317054904810903896747832310184291688004626196216770339882445882256620942063451133813018436811291022844366757276
91 2 -0.002708220194467233728378245712156044035642763567664477097533562085249042664418312786882115215067267303450854948093550213059684240336699057443008321967683218269010655503853542969094796600186701414719939143081703829621582413960889204055501490694999117889763535802187711155241136260934611483449
91 3 -0.01243382607972221061336771228244581129862686765496269469292901009310920297976965481223952276735513368352570690168905060408943571510822562472194310806237907697947840005285312786264195568057301731586367793645639328217624013086644160977822607444325871919915329999954564916689705086039621504535
91 4 0.018564182302747804380590943901895630452075025479827775415481724778238898170341052230135877422211966470871033476848767094451179435443030756256529450267504567906966091328806586836038287764529700530994316378858394051707998645755942739231266501102178024847532948700739068075688025716367404592564
91 5 -0.0096133432345595698792570018632945849758313930057620595112203707363467587039562547315642838836715968211001120122650641904866203543941122172743014070597158532050123092611336407516411234734411324879711363060123978962110604632864923294582905458842337811486502599797467325099247249786657455391431
91 6 0.0013720745667462583654625248448717090065917717207628267910964945144034269519801183601647970145803585015155427309751682933317838363009397007071450102552170757422117285373742168959810318435420381988702489215176054611516007758826705826221577685988719859171144858938217806158404027224238753322499
91 7 -0.0026268484750907743060783652729319676513601774542076332433988203966282973828127960246395293454022530868261353066721160083602696727645200253791664882893763091986505992372309422690274008778670419404403474216220078008123656028352573435567956958400851365454617410949150672344134051169139145109856
91 8 0.0092491397262773486207588759048418469418236027891499642281351353025529364788076339404194442960097481138883492755153032662854830708797996176601268674896133126429444652931065319005942112376372710001651097031277715066214786571670239321268034911650052430902721786622165469356877204831846816519932
91 9 -0.00054342565112308034924855755247847761238905085909167340562531098290131660567038088156793720440500373751990697013166321153755276012846528678878271768007182303525073696358594293690491117171967384775209648925762389076618142977484542358319219685224669496585398938192677492794948102690021082744518
91 10 -0.015608607787349325071539500038591264332213398169238913512420600942382737210235098643752269290254980057495968593901190893787629839458577473537112181025951844719183875382887949173026026434037270842002293443310783345676053661111330400907900262965292722455310847725244185297055018919713041437685
92 1 0.011935654924319361392587176447685537481316731358343978782228270040971000826685242335510054899868400378061998103060872461488888529811706356226573202703425515472517562794182062602692714372124745105959770765859844723952292003554140001569424327607360075298050516599905707231661090804385799827173
92 2 0.010877346846810907871297700462611330572756366140418008213795413401522233930466121088024402001149326207886369148462367618221473596979621387659775831218397936746076574820479037043479089255259628615566637696514690517916982069304946790974348741864271280064956641053624978254332097842363199715816
92 3 0.034495454461545798792826182512047881653704942884507915046880548676819326660960528980763745569242984152126851580574678553060250714245071338051395631821917322797954459673649647740514508998887378092217255669104620197280312150641817375326312660244016616876060397250143435268624325890934853428709
92 4 -0.0023931898977926572067423434007606037728387191060419646167147729493955849637293852938907483818686820579015085864916912882528398975501062070029498107678558676031938063992050692754255927670523850767271173898311292663913018501228155097039002146693291562973003084913194417573849454555040051636608
92 5 0.012840306950635613919519961632841073967720517040933965973317137565312728115219710220096338043281310636129584081715816843046914932248730308249961196474559789033359291975715896361086487505867922381347377567563266521719253757737663582872241764272582511425952466173707802067718520356013553513654
92 6 -0.010702636311530535160609629556361937166218704932314107127601852958728121373605339072408528703588600362622808497617983074425842107515164768824363688200169350898415343504266786338022155215527931718016563650683600124967336673727000045652297381948985148673550234482633490082132371790936302884004
92 7 0.022114143192519834563091684286994503498303993028642118639057283305839379067700865582928319647931357310963479965819450048979261391337349369566269901656815587377291440527881040877143602366181096835594134555427698434229424987311512387542208608007793720628030748235059467820065132870543164710201
92 8 0.0076577797640488660082726108497344466505340428679248048173581936406865133788857972247301716254580118349570863479592933418144042144167008065375348165697031535763868846631878641426530659798987006639895061958776511665068177546149537829628756246677499324507450126032062818253634320336080267787638
92 9 -0.07858837544805251511001658559805295436001570305494694212681457952753232247256250674102917033064037611125591926184022784066681513432438816775989998616375572805917413441905902026920092204734115877450306501382578477024686278124539251265199993944104808188856677761127681681425342321009820459168
92 10 -0.05546771137998414665960648289333323259952895956702053873502370745738822816112397862402605302931069654562747985511574004484095571392832743599211235930998216187436451852193351834930202070944491228093360344576060366768535002080265410227217223142413892726633550201915515111276558355754127420595
93 1 0.0046437341180127911552607058199603528651632269786774906367859022486737357962799204526603398888860938079714151925248400634960120451415659858922495286171984021488091046993172742036074583902583300269348405065172706430922459450146164673066403042886231710495377443297682479095459228795576080791218
93 2 -0.020484862668378003957725200744209441081197029674378963057249197520453775558057027491232370424138211965510127703296234690103692528424769133859152525508689439539110778553378881664580683317658299638537680218471497674010148249798364424172202952982053628278929520696119051174416960742334169411827
93 3 -0.015111627763469227608803645388881236344686055971298130193532403587943377782557561615565110139390600837730186155589658265288176104292556256420267655279961188690365847630544189885467702877087830647262931936283992842620830770898641432630900050919970551409911203232777059852966580161756820411298
93 4 0.0048402880090044997397174064910111599195971954316154065568952854237012602925752080227081181207181680743279069160865310612046128078718459209881151136006246595199699631123951329893715376763629452851897395714374729085531729554798855552071689217648022230138824179788702711898843836712131675451158
93 5 -0.0091539788629466682530017757421445629008813930979858099601599740248734064702351045978688706462580612979840331356701452764678568050238676233653844485098447054746997913338111972619175738756063294934855986708920201300430871629144945854471936554688053059953740385256206499219085114299389170262467
93 6 -1.3000002233400596928041336619714824025746681824590735108798975290805431242671206986628147141147764683880841425921877132612578280897949011903835460904914970345397990099898477357614158452913456242653577804283571392940622167583447710185495542673301485272276182872682175918998478976096388628259e-05
93 7 -0.0047592253650127626123307507401509026794443141939560870253281769679898557848197513748996313106944336705070768481284032118413645734759322295679122405812874647290023815480398043437899718482664878210175422063366589460094864723314177319313785010772146466138809437346444695442487302625571319184776
93 8 -0.0036714121561042571861348837261657649413880684083362572237502480837783591182033792946892605400283757050305015282435959753888865257321366060825061943383084739291210374329598151956565982977249149717635396483280304728903041954294995708746562586482934581789006125084569732166116391957325435031547
93 9 0.028649530441234431290586487835922295136192125286077533243900564622832830580620212570143226156019198525393192906141162915054133911498952337194289828610012466520009858832734956045588337857071527150168473554222554571129161550206558052854645917033175643647127642945989263159138956146195807568868
93 10 0.018140175360391910029688902875651255919351726839620490042053859028479508757560246353443708102788082914193069834348422782945841871659494436031610623460862642083262465693252404416100773172229170028606060444584382715436838447943494493030488673005405455733745237974918444520511603776654329697627
94 1 -0.0035228534817854841622458934254502600151294556662653768625521441976351709214194477864414373691445740885729538303689449020812297491595530859459069237892847247742943266231965889912660580145727861927209616641839341857930638610337402534293504183872272043256620949862156470590248737354792108569582
94 2 0.011435394986588168300167398465787847726919652187310383805019288483071882950861019550327675367916367715270797764596418193727164852213555489301050318252057682867550916067682730658144527708302176125133286824110143738525256552883489216774651140101323853064525865544524681974735705137497896416732
94 3 -0.028041819262152700326470321439893075507617369362989236602239605420601039870570614221309533465741615965248970451157680152993853763050392132828571182939078084603999194355173548470906075042301584249175499824943511142388964825790773913927102875974063100108007447536474481873804785523988186611757
94 4 -0.031485553695059120096146722314160163680363585200889238406018598061958791037038962209035079134781434858518592153767434166287396548519545940875745034466998810492476344736613412180023418554420209816189256310492548084374726137003669429640945724943808533720479662069403315067713571819984116436134
94 5 0.0036263781999123518074009795588358688677482118582349580081362394566004348946744573448319392237577890888245951227259417900424610435201120374782024825078258401254061529183954473199904826112246601236726406659292333016708247758716458070196758073538051204028157179196749770392418838383708820040494
94 6 0.036998841907266100802163130391298621077791282220045956054346033683031762137718832027351830572031919577942133754297978995402060680780015955503119169713022881153300542997359790374764942730598195351217169800823658945892831835156179936257710065175617694366689708391649865187881643527980597876042
94 7 -0.046645498018223228053274689058241573537203293846358173450816050963700030589915792103832850758344498514782265035281010891828204017480309819401495461203340964206810209975213301739910341711008170321650063175477151766533995640537905630621886759001515009109454815325448989687327516708235218063262
94 8 -0.028778147924053862772592967294876264628297784136690928893754973408711986471272041927665571975269567603548742073495614477254472289907048587787021609670589769030627442839931912707567773366290536474033456397556666601036999480204803186184014282268949593407650072097426522937666681111042918577271
94 9 0.12697268413170200646944231251027269172136601245412822098140443547405116963832812901242359423369615805594323036247090892739392443789126088016359073327953280256568491243288529306074903873033167850670847410694610236846351264769232768763948553172966724792361834695115769767239045758496909296718
94 10 0.1282022440772670197453146340109549822659509753888585320225564795637660089843151807875295844693214912850990608280690619880769565067285969546938443758539940536309041673372542574927711585623584595589882937342261121949401913772681184043092700282622323501353296161209539388052091540387869517426
95 1 -0.0068651636979641884372797236200118605289562684156482362428636375289188648652214088231941747159515595829112687798177917246691162088188329075465803633595890730739892896098459049141720808147366645594844317595748233355041157832883436198360207703347675844802312507301947177747227366647567981717246
95 2 0.0024388830194823057023306771031648783966623619653638318924474635162285310698973956637515843946132579834040394613152780046786660558961756093544975615957411829347436297382783212800743316366534239854473171938376312215384726360944904207859641568436163391816412266042092167991699535414373964894106
95 3 -0.01690257324494419852250865721997239800914393411382290358385372913805577106776497666870035018872765730830534000017583348648738551774188972880976743724745747146707149944839843966300569709721456939009327625087103550157357922384866056613247172501799687728677931717135181456105487872969170085543
95 4 -0.0069336156798783211836618483960677423957453051138985315458014615527938862566702045285872508631280028418769454587587776616748569470346365262705877198109677631750419006354041906798855900153130973275231511733259067826217321387459518942650827019766439976697611963129684959520572621929502382074372
95 5 -0.0022967141788686279861317570010651487140791253440120473703289789617312669094054919692400430851204494000753406448475772586019988207354642203718653008782166274956460156449432345077585315165738367803067151125011359789249868356259864837008776723038926018924453998425042410191305999085195878635534
95 6 0.013010439409086651349644801629137783335903899213260160224867586698321769495393705036820225640579473565058697794334080388390090600320596452728776530724468711573904166851019576125958670758095907112351641343138842690090470772514428898537422285547570784836341111568787873776110446876337165522286
95 7 -0.018059865263658744254219840720539387560700361936788361223701392463120928925037323146765288871976705108654653948666790867702457749803654318301733738966509510624045005257079332226677479563940091315563633247669879287787042189508599365065597435501493850495485097450809215604638739312686695755527
95 8 -0.0082954040426868029404401394546031301976507941434567024138647923628379602628143254758230135639881138422074454726218667963560137034627281888773421126900853955094046740099238849355975223421814275372249685828379950967556032764864506516925775357236558339042690980013724754045923286068110311692184
95 9 0.053607648487992996328278158594840572650066341963106718223865207229470843235713727891350001022263832431414839497599711385196326851864159394486295022152339644715882442971996051357335544672971208893541887189395064211136778591667472804446742120676827402090989050926861788723119748433545323534688
95 10 0.046609712226890726046507207256806867779179719348372682104830491086155116507546310914989250236406652872468001524813161764490784701306833817797324951213243618365674080406208509281231134530794121413434742419430834735580087032526642509918636584433206847581017297183831698451690447044694276029237
96 1 -0.0091976880518677168807169453451686393158791952503402116824072761861999529664454326723229515420205914700458640867831928278114031313016043693756600427605875380832543440025463249443788391634785029068689556026892451443776485776766409353288886549062811619262971771901940170557606203413479813747768
96 2 0.0063628316574238937726969759496743883457311819872021984857123724214179510811748754680627948801356799647169448088537492168048755390331572209001001168945413584956740657555279240237754629070473297434211767983217504306030338221155511418508773299741786541452006608350084236486698241163566567027376
96 3 -0.0082805640446153987638469716055538512612532718177109957790555713938672377682529793272456303224213586590580626168111151909028745769304089534322275116830298395746072372994605358198601884593660550086496007837065467576999320606211666172125409041131937798789485901328496108377998521691622553976607
96 4 -0.0010908422740820186889273712533004833814245496150943240101789251943476822283614450761608588778359354112918015444362916794959480895147398191796817520390631176313365353499712614586589778953135578927607250100739718201268343995790493084458066243354661591617468755013901137248505881126432862384241
96 5 -0.001349373637601935937837983840059215946311582634823276740741910815998339324041578143371011752789014367260694771838295578931788757320834948325849019141831432094921213027395842918938746418660715637189451723340140784994161539785067909262724829613117360600481349341663083504339268546720350059894
96 6 0.0071155827473508502795167544766772346441700258342249964982331068939161711512737899833143466048629840906315823714020758586270045643458511066525942094589795041171884695931440558291198900165046505440422453068563912708453439653774521607532907957029316691956467095422893368967542711129304297090352
96 7 -0.0097629474740662616421908254457546488945644918571146621517439494834480956584321067010502992974756624108127291238447972689646589490001117841426799166721197048703928915462931637266157339093825889956326218340487157682116720294519268515450983642635764996292773818603072113011823986866188722079125
96 8 -0.0020657664792871989190746336535826556598060658949146914409802009368768216965260284654591067974961894674212615586031976611669842053590824358915553242494477986481521044142174577989612174858062567865362675078202269148487763907638041173086376725913818236188449074902449649035583561946044608778016
96 9 0.02169218272936145434585573614209341888253298404323481662279159589569951420667058963109448567689707022807218603841121528458058226192320949549282926923540372512266491732696706020682977838239573469319599909212735270505871856591229090501109513781399878538105501511551483779155413087553658794225
96 10 0.017596404150358779615014878247233702521092180126976725915865278631984942432532583689526161833541953232353700414239738953435753974103980336926553073819501252758754792403781291850205099340438161129876724426933066240449931673753171323331951506219625701286241733564311291340441138878266574284015
97 1 0.0011035817150400781929402846766644275986138105607993958084795788521146776719848459862129054622155259544119726443283296330876799492153641243682120534166211413210002911259698394784725994683262205661322861287403132323721738798340538293542543284698564440493288473654149661321196961037232741698612
97 2 0.0075194185236919145297551648601106795758835148828953166225778654157001722610324396219409766051134808113623878641957635685338015998597849977594961923003093607314949299271518142316298487928252332597022558396032981803510393604312464985438565993706550434280204296497484875463692246265562898744682
97 3 -0.0072880424831925620273359288613510493527467474397643538791385207498421651464119061693530146292305282846548168686989207560992221680096328958391198476141033473945638824305904338470478419214510566478371672628536070978084430899812393942876140208583232343816693828291664650581267139482184371840638
97 4 -0.019155034612283671542209305282995289615716262870416830758802791456110089951444973368611210174722910897032966553697391624635099494265238827411630671687694985302980265696714100162708712642374707403600553671772211272007931429148006255360502612718210218239933195589332754116376763392971156748579
97 5 0.006265585422074921781537541338008484331495919516781935655031805839323940621916696981922737403154792486932172320440155445227213445761307683716316172172155768360692957001551407052812453467497299263758197360375255133230200525307592286869564703528819888391881649668041947411609273728902244234536
97 6 0.022670735173944159177983775663479857564001596365268496572619713721465449899111168783789290296391722446957116860950968071042498792421808271921926764476413091583153187914866216625740466743271548254483794493153593424952049493093067556911462855060840891466411999123837910344011228012123846763578
97 7 -0.023612868138724669284268825977060397244649056542626772774425783642648238407210383322446141801442395442829764701186734968117841863484541391312900666989811404122334726505062817255763668004682238436398172823540596333331658446629998835709787265141531327881640397046552703932978809694393370333935
97 8 -0.01588088720192573922501616224051492407334414700965207971343667146509939145493313879122393628783473466141531685211330283330042666797136514056225647879437592409531995479961656710271138553414504318573262745134340134191631192062666896867815884613878328281815134895477987047963162572214106110285
97 9 0.05706073318828796597729187976060446338790038111774872889382721107893583856816214587713984449655403722759456055733908601189639013406673642548765934543436661761675759408683336564476184779384156483997135033407076972112590274434154083186955833060830159265850377716779631990772356756993145606097
97 10 0.065559904784488590601737364361586843258776172113132689450137224201716355865002374348850731465100761338150207029890027496198882360027081737558956229797320146780142263030860131514273008930639406361359782867217432928978637448035572530588942084425711539367342140460230860962748104275638283580496
98 1 -0.018277291005136900625054692587666644118611402579889624519393920516100332986074910068117268679387119532178068792016444406361451379997309867434871641116613074770895039607376395904713989457107395362322002256891332135308446867700679787131513331182394975528963953294290958686485240866859240802291
98 2 -0.014145291293178779636461936333834322460508927503160651006787015432777108171236403165478217503760030398400430553588550806495867932264231859566438681144945620437782300740387652427731890278810667252940001472459081638907726680442189382839131803944667692828650680792310256564510047345080232060072
98 3 -0.017205190601884623799702871844470721531658042393930936987556925605710461806799934298808425573282252785554662174236297863751880234615996812042456744048573544949848079237100356366000348313699301824741118772702493615029207961334369092815738366900931199681160772798493164392889787135819134833979
98 4 0.024469464975297921340476147885836659055547885792470974515970087036147945235878601198975078716671634181609749274210025519909723244275397890583627695199615080031050775770979519431319609518241241545871636051711368296950038310163964843999914025506223075357861244166923909070137703284858013004223
98 5 -0.014703097350964466972725914409876746432045249247936656147915649121798976897068896905719442647271082726996925593540230949369643985655135959740669059116448637652869605191518962665962244879295773904361797218990653167829723328211913885317715168572661383933523471445107333500680596971356854347764
98 6 0.0007829533016772192508837897254309659721384641186857505863138406723354875581005639703362899252044100403825372480774590015438503034059132443417753624867437138365565947184068972710066879475656334896824523572704606289562701432225562561427369528440647147290896740484889517164262751572133940410403
98 7 -0.0027733278281161498201153076829970777519030013600901068970076425254331778313488205591254145458363071683703728220075955433199664296593183190129313049344697795386232005784036354137203201635020825457037475878575386080592053189291245609666593131401149464401514069482174260483356785610136825184254
98 8 0.0095705746671437763715897583552941786957525645445683004189622863803447105707162374442885565384051520535463287877430444625799499682115902986076302954348392361325430323540055319460561640929477136879373683768253910455304148352600900567894702880231587744022058144743049365741130593218557059435936
98 9 0.00084146462937670667462350213512936440462332847974610671526656115453190945238380366799770338156992141914341258530111092034080901141463681581364678945157466849835680997670635757509750237219519351764391155022653759739664861004621400380164978090025012182911548674235974616353592135836905235916229
98 10 -0.017453139354900515273522032777368789856822816423938513452635762655430915618712101135425596374837744551971679166303880952829810578918820712939567151932592514746689583631622568353462634331295832746165030694430766741874215155387559264171065839885273973758778126273048130399039735020713636668355
99 1 0.010111358832077960427902901850933913630696787358131394197679006609102549668796850963356947823200415849832513531196332809115035830825831905959466471399574106539304595603483389061289992452514409575409497899383622618256096957633809154611797990719242429658388599478334759773395529587258206374773
99 2 0.0055419351293447132185879620120196912581164553566647359822787742390446487389171613183440644520959285778325299345141230061091219059748708852971315365190402177588274863529831686524162855635352744674167370992244563755186104475254904975190544463849168481926560909175871577894287143321328492305749
99 3 0.014461627151414987577371850000221471266934201130262392216813841523243135614960845487631106528691294297703024094412347406081332856875762992012344118026849050851519893327777663048285802483335419248379048132339255161615123544890959341523617545609744117478390832088304271318032794879951666902236
99 4 -0.011825343691426388482278568710769298607280012833817015918149558418463217868666698923058830805829364167490924839626261982589684666385752602872516290582299417442637771004332379133097840974145179178285492103015864482310632050914110955620779904288246640478345867564401577550190150699725320786659
99 5 0.009302446965061319646126316660903850238557152305208370533821391009278323482965318819324607171058642697791713250196450669282602240802270491196963301493617745220769211348680993577536638834446910856306641721935087761502502767870930932269136583322343052848855784747297019482522610801268037099951
99 6 0.0076084983687738463577644057136262574034408626550204808624414318625683516300793077058390424731686859660575625917182218011127377243156393900713307478813971346258466678178100044690661939740812385816791756381899970925694816434348880152093032524537611581550745819399643894098223080751987846932369
99 7 -0.0026373698243738418114520124007504448289258328195689380291387457152148456235711632055215548124727023101311090775418968423203570032226085887397344041503414745404404194028962526339101175799811610105454096255125588955777479079340952975586818465485712271938429973871571765853380456951721207063399
99 8 -0.0064545017684300670397641251786987381634935611250562439252396116308914503619689945108741907555700856675180191532154079241887266510345742909869607432466580746475612601601998268915300588815481572530502221536583540517523958340533556204012225249222190277058666713904074990557804942379665675375867
99 9 -0.0087638875849101496317057812372402304249475914732830556240169083247642630870051474705133911507700278724182272567044089697435086409395851014400586157231288269871600250152730576084313640546215119657167986552377771826115579519383006958428332437045888415454952681382123144331196892428149693826148
99 10 0.010078550356649203872100511617553282817478212399916430200516663832875337760756734145095585762358997698425160892088225595666089721424507950691402692604635382854170082850721272008308693416958187643059674986637770103345608849344531938803436038817053135569273188301984914802537138447989804189866
100 1 -0.008697575494218916571666141791628430963945380474663894840566535930379304177655821189110493750340171188263784268135598677007691856199386391718049142162045127770028707426928811371989153181342621404301783485768909589701045602057533550941925989619961366390234487417659689932111318160609301217315
100 2 -0.0043182921984504974171037024338765844724187388956285402231812484463588855631211126495837668980828709542797872831858898988368699716322869139681730885640033349202972946770971502197901719908752590326967866429481343001683883718380267312647179919756795315497952648708107204704620364508857092025876
100 3 -0.026175100286895910769419816067484621284583222369547744297081199129145980990484845835537220359405511035109287157925639426457709054684342243595429484170665389037529643078348757735223242657197288233614924306404642758530928035858138886890099140811007495532375282267949945131941227298226329518435
100 4 -0.00645122211549910926530609098187635317618750562610524280103733070823765848148198638084152612821538849628246354154170886573052782803798165914681876765078098349604867084277578117409468408540744166314271944030252014273146871719991523518581178418343967034029321553773220452704992219885824651074
100 5 -0.0049041167308272266133068348685219600004928946246604086661568695082454548837945011226984425677197768286942200703728460572840889434852754951888720133803888603418894431106291388966414636899598376202975054536459204203936316744992442200101290033077654537844263699861452232357390478503297930004494
100 6 0.02201100562278471213842092183756966791636106330797498346838856874174533563862026214293019505769754889335094368132376349481272334735810164776954786074924523163297391337411023105378261913020273915628988886369672754125322428240626261340468619189323828247948950885297345613006867623619202999326
100 7 -0.027987691356119137673953733226648295231967092083930207266007416714373296409534548616568112634942555110238639159648446446981175224192611216117718853664133899698483943139006960760865537269948113499286271023503852474053818535376261131487853549191768000203373417046509902526771838069657569830925
100 8 -0.012771294996266010028726567501850544625969591660594993817032504662508075227529371940345844668659929225345160867167821903524787065797639834731235466372333879098401852854966260564378461882493181753604574219654330081167519558599569997134184802495146375114176193199905278986612870756765799803189
100 9 0.079394851120792088637101187607533735127831875022788618036312811452622152768636129187237654291884289257104042168262605206403003270373040258764097909634193373102127634510162587040885420471805642029980328867764641049701493375848742269929408378689503512619145199841899868062005688004769506043853
100 10 0.070088884390484123006226605943095006803414062096185979907344704395417355061896625806589871353246048741006387097712503430773612950096325154886717218365434354227637014535053662334760384629794336215758736834303038390103469840363386779078138425255154450839883375865139688644717686731079041289595
