100 10 1000
1 1 -0.0094673196779226243485680372840299305707509911393160293437241988943817092801544609844877154229382116660619995522276655121196422999183654518366121285252565950641626180217606380726186217364180057200307940829288539925029700768475291953223342464374991856569205821607161072945063635034337899990575
1 2 0.084614745407537174824464661561669301144193570625074529799631279265007860062016704653214251516376440003608063309956394118764416674882152478681537423717988900261726959226338143787573164007437996385106434967941257995595224758996783693985746563858718709327090970177174096190467862661745282026544
1 3 0.032607610071343486242642511483091910426800887100963486326978643941500406532170850105732193412859287359729571196610845212399754336269943210379401544928647706421232178185215661941640091433660920252179639169772928187426062490945326631191384110463927005652180454681199008480722198709224933484576
1 4 -0.045798349302954988331968760994086698712850017186219220760562644086653006604047748205573244069355422346402756106958314458811418721899639141007724926187396974999842505399426976736250947232970844818158707904136894848626905944526654137531069023146367788005752252417173264483070728044004868621881
1 5 0.047202698527189810613690906293070797274054773434837941711863994937026059432374416788684105676723537178768862721205074931033486310564868124622951992755895892412734999445748311233886124315015125489559509372063850930982090851290665207066283145317930780519475622830793687903747196781364189570959
1 6 0.010174020146133292969231501870971518147974927297545467202825820355826071322235701284156825729934678610015100915035510237559398233176520873965473625847756548703372601547774949452605816838171559799409435017218987690022869275082685846322715565648124177309850643230829712890997047142271603631428
1 7 0.0066867208191687522012598030612112004300564727346299677865576084135205570573989369973306098679309278691000605296226810418197788185231230740576582500112483748587411829067200117767947439078035308819645688095676026806238906792215756137713360313327249215883609140258390300708423293322028642180531
1 8 -0.0039796290322845881669445419931983577792496416062335362477568102373455985902610666694956187563881896932315131607082897942271657061348222294146388553594682762765548026784059636282223349390062673529313980166451538480568009957525973158754716914339312826411761063354121055323332841722514372600866
1 9 -0.012765700869480408326205584126606721847497187906304230136322824201945598058501165991508041812167889541485103491328688561934037944085928695663640313328815867082420667208656503327930102450873421845005034104204833232705043963008606152233357876733194480628281050973768617749978037579326799280501
1 10 0.013518676952005901750936647560196506468630420241682424852337127658001459264869746709963068870887566090902908411108033177865161333056582010485984601199215252469648831062155444004479099074708383555365352631810523096008379231783958118221584038595089167087509786998100850695360508391135394272541
2 1 0.02473897112826497522828950262537955096631198375413350793470663040198973152359003470177378026884348842275495220116938235242477496804244254530166931085961508703579832482105364677383748104928211758225345595265127662554835063575678504397897946572109343421155750567435566759972688452463215825311
2 2 -0.015344268454917576846661448501824128240510022112842020776140859630985293521207290385364164308857423462569699519605487741051248466571566472239030231706640535647244044484155347130987098144266199447853420079703911167773929859048311853779096634010295287441407938606830513293803122621734222263146
2 3 -0.017408293328470910959771380241060685176509350354639557329939435723468648983114872031271851726993982516830539531501422940146038185587867450448780746523922168874036066662108682098226679059941976493351085533994408878405010930353665964109930068560565113649173208460855630265300642362590896329047
2 4 -0.021964805607000733702904208035186777398506039198894961382589869744741952280572714463151818145651587690999850429611371259023451888198587834726205909803750184651344718493917031684990435522702667358979916762398087007348861251146347540861716804013876481941418422094853797071794295809834113441005
2 5 0.0067133822359888687592250523833201162803555980422927592660052908053801609302465801437427645141105131214789663016698390611413152242043685615115514471406790270585998748912112412667513704130703491419061327144154739923594250654723806574075581847054025218339197100818694057781358375154047209927062
2 6 0.021562347718841044598061219306650274714758849628011070083400226718995873354498435767855696699996103520159460200931463160012982407857723307047458978335135970521525499558650498574478442536710366975283377380269106374049016345261260843546547290345990972312847293275846351743196764756352024480281
2 7 -0.035967822619447744769721910006637105461746054921123934509002965154806100859505358322964534178470951023127543664907373766085833070038996913998745364920581033919169882552709596708189767127321138082170986292130707204089928999221147374175359341373267153679910404828571086658200453578148724884276
2 8 -0.03025292856106571062826049568337357690368876634197108741775476958646164464797963385218379063586202624946764451136327107377607598421906958454261201384681782388925836581917403098129023348022694206813941973487381209564356551920842849907474335169959736434938920086415072692374631028569006343625
2 9 0.10216337809301794718205200674631282156085144032120108301575295892012324350569090601563610391144290577412764493226847958008292945667095914436077812187286028454568195125071016110942668014283935810576124756623693660793843112591934567401965407909952259539116105147544683046783139832767246311246
2 10 0.11941759728152005199155854660335033854478773548702037831536092558222122662756772364344142793073995327936101336292760172610344712422041372282126374500242214007223585110130003404878179709852670676755457993379336061031903930861015149505377808782896005013513306908132540442055646873083019732964
3 1 -0.040914250014850493009481776688799561754197991718665779956128288737358757459336266476867089178001619792194145171533313655274006731727931961769095730421242991452306944936224183909502829293403137752928450500959654017518436683526948402988195056828180971899905947135235084828344121293087823788839
3 2 0.034338188311814926182113619185196638377083237124761983266006940629854442871492105005093800494325304662797269084807991318391682390579788526180887231659078151159688750735332989929280650286614616161707465388429854030242000365154409791411572622859719143659708649296543724670884827354107400227394
3 3 0.014137946011259636932629145387312647287425828561168929274494561192547713769290699409366334484075445282022473673203420695639009981390298248685998769871071548847926341029587343646182503736329393114409139466015686815493039763780924577624191339736703618681105657147276147878429338232772945126882
3 4 0.030476671066449679656841214602667364423082128759128073323141823389884564831458142166360935151002444892887214154844132426788616061251792768201529394618262005904827432133658818832909923775408231473936648016441309576791468118595065003884733100215412717386679015742201290233852458767978841227235
3 5 -0.0029038249895102907113835018423239732802347445159098038764159851800288081830604942399689425852895680087488317242195266062809197690579252330281673834769953028795396689338278196518873766495898297550237224049405959394167482987121189790551082284199461681467554529661983900087805191770610309232627
3 6 -0.0017167098026664734361625913892675687328060360248462827002995644377860293048357347064375330007306205783073173566532422141164569102128056491192705991184128312650682948004562427227158440905588877686609396455917055581116511662590321810499944456429197642863367448365537417067878809583840729399865
3 7 0.0083456781995871581281277139112638936646745192173894521715775567927340170909691498616380675100040086619596090373373210467873883853559204750054013526726447070042294587030212435027505568985080766829705170179248714456624738242333415665814272282073620001817046229690659941369922101665164974889284
3 8 0.024305707745897382161172641225312754181006732612941626088332356977674640068557864030423096714579060577854570763385628075898897554569819342160034939907515327206769958697275705022242911749329567185778744041447434782790394494296537760574826333778591010156711090246751836423321166814519491413455
3 9 -0.10351985481899335452143866506333417294445825361430048195552710523589933233527832771368483091764967293599896075006782808821487946769079805785361615944474474167541102321914292871605877077633949358336262719995774241822411882412712122473539934452532936279859310179201582026039033530418761488048
3 10 -0.099281176913282154552283802191984604845205796070030118443269124723913960777321201657663039346729863659419125175186690846606580120071898603003392185330399421793394074173527530838862382298523771284456401799824547524095946494106697062194256971645626065222323622139288373112268106265759900994428
4 1 -0.05358304365959655113114903070753217168590180686255156712608216235636193158506643381902185852526280290025423379221661470224513648992169603711195817128101994940862055750371031338229620437473182056192513515345004401824313481351675855095073711610747848339498538077919264923928418802375561418823
4 2 0.083169936286350231934050450061727606845283282042355568551046642264440087688175891274387221222638547562064073907232696840591908611236255330685660668817466783074627887382817496544273076051501276882649170380580330897461617673500848376720968564020583101291369440931153267805030826527665241425923
4 3 0.014838021489431866327909178777162269724778356163367146272524034467837920740201616811263192155546478711702605355099893796593202434209830767180504363330722267392381645922985443991258604481925112226800647060164132964637377874288407647009167948826059801583776276469196309702067207406761969036473
4 4 -0.0099553794005388167979746444341767602280558442630033851531122288947795491818233653999753049571148381607034028587126634278204360915731173784094799260056510858945978187758157976763414250231356939321773854082151229881192172608294089165586878246103181783473158532218357473292173966804074081682796
4 5 0.022490193574663214682966400383067993868784958808560158565502003378944206200607341906834522896341155553066623218005829802759298392369827534867336267886507185843693360324584531302691606862549896387570633187903682901889044523668268135405155792459469184301696323314165697385416908028615853091015
4 6 0.03768493432643124675242653775097723689218358856626272436675951630359890034088324294726313366131516273849246690706227496222983605606494421325052445882565020223733955586362048418923618811148929184646806707441020405822986116861780394356616646807390039500808348229300950130084952005549840814532
4 7 -0.024216744776801258353194561783562369041135533992311975887716258973702577622006557205177695972150305177039524654879202743551001774224903877001774480399918979049962392309412619002901472054922643343766350934239960037204833420870953420208482197423820881624681349012781956642086180025806882807381
4 8 0.010906857776660923059764090187075015406838437403099397456527572393326450062852977678183759407809593393370155069254121404339084333959605107212184904290211702304228371137092112210332155785660437831399390437882547653743192282198139587456987315981062456304806804904392423225777472487617857817284
4 9 -0.017595996040744244427476683390034457643302812687286987059030050618487176732546204941998130777144993928358864397370504269417383115006240884804757713454667301602738334670403777102635196396421947437271261757061895048173869381157118212744984424216912513284357584912408717728826337465703056233302
4 10 -0.00060007150377665704426273929825629749949570752322500241436549222211126497182961139389271533009705548641818513068412878576166771031451357717767478230958304752140438436761787817855365640314328029272317734231252051356596803369253935237410459923802206021349256927814156225340942561577329342090529
5 1 -0.070711228510277130034753910309612229634892066250652880155183191614355564056247240306070732223468152252546996425271712038178074654263641721996883625949709630470651224796046289767121977418983153654226077042115092476891362572761493977403966205302782359475196082627017233443780932978673073115425
5 2 0.063446204599419736680621086824843819019852453171848933218864935003944986787762668570396674065816130007567289293683319276588641251415793311186849025621291102606410153149717839135559161449676846914643930088191852024906816494700844853542200442129483167262905238332949136687545159606901843066824
5 3 -0.019904435942555179602328880161390314212056824974400755494193178771182502255528462566778971595957022605421743019212672524973303620658191208362094887108724889044167067140016204621386304624934604012922507013329556499926479700256308137003997679363294383984952264298672453067084706560202668246203
5 4 0.016136318001549659205174971370704158117433313054855682284966764711353517310357136102928945285238335828344587133308873093405392751955772395458172053767352837370996680470912107436210694171316381260079759106213601688886776480236519354904114200732621764944304637583038800419294250503322725263195
5 5 0.0041905227759464949769495229710647197357562440163922116035478895847499281205554399220596244661779946237266628745075921980795083456286960293246966853472058432592580287800153826656689715164488120120578484317476636621298765648360141078135389879598218897425786673163989175269690095593833571668966
5 6 0.01508191198598353408140992984752909090239428260268241981650107781353369260863620640625856840272073289901824207083702899035009689212821537760922221671425139341827441172597459929102467590524269333264960611198458773757200929526283357935970510746003820499227810822375690497556675766776941944627
5 7 -0.0061560359208218035397637600472639943576661761817358148213413052060045823248819320210127837534157921590206902931911460495327209171766436695660944138733079042763845899596927327059732204387774363170065234495648069273412192190527770220048845590228322709038525803348620596950675763795565351565738
5 8 0.024729354349478620774320546113012378315332225732383458290265802213288978000772940802547615346753644546333052371364278788348819098924142333098374487769166029368326137072082315567962655162944617292612587420349109722734892920438532877690860718708377424728029834485838641639900486833498469969066
5 9 -0.0014510302372498210873131588032624355869564661878903088026733475739092032273838660794765674257239054096023173025772336483631899937538811970619439071016731432627452059357055021741769343487492675157257717590990747087555866217450567566927746234460732571181646886943052665395975880111696918885568
5 10 -0.028239500588971482973970763394754606957527780611598244949469289064839650038267286051707371722387149374575008993980059971476985313059662916624185123261494373032121136077138455023318977592330751652286927833268018563665785281329451066903396693696725875696871622345576731813488582629774814520089
6 1 -0.033861018964531392547587995512469223315607249118399217704593146925260131909244665557426595291949627533815879568282787839731899415285824830797954660978413907699947186727463792962178071345164296491141447025996034473241538795571077659658652862597795969941529117386649780651019162735863336002926
6 2 0.020138280618281719895503700661852785900050721037982548713427907525104255346079198308021820426888860690470334043734982449032659352611209974923677196978785905770019391460172655506159789303623091101331177942363108980533126979037726127620567297776075112579092348192410019262546603128771625938281
6 3 -0.0060186162337947765747752481354560479238480617777622397660418584684156782239093468904019307716677382837745732372557584499052340501352376133544961262699440095387680055809404620919744198558348367611461790864045865318215538738941970789380415383065432120717809937418295425412952221387881336567016
6 4 0.0027377561562644386451314511190201026909748719738825835065379156887323676980288787960882358666484778151085507417151043938484185390541140697670206820720619114704777926983223661877170311719230710511294650127154269355804852090356215305155418972229251664200288848231496410088636595782519088449117
6 5 3.4693501473332489551898864222627240639301427895115050677138115599675002921086658268791774094946522392985556684685831375280024871025141616728498341824339878576151583591245609378554452864755266102086679957208911206628763740694874295500015429686892423514896432882498506607152535757623357149688e-05
6 6 0.019374050635197492327074934876705435498748012430398791561681804973915190555886482237113810978961429438292747710726898779944976110494547331540255195430717320067883180002490900018103890576672998012127231122392509213922103664570384433290076172015325942516823668522686892581201896971360795557377
6 7 -0.012636832250476869990980016908585680661493133597786288868367095728301023901576283155258568581456978628405661131417589814937085137117327443400413955202128020161408363208112576083533057847975900211727972544913676907233153794277961951273957974028629904180455698214628985421944078899315640263769
6 8 0.0082079624928850535313151983381398959221645434185781748613503068290076317693811606967857924522833958020144360028354944250172316665783328968700770963310392666235475237816535458225598774395700366773251842832435857215010711818276722468242448815371074814433659920807393593937354235163111514754008
6 9 0.029167017775221897842085901560777948982000717154806408064529293167421735774719497778490732371871199584006328414969766274172632617259005320742348127846458829566205283359385448168981677001452076660820633022654619447929708292336306429896075453680396846201642293021986076495781239240499111781638
6 10 0.018075635668173983774858264656474940696271262726842145776771831468470504333328659596412250514712679656790441442436752742426640644628748642043014493714735168910034143439008822623050874217219301518080463703071726594817211768852263745235398831263330466485377131404519003686973314058439598996416
7 1 -0.056178507190370774141807053030278497744336927481105567332474467860290280920904481763911108368699979609766767938044297926417389989632612355384177611746197973699785376782332163209641306368890100327306557327292338408713706890220702470821878295741275102279840318991568214516549644115222160257212
7 2 0.0072548875954058987132811108644575943170602852810107839108840196790013717245033486798568248409683318623460696501815035772998026708492582274061612355745793186747290438559451188410514669510215297895843655892894139130956473566008572738038666807506002112690027426716112436182023653360289158542366
7 3 -0.063382641589884262584293779920651562584526767306760338511388613004092671621564202782504412757714484533008007695516405122047401860267959868962000796735706865871490993505008019715423503003069223102682915969172131533422903321625738330237727154889544992778256826062677020691624740561200228561021
7 4 0.018856304819700760614905109050920732545198452076540869498615168396928938112845951387259134021049608552146509765357186704603664481863203267713206487493062618524780584325855130995332621251352158941321434840104794723241602511306785782946529073803883174705885830830247023516349015060294352621333
7 5 -0.037783181236464802906346857181961770464952445439108091923954976785085992844381629298897671248913609579804064207207366584265379658368152338214301921173517247483894486615482235703499179044381442191455259415467067195240634416053708869967153679274199010680940937339397624624885122652307380350557
7 6 0.00093101290327111533167183264433336845984108618045060730371120498602529240033374256723082822546439669877836585783475703271542659444765947619800155576384273755266638197293008182599636347759541257194604474107333461297481359609265037371747759601741869885425635719960534406759562812825721443993102
7 7 -0.040149768392942681195043967153288142389091953794228352145922787709055063618083351509232325062247910441600907687283925303845186134460418678671849089618872144812349131880211579146822330266702844058981450770859423452699846996973241897570070126271980476253487287419905486830711924859727777501075
7 8 -8.6593235378945207006659855265978980033888949197996236670100545604191951536353356927819856614306124048152631526284281063059717980179321614504117082206932846914596779783791660740011477386979550614568178899995079591320423146983837269013199534032035132247849631710889476714565952442023153747161e-05
7 9 0.10638208816790847246329823223104908537232395290628950835997537650885240987681635261901283645901661529444765191742367082445717361099154497922675070016900727993958208294047229803997199922768642214969653172843434530559472807029214863336368120691669253635019466571548103337908260308004522004252
7 10 0.048755002250544971180870318772653692002137275026213687616040911332074354978687754325193103103202500935614966850417833768165455349108509240271108601705503370697160568634791826198880359746602900701866322082078635652990261230532439185845672460741793518611348294151044713058007416946767786717463
8 1 0.0075516181613148458840783901734726009959243666464503406427738746373380525923413799892447345724262003223627449459618216697930309293760075925447299568396079567753300491406724455028714988556622910338707849803322556850664213681455140986623084196427724040626477328576650763425091282946408202876928
8 2 0.024462935267813497951824298552904535053740993887428111352282603093701281655594428664186121036068451414912121491556110287659145233503788759107059197153764253594573016808699049558873995789543920652326764325231153232521508104521460385742909338375365415555105334051258601494820647910685396803678
8 3 0.034312882341214997179832229101450976577773898550222336256667170920408370344537469985806669679748156282140678574445429993528292847384092582619641394886172750679765890773167136998313750389698821137930320901513528471698391079464444569644108719318167229580156098093244665328810573517553015875896
8 4 -0.0084684895570834478821918501232020937041545602275252861075925755163635427915341628448685250976354472924954438286248149781921790753307143283271310779428220899375556046656933925345515297502095881131693612967710873537938357605156598278971582014893627155065147415972097528956716355636949046466323
8 5 0.027983519078048898695310776794190605721240173087896198886904683825361762351398154965265262759782793137852293678703541278792679084793729163040108985710338211994584962979878413506895678920417228188065383478272683132573870936486939633457648667108722890193205519966486519218326064960462620501777
8 6 0.038487521167127109775214597701418859552265421343682882766581877245146701441760226085779345965085302338703722637096506209758878774725226769831864913856881955114306386218502011110055577097425229510051201509219863981210793728805859070304110176066943673886688108778749858916020370552744649224278
8 7 -0.0030578726508780508963699111915735678393414218497226186746610737326331341875984823987871611806399695635479828948583150256142662809086451456651483227738064770006242585764080142048524566205327625687544888984796515694605147981436777395976345370906651122246293655985858439093650036823070403579064
8 8 0.0030721508137841604094286961786523756190506530785805461927354543905413223658324952046167786022341173196072864502083218341575133151405169538670475073129189142443539386504975493148578704520047214209011683818164137743255844406813684527690562955215139633345288010553577445831547270059603586008804
8 9 -0.062113297337649186019246293146311611512702656623751590893351846789120563345488460785704795619222736374646435800700305546469597645887567313827637560427143911132424359642916206859124617949755243200749366374627394115065663340422390272068877445684163651154780863224794476395731318484206113999478
8 10 -0.0089190298657183769673879024728624842791999122422412305139547644208204784325740589435373071237826494557272367309950229125597286610171942097199463830173744121279419355802533761764128307472245737051797121982579467979044048600698372687719145600370564695398260882055534465723751861878737484913512
9 1 0.034912576090826717927795931292784550913179606992604703378588477886765141343260215750281446659297284219374004631713917009461803013552621098506130285719104929298170870036467364528390226447244164408266191475918778427643531204408031520792013339363946614392022025687747966570138401845148075847338
9 2 -0.01709132324853719543776018655634425810712695522234956246649655266404623104572553198105500915539879665908531569561680800855890934202351821806712415559307421551725878699698963517338683255572766465443885368372323092141242511569780619190276749172885116373673700674281885541943375990790161067556
9 3 -0.0066418146481682098365319911075657641867338115712361206165342104660546384174537779917921697309061273329541281019309891277543422933075113142675218999733652054105549604238097179826764348309451519663140665339366033317543896803327460595111735929915935085877811898278554028986764147869749169816223
9 4 -0.016294950464967200627609972042494651730614546271882497413538785537310119781036801920527174582065877424894916711371108765495445771759806471367625534134640844661318936399743503621483684894984407135545603562657853934540475062516564072035588851415935120225568855231117091526802125435187427925741
9 5 0.010559702676966148429592746788699524377460557515337843632798096541324158297307526835074583343187303941547883610753117437675543890420012317131279322342822799004496519488734624338744163992677738199110271936297940984952058409800592015411244911466404419061068966334345167162560191594358825721859
9 6 0.0079511356025478429618382364323719708591565132715428868707697334567601783460475695765495942030147357961158914976720677746112185287424897718420274075202967957720404632109358576971999288404636692057147720698009138241506593962817154158192706160026998256309382796164782250302664901235666302874433
9 7 -0.004648628196878007252457904471566272377845378939323543989703911905536507244099242039711630026973291374540541983483900717739104024416334903386917020308959569870867294348617766619282216579075781202809412247851592831208014752670612514975776108996304818573194230223487791070316310758997045119346
9 8 -0.01837938537351389286277279677319486041800796078076137056500858331948918421815639945203371679059928616552064875633467275697968513751284251625187327949016889395763959626671493115025922017719187524623694957830653751449101779762758746120327116833648849606377692577277510368923498616945712090728
9 9 0.025285842704369424544451987747159314942608812751568402430572389206706136310138363701266230851835998373959572183133980810684882378114747909907662032002324738224592258083684116890902100251740109296347809615138649685849665419654336903708740098108143290239245960539389149585246814096909482506666
9 10 0.04675570813791290045607962748638346667610298828430263546530343773687439512832864415375299509593403704385417221723412148236860468780265374917168938198485920988779205562648157175506625437709468937230938461552304471634656037491466481897198782469565861956902124539203538923309878216617921974127
10 1 0.033618777839672722827944562945869304641699021798161564506086052743154241928408784047956610251995002456096554081098598873604094151653577260651072811555043609608867278662130938842631068378285724732470094591519358608716914172749456588690597968183489486229955320765390314708151639947344337335444
10 2 0.012448524457894499370574355902601617356678197620749344557365787598373608724087696014788460708339958812504063000635273396033989504307366537425257918520082500180775752100073100365828406361865091224194540154834240104513963788615003710302170237729746990927347560856166452798993218557510966118138
10 3 0.068703175644029891724484478238450530037660901182871369193832222514358349619030589436108032209794424485732555068118302687572861429138665908324051660690362096407903610277225035536500329239137806584107519013525350348977718378130861184332995745399187657290566889872344445586918833318776257077221
10 4 0.00520319091180046524586772462018197237393885227496261469853504267834699054689165356252055827001120858567492489547165421614874073583736296655625688351257007260407220544910478125050872699797589354275296293464561677320059818691727862684809509613149847415539243323775871433743289824786139701207
10 5 0.021954990354071106263736157268480538439871835567749811284136576268170625121835577474748695378322993562628489153157020673980571293184663204383605653030546354362328506754290157673520778353412054714174268012450672647745409691478256999341802495631821870047954793366837591821508217642222434443249
10 6 -0.058438518031676168083472689042830372858844990135428353201374814414811301369780317623150929516886169235653017825619052015728847001824786260055827092354335594885502615559146023711899750812022307636013093443661003539230294809937545940438615817132809783053978263781279114169061130832673913939618
10 7 0.081926920119664931724911756175588796225487177309906694714652130010256061729624075779877365073275937206736950916872701508596718037180579147594294401668259286887600418352235068862677350688356991204512516600987049505715879222668460661874473657539580117155495577856611844237607479979986735725879
10 8 0.031364233803713422834093166061392510900673885810216119818276467684458478522035556159225639930788877669409591623644853521334274826277246696414220823269439332722918598539292124614878293998775065589876617551257547689148426573223458833226634263621643317080273870821572588891008700608791542693163
10 9 -0.20325363414866480575152041990963759141589579818489262698919820629450012807703413944278395893216414234998806778369461870061855107469427497051069125900602334803409404932139717404636720595094872367080118842540615737378814999224177290577441623164480150502711228935612407671262229302217199629796
10 10 -0.16953723519868160080009527146886607646388749098069233395255980831833873835919179820757014287268895647556300835937700116393571612030461662221552337270631055551969787241668564414039813891182933341455139221319004346721207275421157265528308243591822571905863566607892825989068214679099845783903
11 1 -0.0048897703977621614783231459222034201440386521104999283448769313024840457103009175910850431216899598401868562596427569825783027836628786558612398511211236482667292917044313116252205890075048616558239727814393928029338747519781367392112943272268919067062592474075311051924438017884070951644399
11 2 -0.045790962252475311167992882146767793516540972081525807918059245672085954388014406142863470330836273909077215130483914372292050577553849609127936633591032086881051523130229189789286424164837024688375554560709359011821826467419282020182843565175755472549458246002231520612348886319133232039952
11 3 -0.013331448430462432643261713594277719240261949705952539143117035457362682756897512456993111156016573203287014182894964223748923160964877340401615848245583307689565280876732206585169487798864413451612187344522245356911056444609238261639481959350661630887911058125129710179424107063797525316143
11 4 0.049820311144237121498882218105952045440052689735200833054732415625574978675528329742216684066027044899911780860982655991655182469380973660939856284884364487934456170452308883292793394180269454492319164728782246653291258782761204357079139051242233292479145565416918271040767038453571451486638
11 5 -0.022104011119776697515203927127623019248942271068423025348359838049193284365682513205947646163255294423206009164638404937230197238956460683906829389942358079572834737550492692289755882499050204306122529033288867299351621948879555542532903577026864685473024747464490712020537943740435435144432
11 6 -0.026999427369696923164830411172800006627056537032827396894832227207724478788605540977245764916714972235865773071721586392392955742334490289452078878242243903238009025654665934845332474860262866760805271159153894555003298988146834233062641473660630133217576737473247661913945182980318182761315
11 7 0.029810591350387162418783972745569794815520255406130576616631189859413040087504752879982107705220661383163038947241217705193527259774266061718933308955319205912815617159984017264750864911183548532009678639122877930384404761491558540511708960882858062570443601031402938013970571535183921361942
11 8 0.024136111472925599036948425251926373501174615540205780834671461393339256242377792811523119147287498549795216975104899193745262818690911136565655287078533904808707109220832172270111072956181368428739983230443500562095089041366084692428655787276178339644896864727540615953215632912598306417909
11 9 -0.060244573586140924289070045456586877216213601556422289801202145045011421222118223132337881712864289841448642055428870270406008193978457189819091699713280723657256309296379145663051436256808003078692757609436050911338691047936032762159965961422810203167422275727317094778529045663928857135524
11 10 -0.09175492257158220924149590434489393816795368959391416946347795814013637144950363349852729053519621041364912549456275303112995003737383618614293152426070547681426853618842439026358657073406780800033697942144886488714755989239896798171098590003761898537184488729567361876067499960538334795379
12 1 0.0055441682909870660370655783577210889120759728764923356291199776668061341141798544645191999897079724793642582683006707646281499014421533747725447590461353985127334003719285777774147762817883885044705829359421198431814600116517992251567540580860586355414115957905944113373848020318313185943309
12 2 -0.050687413668885379518670531469873172676341834219088294417008850486484047280967425841231229108183903961591191236590613113171106189547179494815356075070259176726757618050622589781251929875846946975835794566293982852898927988999993554966500084503059905588716918183482092402959317423204662949856
12 3 -0.049726281133579704370468255148227868685038086208108090497386675522099636855972403769347027465973640655409154240793775810549926095475746579689536284620098909986326116701134941445548568533306346173805933545444174162747006973423298242315888317754225106284447749958521675926541891410240585929918
12 4 0.0096830441607241804836232403506036229035264148415957169877137603214618590267024165746332210045784327873700980312393191564219570405661367393431458154627777106885788091982470078303484527271231664897477427017813887167403359498393788499458422381288201624673554174284583084631535566417477105883919
12 5 -0.0076739836316544668574909145600044181717851306404010910845151139761511806815653779359858922753409381661872431103250086024681356845424207856929853439298175317082048288851816551815943160333016577928824224251660158116648872326740127101411832064545719472152903253120008960868178112034340361580359
12 6 0.020154059103612978836656238200667251188430215270503392448845632784861054571396528146049145113085863111372785296393197632898925583748084682659004140496352945652435668296297352665306479493250776717577608616136250366746020891608243712001741482090048068357638747319531629732001850005134335872385
12 7 -0.010296309833124937626218881478773220219974380155005568146628446206483530045314257821481276513650411460020802087810862061418832914689830992847384770695418329523049765450574849890462256510973769820416189567945516963397341667919391322115368493247582650485345469930692890709340252785714418874362
12 8 -0.0046906927601785989210085192458332170967391716631042879492382334600435744078466571988151831673843823185848591754263242955608719819891773587526822313349160366024455422384292043329537447074946530833489782313665585382199649900505853883214633637270896185521985334178301824860627707283757485830867
12 9 0.10191617920237767243196369320723260882671647305039432753671205326464943865569049388100274903356869918064662828734212996139081489341852964278789768678568513622631804192725156864204001730311013447123300816890299412705286073791200962044866265761107218923863313064291063619137014819480768407298
12 10 0.065237708282294610517850107975469244273696609512765559304918514877986034242247431092953128643254960495053297965703119074807071726326174933687058076160247930603975059034053641310166096882385523480233642767214171499707459761280511667511581186352113290937983179295183838705360658998311166559269
13 1 0.0059553039941382236949248467151269484619346560171589267287261036610536166250095391244888173998621239207960912298660096433730543591622977474606610463534398483118005112892336819374122766059630519851256110711811871305573899191410118766144304560294654084874500350320071867089517606164864639391251
13 2 0.047400944261325512450997017596498433762978843006717731923083218566689853317811857570712831380916327021798207834545755500083256011998602086982496250685453217397234659351272886489273846261448846777400586112755765588225081736003725685825414438586070790507025159564075183476454640443178919180272
13 3 0.01200761714815533335823485872662319042081401701265148760996516316239335567626149178249564992539338487824790385022173485196201822056365613763197322577613740527830297201675235055136139283422194716928733868093329639200165661374867213433307788035510859382586933314550502892416822917717175372779
13 4 -0.05306249256983044274662654610435691853457016963764017793637367896207353697498898867510160551794229433025389763024276682509234164562312726632891360445060731884454450975346218284130831933767135719372370058235303583923656984117855654521782379229809777019902624007194909278450085267315493488764
13 5 0.024145269484951932162467889789905207622496027784404868753711808725009849583555767782856996520626271041207274663326477022520918401896428400409272857478686114211494010188731265644024132559176486544006604995717544476632917835785248161721784158528009858321788659173186591382693067338096945972988
13 6 0.012855121144808138819918050976642049783942770017189221693460425862571427451072549527071899100806562599763348225757801454964042496998260446302531479444366445400965275385471679936221470464649451941984766182567984344670312723483309207087171096323179827306751267552604332714745625197437048592395
13 7 -0.012859130685865483376538366609447529519738035290790951167279446218103207421766116523495897841197713491719770311443894246067633404578350813132214235322285352961030326177188180004147880733615035710739076308594032133612522092405440127353782719583745766113277639447824851374556749038292508190848
13 8 -0.016293984467206320343539814764731876151872132607681438673866146209793407044884565959459240755763635900624023673220411097684193473375654487527493893234809113032238109476947301542609830748023082467671197854340219059516975893053331932346234446038982986694942160649505606326503345755661471273759
13 9 0.052336924210504513418355191231105022654800579849824663912393345623136772168023824348748697368144796546025795331890157053256572308839016135322606763003559563876598414771042795979389410712009661203559581208247254225062843007324512470019879199979766020162366789900925218844762613756568727129437
13 10 0.069225151059050293878331195646431586851054066114274438256526078759432337959762284739972753662076631328250640175351529960276188549607612807360762387844477407807834061203292169219321184981160042703742027629309327330431068656758951070222458729212713647423489909506881456639549685403974176672328
14 1 0.039245903366429237601450900365137131794368944076277168022887764858492785236087734829077225459497454062304741818183373910674121565700290829140985126969162920282704864840005282554238876060221144277437658319151886700535231495184212851904593312763966071956255025318423694775845728828988243452397
14 2 -0.04889909605400550872912369917108702279353689453515768810226641515338602144296049811711829285768143126960695014046225918636994172945887720781962140033848686627045162276799662324009591932588140980645718060748642186827285047220035823572776614044983855845781989171841706699477893767260055999253
14 3 -0.012056381939808965550969723927607466351261067135945902436072006325435919138748587359816823909127297017730642730795816280595609421747529268797784160540144643361657794987686234128605107051631067324873253912203957854422231453544329249086920377595232487587623918098793972987866628551544897342303
14 4 0.0051530853989204998072863993455362896011942621755780968347751883291320281917731509026472624771897439008962586793458704816488136789367588096060687679769158410772533894248980441038805376574569285220019759777235728407387161932042305128196915848852828204828400020048891347608537339550178436133119
14 5 -0.022635084693426527768517394150032263220200890324465141966826557773976518099052744242172601008732263930287875904735462968114837608439144508580720926980496835485086799608569766804309562179069082849665125179352735547782421935079524332267799110538020568638149638708819924990382396374144370330738
14 6 -0.038358567069433443189535252493026501174901872294086150629669125132287157685090977282791768487997820157275663522274666530705716734567031124085610243923137778113956835260473592094493233938027993702891191566563925703513232861686329232219198837116893934005315662094082903195713370393312398693768
14 7 0.018547052730614607644819768393898053686394771663050078152674956455814350086922568099953697550954905851015613574988760044875665630812154025234202050514394774996396385510099933278495687770892541798770072189696418454919401757950447728385503649372155664833063738903288385054684821156063394495471
14 8 -0.0034896230910971606719645111397342136871742011110837043056670186252031649855171944499014279822554132062434121261182062713077256046313442359205174708302126721858204326833415722039935408499435263918588893759913017362795805929321886843054873859697339245878428256712359901237609374431354734640469
14 9 0.0081924549109418283844192463048779540472604858983952083830764186993771754201162671163243732302422770865038576411663542594752329246568292629450802302831470286767519701683607848205395987178132125533054447928011776253540417175037963497702707643650064724402941741159650755942237125341528906769453
14 10 -0.0068807352966610305074013551445535886069012683161066182158199970581601927686855619289587665020897544238513931325867110574308063371268718771277210276354577287572587725509390508175660731123850634626663953037318283446281191030220944127116371588048299126838153916272855135669458686379142643545637
15 1 -0.063434691596797983590710451967287002020434710223311879295759096196933965936827908402258904808782634919568695041470485724828956617054424248031294791832521744537090788305566285403529903480355650027240427731993417288000189065484644201299958263563884251308930051808274198008009191860881086540397
15 2 0.047596716250767334268206812000941257484294075679381969110273708714994088960498846295181535633627359239704013840641980823020547111461436597024756717263205510498651075782400603746302443211999262115796950280752784953106848380153561735378889550421633831570918473772567226403118019665464661108991
15 3 -0.051503188497899423921890691165242758572861330586432372373089907694544118201583587687969562951028282126025700419022752158434249229606144622283661890863759463057152747756662406821375356655736694436096970094728010520456059487609330500328167251380700452876674901772124177785243600560987022728152
15 4 -0.0029873553676638081819245188231798112495965105179841531749840512036853928877937047887266727687032082986498842283877316125249923262725979107749856387694093426296983801912780224300665006388454900432338825756062888905400983047103787731254231024365224999683583037220473245118021025617918487096012
15 5 -0.019835002280544735704121537985019692860510367070917333355770711712770491350233262201505664098884594484639359604363128686535038011841171544445446359415335125988796811802379315139199154143604712275013200873918613247310202341273736010208201387564729571772568159673886038533479892541919196306733
15 6 0.032163869615954368863288291553386851564350546871628689280777447037284252318326269279674512926262562257983748314306239519412936821146517726785320324675651276651876514664810474566105451950791757067287905211563119807519067407125785646440816756790686918972543283560000372902234717915905463648772
15 7 -0.058070095427074763466335676237207389600276278622683877792086023434657385377763253506344843088056532133985573937139986377850604989886125973506097053973850987200313996804640754880627801724695629837048893693303263138388496589162749054112614720168484629717888604356884110316450590742092727440145
15 8 -0.011016426085884230083386728914688645048985433079269418149482297627830355635081669656467975525628899228016247313686825952166297705038353436405926189185746960055274389669335888127091013835672107888260656360777348519602662019841890611323332845942809287489078578331931098961127925504187007894629
15 9 0.10924324634152349413043991090888074066315256857284986611529107291484782777063905009954572749849408416715583032120790129640788207692967067337665226805436485572128303795392153895613830939375812993309125470032936991310073079708291067790837472314677304887319951490173780557212270836083477314908
15 10 0.082194943369019626209155290843602868649306293764304532324813819042121641607672919577096705028691923305238765301228162710399232473968207988044857264905151364631429276495839485546001038822681038745241918437643144137064646223130240872733998212619259924437542804415621824241752188312108899602957
16 1 0.019450189204425178838850026604712174705297473497371082369157816440884898950691061223708489152410744093760831820232979848811866096648742075638397416462816963413372659594234271166203498412363323626902613341298529846503067941344873931440609704617019456273581481503927992354165425190395970194469
16 2 0.021720449445660276199439803853806076871243439412328148684017855836490725184836701438436901452740529257814565976935929627754612999813874128097085200753085458865311676855245316922968633390873693874618993182665091044529754666197743180422915926276812467218835002116498306993472906545791977990994
16 3 0.029527473481443546324819587343315770473017454525548228558475860391106535972044105909694178963473211417766092804122349311109986090616380248660163293275250216895918607306553817201849342134787991538142018849378953500086230839066546021036588055375229762365125217110913888535650036178217348383251
16 4 -0.026206600105810462584550912934605698961034360402497834418678023889749459593554431479354099086044144091960190860369509128354907442360516231041432370717715539400233879770979026035981914564849333439439409987407368437821826640968548387165482687304324384043048329533084803700992134190818470253084
16 5 0.018909034056927639099183243811381647031460944295289041821463739374394840514209896802593311798543013329314086317998961957864838955947539612232448493922048243912290298366935704504999956393979084139011806845659738549100332759566904333561355163938054930537718996053971514631971278622529956171407
16 6 0.0036940339752254314488569041997422294205506823944101081521662812936529276145153036911106399636386243351415391207267466448444635778211767050610032525786859274243725167697507574047650734619554561470973511642976377952788396212238703702882230070744853888113269059536386563786656457987996777461143
16 7 0.002867753994163460426934344379251948201786757597846300131246995144186454906474858934172363683044950990070372649678559327789136159166393807533807208958272232281621633350431537173317460421170188673798639007425690096906290133471326711484870714494800703894056784053938192522281184176655032222516
16 8 -0.010381174258665613898114879846550494494271550331907144883376673038986282523191042234057944977240027116072491720484220152116483412048725429320604673635577780866725948181598939005364147904738794299115984778457157949505658535718878037945835637576936096617387782489827567360326743191999706931558
16 9 -0.029570827405629595337014563785437544963334243881396751793577172256354495450251742604621477856123407049756523754957873613399561645016204662611059865310528459268982626646345054388911946145093925907890665773475644174186567315162434958487871677178306345373546089623402095434936721390611536938674
16 10 0.0064810558894975793350014870293477630495476169881752872286312885778233477978606270392034993847655222032624044954884099912809695140507257960683908457495774034553878170468159880327618048412210788442117264049137670826369539390131940220731136651956824593238474173208922701881074807254603309543878
17 1 0.0057457411495487925832975744352118809515961244699469317009872152430832045078076734703539350349475801225755059289090452734184640425191903780406799453778315577953124870794889585667075599322904019370389607392945459227853965052564695333429820761084497177170674823964923722458851322204977651263801
17 2 0.030686268320427249918406315305231242796257420880836787341932227590728335941182506264296122447606869143007066837704394185353251926327679436788956328997211176157922023832441771244893920479624694198411417020729133837618498332445863194983708380340646357576910682082263168691180786421117214608652
17 3 0.048244937094518338650856784936804363894748593984857021346946219784882736617255614825400698409590580718359512621723270897983877807556507144148731195431692197131180204959109781627731541490826887632732583438387541065338787534672408377193166507734122629920509494480076981567895447855192203373554
17 4 -0.0081633177682935585073463424135031740167164658035002847951078518027990653823385261174067453461037220484471227725834373304427753564113022297592871852824450310942820185534130256704053414710652203057951379095754638541225370173734874811498633613712946375021196579046316004290217274790798129073383
17 5 0.025781307071697549453639480654928935092712472743559507791906850824222786562517537566079577404871354372356564526451148613063364227301300790230023774744021066271644096269301435907675544132683104827179063756733342960076729157134766003332014840545498348560242623037211302393514794946136472626808
17 6 0.0036624571618469156169482128292881753082465961541657967649149797510215945679377154167762324691627961650536331519874599453103729987401922292398175602538071471203059663904397127220048378596797629360565705777554924091356566086359238584992672469542369425595383467411646786197939135551021356748233
17 7 0.016269958974304630645291008771297499333962546876327277794752306510853729426889029521135905574102313276701706120702315091929134867359020250353520738727444748502942803848280491020667217736866730401304370904130021758138887229350311643745104732100123142513289372667099203155569224485877075890102
17 8 0.0056103050035279781287661910150380486368146294528313371145021794509470963847046689423382700907007348478377608519971360831163014078472245892631701264461371864055872690411801913639141227787374028408155072006291526018117145837057462731749227497688690498190619505960621850655714510090331827367584
17 9 -0.083087154009643636072036727170230011792880452452961198275543567404631467232488572555781094158671150669483133971222633722065689790114271659321583556319769185592205811124820236295721660725615433668193157262817483865438759025164284836698368859601997781634223919991271416167540064156435268119942
17 10 -0.041095044784777852628349020083994806359613412940391087310202170589492409169827035792239037434771659552702312781914482254582104269253105373997235855522042426865137081846655708959267791136805219113542642708715527179761326663275753082901174301203414115495619657315599324568133782380592638819359
18 1 0.030955779014780025490149604402530699058030092935479734642765900328843409653023213950823370094466725781676227672565067701918200999452693419698008950807462050888499378047762764750061942550706456916570985248705554980000961431419968605106128526957291067989322002407138310462666928819851313943829
18 2 -0.012253081004338133790331288679109980622413089410174153854146771387004108599113754702570182971353177913982133549975575725464622559541285005157319613758410412154531412214975782932457292649444541532694638279054785662647536003131404572156321547516685372640073631278751886604402603362443669878199
18 3 -0.0070511332300937245405652392528227451707250400671391314968832614706719908193935500656378326888025599735020908344265163424886355390636719330567244328215287918464185237096306770267322919044082273720635849842176544219759120520740890695525110783375635898584731088378527961414667968842305476124714
18 4 -0.018770211529042493531813654800235693013729367659791082619357859719920645867183895540179125963881451703251931137128880930015400318793111067545741857181366772597567572709650265621213810227446984107906456812471636448928810652464808427856247998260904308560855736501498421137399516025142715689017
18 5 -0.0064887086329275565755282415126457312283051684450393741985269952428158194763650004476764634437640534769779504830948796388974779570943067944454024704254181161164965726142885771347632560420594995283325755713559754046833781521735929117602815022002746844079165313109160104978691440271710514459761
18 6 -0.035191691856936796153720337245857034910520101016924145375614420217561923314352572411912193957067414823646324913661268378763207959541474317172990310788308572292565559666711034057949129457118820670799621839826783129025782660723869879678023491722777056389970258327167188776694584661188435071823
18 7 0.019675550619084497469126230423612153188932436481131937426856522702080767207809270276613520671447410949501119666800474424890056503994480355756236829296410906637080288249061247592181308676292817779921317776675161303784979907129485049086065115046429609034677178012939293067426705227808004166584
18 8 -0.0061978831497332207798090159705027717411986401261163763964862975813552759794439649207665855841000684212640188016768283117608902573423084279210081046208255971797570277549057070186479341859955165807634159820216613400668369144647832162412924762631630737970772145362415089537792764372008401692754
18 9 0.0050082037924724330132200121368963091543104863270352291511272768598327546437500037082750487833688692294225625376744630967644700518347052382050286929464782099791961715828431563851150868702696481391175744512253822806975724027581431490716620242686394755316879303610954063555464431665066382196205
18 10 -0.0096449614373512025132921633971005624330254348682866923784024673351698270333402836151763609089963450501382435997407857195880662147845501539091186339702211176450099640116412087910784723413883635258585026989768477865089752467227578467833595696999078441604534692840873754853643890468331959253483
19 1 0.016909785642587904798836524333437978569167926435421400945905410510557251682737066056073140627164257184611984949074214958117777282214070652412925144430699054552335545926153196138103843591979945848606756866154203745924848216037017698882632746522605113803576330815110556985895096874981516612075
19 2 0.033575389800816818207971061179358525061583240595794002236667353596861733931976804558920622272565129875016078977364801462479027998382877769978991598511084154947138879672126448121493953596125437286529214368251523442762087628286915007418638217821504353920926472117750925108105490998296418526221
19 3 0.040369235654268141201373401000869680069892051146713712014940158270990687791583872456446204698076142324179837592624137426897644241782284656160186324372046539846365305932751802265664797165205404496897113937929723705205475945297621157943370149709777058604096968335854721807441618603856689325584
19 4 -0.014394731453566386361941475576745674731665350900462860400667397983128539343332505423987213725731156871896852277810854131329762784825243997988348644969138928407047190337101586074361311784107985257545551158889474652806799432353877639349138676820044666714737935709330732078067779443846000305474
19 5 0.006401524368773802947161164465613454884544230811856201208490918623144339705187520171762721107558615334626031515391881872258225626545086856750167444803091056525668166387996475229494652033274995819034297224556092750710383696351209393576690081357470946080732900812259081945222347547496621518769
19 6 0.012109697828626206966952656811448071073452463932883435999589301392550694457322216326775406947013716777232384995799643617004476028465959733130876264452373041699703532008585603393275403111603497816011062390399248535653964099620765212742620203201173480607583195628757884627266518730153231270047
19 7 -0.0049067988322899953764158610533024493941842542942526310471804044291531063637300634151472194179242001450606949338243250784406785970509953960622981052933747154631437983563100137236907696393627488875320018064059813391624049867528787008721637834616887041455453097657664575895651729009431232931611
19 8 -0.0015112338561991577105344558757862574041004711538307583684841928840246183869615893885425518181868613615977976608248342260002956778778060063994372975382490388664217379784055694442449666535494565177434467115303903591401571317115472343997595833631580676537647787906656698603152914996686435466584
19 9 -0.094495162814225968876055192168125602659124663878068537986054636229137402526540163832067241584221646881093532070869802557051227512859909606644338276147537216327106169448682752134397846104969361318420139981009416861972441105563824367004099285336312244273662063619300106532614718504324313240182
19 10 -0.036829683820283362120370049722492195857569049749529154857016014475424806377052913155464813717126166333618153468510542196421614187100285560435655752316219249040177675086220181120982813098644971439954512532823954317364324262382297690580287063016349841545160884983090681641137326000750026407902
20 1 -0.0066923405298914386748340762821594518812699051192976719800328498981295621049682292333289464687392353787278201811185142986210434559145182556546597824135396263928628442234315333632597219808841867478016186477009027066932955581561917618987779645027491200461257394994829111498245247652634778137587
20 2 -0.095991930964189791408225405783310953441285563367170653908347214554815370971179184552170551506815215945132830552520289929128605693469456481703654318019710771956088854832752514506918246109724750751328297694780509646621089748764519922217871987766598001876691202194078385912935865647330822131121
20 3 -0.057479415281418104717116160613379085250622622433350344765676289964901750970515087038196096075355458123749057384162523516094213606359819682903045220542836903121092009866073619012129523818216114314129021978114938539374725103911362743375894162534248791955646229314539067504092350504058609273605
20 4 0.037170425982488054996573472345074570589313222123562252954574719213404548287203557975457903333561308187619520139759653818168289405111518082834171371861881717897978440133243623492848121702688262294328983391436450691926321084881754004190430477967440901009555123033641693409971775872964261565358
20 5 -0.04739852713095725687943018362224481090337258939591738123141901956732604823910921733481083214586066567120329470962100310552210496806102234404707518406728936176687703164021490861589312971710977508965040771659433418610279768653332128605073180258559518538201994898123420734127023290806168826647
20 6 0.0040834260393621465249561382076504577591534440585611524053060464827560836830254441335079255738243093424149996943852582536209373914548877761680484370348201867019545414509028682449407684203451095907242097638339006467428565090324745782745717513261425622755528948563410795512816037560325011219323
20 7 -0.017967934209148274549076554719918160483836433262727102964376629803736927653695044313766833398484650430722280767027709047696918947150936098517300528146209477437234958778803804967830127695769367974643155699980625403428521908524593420432585821091166756714278920190779125086565048931708757483465
20 8 -0.008992687389775951536829186478709758228973301005460451022113465029790926946966748205819180973883351647861998620402517000435915154657667074085731773892887727395450917701148138603692170748628922647795867610519983250807733185055626190164491567830334071195114413826333264057063860899662164275379
20 9 0.099878357179777350226957751785736787624224981362112265178696150862860906456204461392843258692289123591018868984904139638892080670888453653933684407050192013380227194173956187223417101428059649491913370481059947945604253457483816443650562865013400185788536606693786986980181626312509257511859
20 10 0.046558430885000065585876806967964374155906725435117538210194587119253459473793325004273569950580508959553514944698186198571901268654504338438025410391231432460077668737911841803751610363496811859644356188324594762008768567933578906106182704033118820906451854329664765658393778470781733372849
21 1 -0.036240570713669321947503692067118163118084019492960540789666455145905920772118303956198944328181164396756356830374091069698916391476954054008932636055710048265911888216218683409275674843462168348427476151185455325064422501039919851893842803427904534633134128766455068593850678767661590820409
21 2 0.035709071491373257575374669327024633119823597270560492767530833760551430097563157959616735762459413920014779816451042140742125608257430622579629311969025863176199540037561360737100846971078440811033655128490789774614939632405131915942243352265704127365352409671394403398173384270575549449896
21 3 0.00014295880825420232581834706551094833728452494604079915660592203166313021700835752544468936533120519540466722274792775959342008192650278673659907331119649222216224186128518636652525578107457386293890501226743658982082416104325452587152412023178813066453836592734120176408903786264387719770144
21 4 -0.0012877122029136932943151625648568295917712271533831326057476100164321395261005801876765066142237569043483598505610561764388928430565999817861892174443093022101210219103514260565951182609510300535363547153771483734640407067729717885488270151177289238104293098479164745447956123775098366082239
21 5 -0.0088363556134790847847579069683915134058740190926639662074599107936147682657585004794153340159470235745459458968039132441394306122485281932329059565278307555135365465203345803775875872713278773084513103554791858448613517374435470418347939059500912852309080239213470782662156177477290301735752
21 6 0.030473572119098531998058912253458354616101168831137989553510523404464085447548154756278382194240428139586728493856675096017765865243293388761480579059355020617499453055888232756321700863765870361569542231335646599252730990907349614801886000688771225813697668618841188883798021019133130340744
21 7 -0.04929411012344900367858227637118180339404428086766838704577504856422087467147162811136422286480896899805530174527343375089364597085121579909549191507631570819169648704704811510093731601637628401207043267439451432587630088136662257350936130773412597392010547479394091879071811569959442750554
21 8 -0.012371057461588797348172902072037319559691726546970016728221576320808502766967102522928046547640790608956039500624826683659162111434187608365757480918509771679300074348685785921311847260509583818971806710497120391503347762187106589740628417337746568539949542340083277698370156167541915635591
21 9 0.014032385288566933474888549476299952651359102207126489993646878470921692694174637948194172181370421718075280121022129922945446279094227714934690352657226797289866841445637770668745579222144398556897895236161878575586405959393223454067904612997221697560426237016890693377721950973227940460459
21 10 0.031669368374569941041358547979931608682535786761304711932448209237224187245969186333684427461049188116943633425975876517456179458277611164260565922515308389878279563053201312253824212401869158487527596940858335693865816223213531217648484720170489165130041997506997462276648363685359342340372
22 1 -0.0055549898636603694464055115274609585414060852426088011264235719743750059147883161983106864195537182984198690102255950936600818738806778656357890081569823622729292950836500558829121881916969500703038649776868730916054556101328497508512434757249781226866718828741238748140667827139391374355655
22 2 0.029677680745918864917205908186791513367601602686507686802475199040679466023636828212600011574216834756772532238697355406248464315196963906091852245021527888040235782571762066483400695341140980289369782803154841107236538981820027589927138294963717991309788858191790486061069557091719276175316
22 3 0.042321593325108514944696937727019255935298130477339737527865350480166525568440948002793725132982986695294961662351014822090432583683592806208288414331568616221537407360233316277643531658364023390471106479824463588834658964444412231086253636001017273509309761047488961485752774816853477618422
22 4 0.012419055852672062003183157975894585612271503639547277556579997187188266715477657621452052234589141424270522538211773215316102101520081502747970610466375468301302109641624270799859790084737583053555936604286363472773560785779903455737058240105689133417994101245038644619194302471749599519848
22 5 0.0038378848776090600251616058787977660303581091021138914909506426578231720304544322174974402901570317165217295426026577233755401273301091119955916053927153833085958405607865474254360484622523249205025147979086884964358509144819435150970397647561774230693585383427799264540435081989462212360692
22 6 -0.03941532811016077989375959589804856546440422864753452971190996756717609972386626562139316248474059107486125982839442742339043754477162398296661441651343331172558399422474673711059883246959521015037458346969338337715281536783607935472943829362352966946593334558289153939505325097027232803101
22 7 0.040143203943878090160511365980831567617940283737267074198404500845664995592241439246849030692576873914027543935371334726887454800521601311028527711881750016016798588326434149387265558050098475555546071991760152374020636766624254051429292331361893536741025669098655164739494889655014594079199
22 8 0.026354379427503567262820919089954902807262527140419162791770581221056439407916943987748915211538456600720521563743219046458140869732978364786767206743911420207892884357480943332499596409507357906818649546476112566901299951160373641985215206619801269282539609462765429341793788577011076022456
22 9 -0.12941085960951707281606636226180647304928205881324085764440802221565859726927631145668586844255110264416790422014776994463110266519830417146031022298755189692583932281293642300998923105398307808778268534906169398845804177542525499492018811644581823065952149216079095799735946418153316552056
22 10 -0.118293391185081622217118501086516087715938000730992567771065390282973523160578995899362161944402557762549105420577137954204302306894196743408312295171647031424957695808582596215600470154117446118767082498617153550298412962128097295023739465969431146609219043117444675404343076888565827044
23 1 0.0066682642000087063427954129202730142231128520269585563881021776073889946097204481025945561126837463198383239920460873990257717384971507834906017666806200314905507778838674797081628146737824577935615286201649404194505325783036057578636526272028210917666822199503586812684026756975302668097089
23 2 -0.016176581335925215851680810401884566356093957439338756739917335152513591922318103114348768607654665614215109990346358308712477524688525192625941464878242282143404964991053160889838902083122094554944266805937581752630573813768860088929939619988713036422297136671472321971343094635779925908753
23 3 -0.023450945029886888669290563254048022428606236211374356559003414972082003128386243293431756637295608290669353802777082026270374761050311041466665881360029567465496909322599370924820138258190666641528491256516276737417431531673035264791031810544146019916877520907868484338583044838122484160367
23 4 -0.016389214650815225850117193948445575532791575937634146094375638808296674986204152010669964996323684643337004451463416355659166882979618159823897359879999142428327848898371061550632787992040308929554918201592894529012954825575776539939049473537593563327363663455038938102936082332522895666654
23 5 -0.005995150535413136335377340882736833130940058518729539441451897706555044609455739239858898778318979736927952466321552285549260739109777800141014372900810754219264209687139801335034931620293299983365094580175556719394128052655064924310448740642357692409388625694680438423602405611454260663007
23 6 0.043610547208320219103879281549540561497169793782672307915374613458228276704941725288147658843564131267426396206858115418678934677511375129843312430226267122664196437083775940489350005858460174128840113620542676648530130661983677152193394015156912133926837736269011479063787241232752002544498
23 7 -0.046462020969732361151301215899021331890740066431313780045904469550750697191172609470907455190112743593758760787986615382282505494224778741256367619842176500965433329107212213504776392727308051810165481036834864336415924774270920216474981479396798427726219742727465059408937896607326308306771
23 8 -0.029846190704810304427312215148915212422305247119937378914916989920417457270546209580905953859918177121248674489173447699990972994495892636439751039211384446372089086929469283943571839637749037695542039418378943476622357476522811403377801164870535884765495577149680553882297525248533951423839
23 9 0.081949100967920397519810543482671039053061175524242438491094920990095964546877633460609513593004576493666820214342773603993214111248579852310477738415493510467597166812703883722892658945301256969425664932934232674392348506275508296821250207612303310818391778698226442534127687348528902089082
23 10 0.099584094412522308043929638856109191694970346579586385943185184609466480733161828966593331252641363719365002683283890249586267907947986584723315218438226174759892507894290588230214298567688645562554815120775309228456928029331099775943300557643624276919311654415184900871804115653623389517567
24 1 0.0089275457303433683307596515065254343072809431649878396404491322442674068954123826401263780801482958405377412330025019661765168524474526998744603501431286461767048221975504030735104701491794346450833741686037818601251821710039719885394076941297126884020820905734653022524197849504645731917038
24 2 0.019550819552073537838839616303334513706070642528593665044305792390202730012857733534323698165278071582169678320677745488887973659477072241064424157912037590871697741599712566242320851179121549294368135696702390927381358125543615879741710654064827297733264606628126185081117875361206758614304
24 3 0.036812893159271621335804133773748782297330470657150702781227876138581409043192203104542899058137739610979901214573163740790209419270421414522382167316409462385588953335118251469563616945279566012423187787678670829817539985809191774818267728043575429863706432502446030318789262735612141900393
24 4 -0.027297377365777589429742301032262411206686923965904854086586624265720778741446753349891894046745445552652621320940218623259559012785595363981756160594911743646183124557237434097532429806139701259788744751849847925620330038257858086210797506615449932830379913473147283123744508149860636244046
24 5 0.0055388801386054640147663711053109922580712422860536377591758879503237326185225965428882944669915036655016898378719312302207607068505552980036789945707669698474826496913068477958016463306249876500207637962846871195422144505067932705489865179469018688536714967674850245076764156981146358086935
24 6 0.012276712397321214394384606393866685162757638412414418913419974984596626173068094917662346083301112703700004616599021806061239948536682629227567384344349812606982220790586891611832650007329734568436264114912591401306630917772402411744061846805081215394666393336995068322921749096187046096864
24 7 -0.014145601156830869112600618983549728458647554896680622463730788716113566542469623296622530442605003945504635269051100097837538161716629648862085007392852053848590419092340607549736467788019753387751711093891145892092464349318105654128494506566801576144430264899746141551446093057095391151555
24 8 -0.014312516616955518099797691537534032789405706683703995308816421243178424984360762410337796529769967544931772605042882652845458469252371288514274925613623475484565896509661990536789057177471758321848292891891335271865403217829291282857224218085123333432042420149217519084546595496273804016897
24 9 -0.015004298397207498819536463232557347581428434986547572687995287732204341900962898925476604601087841199600546367888469024906157473080707571361058532376708935806025276004742522574634882212775585091161949858398569801642012081981546576363145188828791714977227237238276676400486613382006319384759
24 10 0.018195613119240821925188997323726992969537256959827023443976056695136618404313473377117321181167551533120912801134885514485921035074781112804817146433807947224436482122029353316018565237177639970464189297468339175338107614831858077557125534599898888900145516026542109779753699149472722418336
25 1 0.012683549590578474797611141318457880416552666516925544603835339294048801593044869488109868685507357439422023185889385267051900044172991152228383226649305891711568095154795175786179229482170415133474166826718124548997905353041672130791315457311649432307057154246386562189502330135261226030284
25 2 0.034060102546234001531787313668379681064090070016870452078585643841280617155784357940083430535671073215442572720235304865232764274793404131956509891349373161754071030817165575886735064805791375374934301349500315745022490557073523106380316448287566000676982662723259902822161504851756794793658
25 3 0.041494905142565380610964514103757044171718417355862609543381373040604950129098250924411240537457343728348222071154318480485460998651531157800082909358701243160143911967112231159050916882669128521813649500832151954228745972839752049356581072000488651502990526995142991585608186522155232283599
25 4 -0.028236541381153970197323398350129643240348581176718205342024722756757178229309132480773838552347029849662478028339085787883124474836578447306694886302748122022878096075464607145989954050029366109154557231803941949931435397939060350109462577767048117873263358339722848352695434989940190594627
25 5 0.04235019739764424908921198927686949393090061452633434150980524898788256873959957260966374549730946421172592481148540348332742993354976408346614234659713248542606718235117822893679172180226358607879373614101967777024938280545645971872837483496216109777301075778451038440457111241346147240264
25 6 0.012804353949082172874248201233529508090120384948177452668416505307824364142032702611733119554377759497232090199500793405747294155209138737761304671877934974988332220520161939196611171728986434608771340178440204937051186408365825304727993009623508423782769947579648227248591642997856760281531
25 7 0.029830396722083945520635743950991468072575497520869205441112556853178605437475405894513887378287448557996316322196711693832629435687372518285721512804988027995665514938649462578461316590429771683067530511879491786893483968183856610425843575568532369794299771547820867156594419292061147463811
25 8 0.0081835482848826448082723619833316859360697763483170219361432760844488169715811129311547140209672362843271816368413622221582648178966403761773525455604926621637582747545451422782016422068200628343252683714864712617836897222682396336801947572329291604333441748097434915606272034960500363957851
25 9 -0.066196268389480139267440484576268106042722623523348903974781519063047735780671442984472835864406037577002750160686247258173021738100699787149829754604076823104338999248375788895022472172444179056361536970433844697639076384758141045948840615780280706420768829025427898796048445623265511489698
25 10 -0.032575968213524598232857715552622604267818138794635947831260570719956591253281586185792769514882239234677564552124235216408375495243065803573352445441060626777900136212309946400092286027493574584351814233190926364375211369913318155798513394037051588305832428215263047856178341556798876099153
26 1 -0.022643397247788430827729785097254364287366193040117484704966233555755175857867710071461247950081078647612083229087510256656329532254062083878723485411224270550379070051599822987064121264717629703575165794656317857403407022765801725748937043650351889743887708556289091487004633235146535847232
26 2 -0.0057790239705473745247419884612100027926047863355002504646262089859711750162294721074952389848681707846663925580127099581701596068225166627911854596101763820518595996697278143431905121139662534101362276911883461894558430828483358887623764612207689913299502325271992848314776648343159155095996
26 3 0.027306464016175011013576130665574003485943250366120025940946265053332095754508108382550136914105831109390863144589014133672158463745578007342467636064148908259539732020182041285143064911938671300820904992921139750057028648208107445968408129902678857153422151972042151745706991874318212803235
26 4 0.031046451549741837803006633379886054424653746180711124643252101484562854369726325425749336747917722294384097880479429473375503480181290822025861862557700844077020578781096262777912206736438791684152254158880630440756559828827058231683384832681806503251563485200194399253354589051497813740122
26 5 -0.024539293356588974007841126750454357249299797741430895532836360314003055319535695370313922292193357776151881557431555310354689316631541704242866673874146830457006527980404800150658944033275555501807308947301713097684020055051589590671487900264349590342594560407788553133881287348656830277693
26 6 -0.01635886916815171179219735477525824632052191250806121588784472060101177819172022915145241269841409631262470819487163444333498553101703803615994973378245303308862480654609124783326316396939879807159340164554429411784472468453776664459778343318254508035342112707767732581048796241542082138558
26 7 0.0098201766317933485262930176146865953209180003335198057961908806320690199494539092579963451394002948111755337670837004771268181295913713867711205129816786752615091247932748330113118143240712132902956597013871555797478948178687377519212246070945554300756780628714806913246501562190824972716985
26 8 0.021680629067802566136976433872775590171674039673565044492582087617843395806612571266526774223470492026693829733547369786852699720562395996859107810477681508898903724694807604066338149547544616254930761740134825462403119974198260291064435975634140587399134558378076157763643053554194983439103
26 9 -0.10265316001473343026242902514134075715843857274075493526727402599618818102581822078761260594097562640568116077371422194214370109175666701467796507106727884369112144726544719689931696849296720041815165544919519508546061790568485670185037376136209882534004291244927246469264792741860652319928
26 10 -0.10194008010045546096200766993352895805377786529487604119183376157803059273216827003892567108858543243560379972053550295446707648371893362710521717782451507491426873471104809874058140940656203314643161260288977436238991887246341328439195858720207934209087635096009347273318627638752407625483
27 1 0.0016764837374819983987253702072011190554480342888395918608341131288555055931763656777017454246956514870639978841439292824459768640421473247503705972933193127692805027912059421712700834652993062651022719809892865154930302650913370773261651370702309331685737513904293670232955456425595180827367
27 2 0.021459317479976793143568835642738370530696087512708980613986605760321724153811145908322108809984773240669456493610617376487646144757132247398065230737415116284748191584795887583337375497065287724935092237054326778901403375219848635336723818587444713694218644692241820975039351607415949946543
27 3 0.014544148712634869705820853143272865830936968737237726193622431890092247723907239577942963484316420998693070712846656523393535297358846764981720542511504149623863648802725702797430386516595788616684100105120003884923888185537654423307709340996773988477346774201004807694404092044897671781708
27 4 0.0065938000633207376854109371402784469501052550048459118043440077796008142902890502850812048721832871873254120131045982212693363239749274866201695430787610392623726231057290836251391134101053782665584131225715482966153567047046664847244036247230595297014310994224062573109893892865869684452404
27 5 0.0046110096211347343962592822752865205162523790983283628593368217968461460637226300313169969660457789355512167223446113839947163939535992111158894304660161589010232070118190114201034599078799235231817516191658761122756343942650685208650997371967183491671477482386932249219629222847575635573653
27 6 -0.0050303065584755338448887642633183881878642349559345812959069423128097299464527238114499274721888762683690988662777011503185216534065416172317013316517425068504851982574958534921440346522334502913879518713030867373722121657151721203436101899382875447188402570093435844772980729255378994342507
27 7 0.011406397869597655996559182387639359374715141845911755856173019371939888894521991471893296753826420097390124961104942341893849456719121596045643651395653101301817687476248083862926613342741907003084137002713031210823633370826737852426987794522901149940661112177484486874749841411799983321154
27 8 0.011190243622805039790887705527890588737181956970940716604840746920416350922351802699466410975246999405856769101361819138018946484133575212175254512519597367511987333450701641506774976999939820673425640313245960751737837670623966155092202125648222959825791168067069415898298347201024241516812
27 9 -0.058200105895708040458805013696180513894614202450586116568398040550489237770105296845550221360958738908771173849104328706408556064070206991531821635695714074179305332054665525379721744351583350371840735132783839356128104702663740521692795528015568199847097221479048919857069325444564207509686
27 10 -0.042933118956497806771704399670319039637677843827949816246924823809742459004759204219935253550127413706118632869888904938968238339252293796499892669011905447438475686811880478048957815508284555693084053828109050508366246080721977497919169558118704310353972242105314319047746672788795492345383
28 1 -0.009998941766788226040653733081638180070241387077513586229727090642538526024857761549718165916103628282440323928073887819478862314427383978194475921734471880072787424062283577493961166970508859752493865927050380426116861928978463271716398645486185487543394646827537253876647231080208168182387
28 2 -0.045644707751390710135109528692282855202118234992818753261798528906757769040580949513852157458640901551367953801604518979111415706360369775313172220444437200408443568861749013940905503663267305097320755632483917410841827760233141007862777766455820501519649791324715444630083498821177614830995
28 3 -0.017839349783010488321039759804225344835847794574243663973696388755739326099644867785497897732821449276416340228253224487268709459710497701834064708029609151094546018919341426753815015860221109818514560695369288371350564559747932298285401270536084697028816581319245619166233243413295611214492
28 4 0.057581694958017780902928138983055124118378576005464387524014263518496975543580316491857120486951749990115692013415889744467487169434326635925712937237363875033981636322326231443561491902137239132335036680109396918327577639036696535680889174779679240630744065253966208771538928585164929225367
28 5 -0.0090603509637897199139656612806893124196219023019458901526369516580571976175833783802236839749656470259058366953884128295370445327548757828916150981542269561805522773165134054565640519993558951532772060211999892644216717725710350823553367810684792944883332838560412501617751125197358281675428
28 6 -0.015091156343307606490824814151619723341261263436329358253440389435529824274941012926629725985455882860747462241410006881957305146626090736441009111380663265645898517619960192393526867608271662115700572298837594565855982772651689900489401494209545262208752323617164515626601865318961514304392
28 7 0.046672912495766402202181260869632560175002604962596338636354000264956867232919387771529776269320495907990950129652479500991751339597291218937354493665965906619405750885017036959877975250005887629569071167268582856969603708660269723247483484493727091634612709116553519057342076807631425011811
28 8 0.034616743759810355772195458044075397882078709853711345186491062910035909191586046210986895316207772324394482416821692884610632470174353545611375322217197395505408215749039713101298233692071825067170256879696387516976522518473643254238675415404536140103260104075629753025621152563209141630858
28 9 -0.084465979398145105999340126010090126962956037994423700781822390825122238509512302492213018756279688508739310834044173013811035146378801537439032997866823318977890883195923119437410524966294608649298315642941502763302464497179779191501081945700634097109536245760424022335981707704208625735005
28 10 -0.11420595842752326819545787555038721335373131567538753416139149355852555658213921856393793068650728232824855486587415913374910794616794559832875326437948132411643929894965446930303987030102394668609143455773126167031780970003764485058365421994677015147789433003785200766204707419335680203855
29 1 -0.019733196326605274495399856470146289853322465720904712243958224520031449649766086668262560220422896131614469964708492247525203268246731988078507209342016715382503115513824286573486524063353365382345253437138182536757305345378159441536603347997213611600166128521307129958849744422124098482047
29 2 -0.090851201297105695415480222463256086702097586382794872935051789629672892379743184277726755573412852300981748442175550262245059044385252577784362466244816934410926927888658160231497521388579611961290642489130918742142766630514214120212480999486402038695065488130577028750123909695364724339938
29 3 -0.061721223815359879045701773962383228379332833886711277546937764825053132334012859807567503224975210120634226030787402405257264504779100092608740067824562280945872187975766366888326296507625635627547363774250715415275678601496945821184986802342289779406680918562599202462303152148458427368577
29 4 0.068330503965527177869509838402529615567355079219469380926955786877232633495275566523749127624787903135553533889172626372768062799397959671787420228773601377805772025060711708201409751401240719286986718797445982576524895880671579249786573729267452291064851278446873543287445649170719403089528
29 5 -0.050517105798989554890041445108460597340039447327307253001472607795763656320750979513577808570515367634901097685099035876649795450991932745088611593127888098251809731873188492496415421809786582456299638899653461972590818709112351257556378152245632471199065585571379262012786841674996344913714
29 6 -0.03132605168816373017150702966721953092228704635202367950615284546165814471048292514289227079598658846305559338502189104448273858874491622669642115782842719562579202263106720648242697083807074420782539623511010817853206445924595420418279201054681268978227115351583593674336896210743070234215
29 7 0.014223528564094860825134241944094318446475899496965153909102372815148515669149338852344736842930272241775514291867704377276531841613161882571677476255257549662728356776116505461452961215873183799885848613894549508220982850522640966951281188001608589755401340182348921932340525267665744327164
29 8 0.019159839978104651520163727662463797298486416498101663679168556876053653119736472481253989456451559253213961058314882651546197273555023286391476982002036592887322144521549261019999508276314968010464012594239712078799290820356981533336675541111094635492845361247791644623524874395058586828238
29 9 0.034552270050440760873563113059494695412273836400143463447754977482638369791381139427546723774138346496229203250405329219610819867719691741404170494695996608880871132287848439867670794067958104984132138509925746531671790120923165283210492383144434200963363805069317136057943568628608853480956
29 10 -0.047524859503835126221092110389773633682669606397055247701451699341368194334365491161096549869550116652839162737359854280591300457647515700314504203600851009691105288915821566276616073306417371012521706540493936819858004935689927943001056674692023166398469599220845038575646920915045253304359
30 1 -0.038034192238922663720252821547634963750183325361536986272094503684700893969987351766442467506631860243235852393195379368451222307839385090042073791743632491252183408083752943358393301812932695465771373893379957423358143516206376944587651073517770586801492319761714340622742915881658612897451
30 2 -0.039897273256836201164671711455995807413581377444596588998752584383441121912529139502484531760473591836352553075761141251630991041734386544524524727607881565797834304579094629086111516503319556492063922172124879576931285412492691849056678584837272873199634228559729143580086728903083909184231
30 3 -0.047920966471792687406066981746252217915198400383757843218947679261916445489977150079704422734375451573839266914518276023787850154410874228485861016967767092807181791436718210139136696561286503685656649279685352884190751825140212239575167115214156639465017721883984650064096159971164935116034
30 4 0.057282636479285989939625607176711399562705839467562055877864150507771828156586194349644331183086461637090243697624001901382513121780724225903171616850504391833806970696916454326719650294811863010847272440954565844703707510666505893458530741972867638519992942760297726938666753289519720519441
30 5 -0.048864205331409692150542509106947641825635913831107745686359148069255666921163169533183766152249289805962231492158563045990643704224747707737866988789660745440936346126415923347464943942526093797434744246110972193219113215506361554995787412707475571756266552150338967125112516931280346289301
30 6 -0.0057228815728332206091975498464662989962180329083736677884828333653718232566686442334400617546405754397952336461004095137185953549223246371383995310590962255392575333037580513223416476616368600785722982613509447699289113154196936557522096121212166317829257461796774122713027423601318328221537
30 7 -0.019627092795757459202054944722550062713409413004354813477676502429673445831663166118447846051730597711167829570154815086202700353900551588190777586213353912765397984185738026304396307682634856923184173767917307635602192184036087599412159408796823936721395198106869060821251143181405385989554
30 8 0.013145314156220733577409558103667268232119370620886049885412884212415430312969121061256069695867668319599507147735049283143531705957880076261568971001619247211422693766399841959215062693247611139041654867674072875825519370151422373082129839405485399892879602324065439547442833829097760379323
30 9 0.015313751028075630130089850438299970857695399232922706765578262374769908217617875776916178613952170200238352350073865680047687880584563459202468744055006271062539469322898987520248285975814635968224052794121423672730722363227516934838313438399986982926523073662253139212263848027152097184191
30 10 -0.027398173259602704575350057116969225780062191115615447455719415935157513770245001359180460440923663119140136025555953601155303764147515902282161420541121673595777099306916930431126372190736713553630012799380754533667604274686823926873336307885236323882774274299641593630766961669729954650281
31 1 0.061480452184433848056168655990923789469622617606081434050229648499704233628412501544184128212778559400980945692514537731973340132297618082148405710838816869608727575988521992973802604404972106215145186895625322733392138168929217458359801671083638218648823518933881221429885670229096690405366
31 2 -0.0015775363040678599192873064103821566031272304473506645101935832154590974809877625796819929291761284537721846744282734816288524272802720967926908022959637926865549917107086057170905308385485645901744845405806891713215652068349811402482472226682262848798863861056961427543588642737383370568509
31 3 0.022318919876778382172296717693336362478560894190120177593325336707917234117561674683754265727616304585557581796803542390265046573487723203132979901033799546906053887105032086536584865327935891733511849627321444736472314192607329705418906203703676291969379875459952111471402862701636679660856
31 4 -0.05208909784315552027417731602259327735868424501181086580012356393292848795685725156575205278963641360781363347391043606864366511495361157564966296157649466728170206947779170025882322469555465575812451410712795698202382197394669762269403825814779611299188356146434632997770796996057662011162
31 5 0.02086545819679838827282134143643119127170928210718587410993097242325057671898045208611824591671146522324830331615048921730189469087978877266393933967029611190577818331606241888091147836210466792062038922209653072465764790283306038072302389288603210162564674664270271176704045744664863804385
31 6 -0.024743149197692026188663199914495015710856565970731236305984026989618065261894391676637865766997873064084558684813980617515315130870284740996266566830856536352739736628807921549618806433294941826753988891860840730411601271201465503677801416434160091095458491393034230406490786707408144337505
31 7 0.0098371371026873180454655497310051578135757070417219743397730122488237384059933384541001770371977773978582806347410987966417540251214698052506537985650787062463774681861214440305638348710851318169343362960141230583414622070064663837113936021299888976467859318157687042999483488520332358075614
31 8 -0.031725239531571904464243859080059042111810564018172763819337337363592241095937903143114841544146791363619172758598756603677905056433059244896944194006113389379998325786930383873243429921269383349728833289546953012301781359046491491219559929403082109298280889884842747889667920579090194295174
31 9 0.028573092242955271897074215620277024978168932519710539776538191294546527433462310966062911275651946282927924220582670543278411091514887313962204753462092921073880050622461371231709420936818327325522138356809921661596223674184370917317915963702476448645581374701891311050198910754564628020128
31 10 0.051561626659991477655858187738044650389332414901324969485676240397407256121069889850110390460127395359842944246952981910247797171755157703683023129360830056491534247663207027984376519361902273142100194234417017447044594819075727053000262760376910609378779689990992214988700222279327936487998
32 1 0.023312550211774499157882807872791589409195354260709673562094521992483098829709567256969206769406914981691986807078219675812131381971749658756548980933915143545905640873720491113117981885411531986048979410310112990312576847330741930638856643931484321025148938605604820077293410707842726117972
32 2 0.02119618961458848177044176192530319386073312478777062063332128025852157667599742283377940770740247389303107184171076930346701978123487774968038423066400899936246033237409651682858723037711011568888097783416688656406755678363690173214158923211776591658733431408236689444294337147675737609961
32 3 0.036890469990828481301702531983917627900711349006812757545394594388789091697619182051216932072094170750583605972665205964488873125674488097468363487923429167084002634177408536785007453835439690391277729996308129785436636062686669196949768643671826208039857452280875037123483314399817540439609
32 4 -0.027423291923914060844537604051998628664328860496069626579744868214912610165983955301233633428279283036232303454724557604228500431619317335798530084254398212049644234720929747486746742994945439878948277982907507611003425933213539212783761758028507482634235499041675344633728580937376615660704
32 5 0.018565190255528674504555458455072406740466966471768928197642348023723442599347186554542275088235944217780702642932569521967848045785549781801563211063669006354175912783573872104826441946079675555098145862330487621685047195804472185498863740263559969094857670889842318394366824331915410730957
32 6 0.0040646544644796579310870658278092723058854525615340707823334454702499801461426843736674559137492211923139857782216221368010884115639634961924689008032706169521899048641001614678530994797720541461400842758497165045522825501917494437069126933259115986304804405975517739956906279643487136651196
32 7 -0.0073070183293890422049349655432806478623611837555710597696691412566827823015521924381653226174138468654885661731540533311449460175511633962490078392499735195974756872959363162830820611122893977888299182459282571540159049936038289266360264257536774726213648574434206842671466195878647234630301
32 8 -0.021574378108272957677603051297873693003003845735657322446072536545435045698988739306855017850736556209307284459244818545458967139393956076487106995935523939393320891152270696236406423049161569670630424997783755175303881313662018733453301028887377309970883241286114834354004371254419743331961
32 9 -0.020970399898318528475807734746453426546311801347589199992513347942444633789824212153896261450677282856401039189665051294707076222255001505606919427894980306767127381470296817748769247036992656304458637820559242579707339551044085237032902996219020607583519159423159349052360093837910309107815
32 10 0.026495087309087345195618072491419020202728611234745230757156975483906835468461460624085740639448225266516129536609847721599427287640702365347071201473481787282373556148968007128856574227876348056519970100735853225899043004147174531798499002815421599742077443183196585274393044362660023986205
33 1 0.041825112641987919885356704122950402359269470877912876258191102523787911433973632139399632317648155828157573395046293239354870905748027126253758045751584188635849784965900477547197160496447103108054105378307515420439238950060040120520947188772673866796612478242275212421603038674822382564323
33 2 -0.016620505419250525864024292975566339847114780103062169483337877658643288968658460335563544984840365710782732950637639126673825578894237109063167913774932335450826060430301060218962292361279179809014375879767083193328548982742810846686503602608255600535610790384194260576344615546542416784667
33 3 0.047958886702494665296252991246544150341513724772227801715905033845370132006038525419064139952441704906991452938677589605618848886734746529597969502868508911938234121185232509248066005095611986931335428237601548112711250527163769604716313945777940324271689679572936236831047759118478906900969
33 4 -0.0053154577398567932810793750412495567930766593325873399420648043084900398051679405916848339531390949753593685267736424733256352178729152640793768760946646359795742867432230492929567095503086822318657554574204925153124525698525801952232691577521199499464919503665620824139012559519108075534506
33 5 0.023145359421126340470257823915788226765238543844540573988273435319573814443129759380546011892812103713802160131666048093988866936210787471645404682036811500046994520877713935599467331841898472126276528880012632555887607544035222439870168611070918387644909076660855914604356766714035969070512
33 6 0.0071731822458646161148302256033770160817970578949892015311756483988066007460190832951261722420832511676676637212716219008744574436444843258169173364843923863713584535340392724688693601985152351656995828150503789655374834852557643362863971160077079176335888489024330514005070750308949464275948
33 7 0.025319125204518896053354367420644842804521325118409133172411654499684912633417990482795311982089206416415354544542698101805170076047319773257252630448523423064184722925164446439329017123219959468651950253522942043640613610101125852594618560640312817392330596947420786929689190864548238250851
33 8 -7.3480738930000112895149659207094694904631511625662658343152546689355771462616732167866356707532264512961474145886395648681816035456384325106346756910275722932769172662490056551172666015148866292437281510834045930400868990534344386176196197323384369889317412728139548324810974396981692814e-05
33 9 -0.10588537612004931714058775522355303343893548649134494696539307643478552680390889916856174799030240889865219422148994237931922308707851038513486221777447395640406649378021265080871445591243148624454368731627278786426740317275942412395275937644533974688972681563745309341776373314781171203403
33 10 -0.055597844223633795377319535909956023704251090182673667821455878872867969286242600624333865776020263166935114488503570378393960702392451202537770141913219322986645870196946067627797035165779920376887857614691984512279794467326259861168727016369848795917877010426419018076880112182206461517433
34 1 0.017672763237527225909913033632869030228227566879079596842036881004224460020656906409568034957748307570731243545183466300615664182010208688118759203187127084246145764492506135327872432729226557602996888422552331449174294463165333258895117982031624641401776482702269071054382640912403021235747
34 2 0.0095176055189627176618613917233043487998856128160792513147835259945420346203765049147021680362964172367978011829284733096043788514067639361639885248911101069139562464806939888387965524340602500157442070285772607173577992728401936070776471608121718781814677137739160574653753722405032302701202
34 3 0.010499511399544493904620192413052595551081115467630148510197098363133318882063896131507963607434400866377622589546745785496612165055082250128564837607635521478353126878288092342981511382414388002550771423303544631278216145623570903772756171101117839491096637675480545108258837256807958479707
34 4 -0.015123445322718701433802561335247164989450336032967901568406912681260306530342213525527789731694669844894134992138941631157490538370262078117823300569292302928108960438474791358936378154363068334979543734068261304918059008354510451797987504656766600121736513877026251797091144579940386036579
34 5 -0.0072451014128686809812620569268223895052702619614544757453884702955280350854002577683757301469863597644808512202180312976692317785382295226312343604281438361704382242316639701501226943722863237337791051022966839811415643638507950560568431624259202977022577371050802127887029748653228721130048
34 6 -0.016873890877219324662987144607289826655813386528245151056880471787790128745685509378801539339412999147689572536399572829496693893912317552535493476606403669996048408778521341053936191643138144518936476489808784428897426580827908791331501193952729041934030181756663651136329879411228426141147
34 7 0.0049381097151051049173741321921701103376551975179136367072595359380227942327802892047722684587860261055392839457053935451473982462602839567392735233193459205043870408996510387758626722921205063375975619359139910928699547744737269825333654878731181213461292795269551537973345002779995478525521
34 8 -0.0037525699486632986123645638678728113911356503844356009628510002260621689875119263816993413012814060112994307892401316015140225881721760162913897147025707020563304468343619396790713846800552673785754371917977186680757765247331174493950497161404130862013471855835411681629930607542240885941063
34 9 -0.028750005662639560112784450422498270821672274369870135549357822779661311815084278440319788538735507076032030482345218547748703942770428567060498623661687406031254609336565990165114640902613812492877335269789429606313727391282549475646446732451518009429111754419236308939023313897844096803011
34 10 -0.011441203380974078827016401567045975249007331596354075795402087864188408254274582111033043073228418800097412892820825885790561373497924685992533569765682019734876304195272916306725364491063707803200322445351169826572013551350663506315746106218850237275790954281388595911414271377048655562966
35 1 0.026869802885364589458941091746779422037767460250385702534187473975684723185201274427023406233023490583999663212766758298826498394824494873205416432882289098000772310427302962676957943711894434088016907036247477246504124089139664887742711163712824201036854731552443132409245423780372322777957
35 2 -0.021489905613668755726046352502715244943206857114574913337560586988977887184215606067080632648708267832786345407678464512913928175761627195658908146334757431315416236715455324996807955993836967208319997476675699902693271651524789186947827470675347839438710181332055471464231186787853267402204
35 3 0.038150624714872564226777263792565366392925882287553904763253119100296726884677053082208649964525324476278064274580656622019677399003141058745024754566035227377087157687226360277907220178422115276362966753952610096749162692947198819501400476760015204232041399011112127803790357818500423353285
35 4 0.005117075376391376546820217391349154566334278479462716599511512756751898330813841346057349330720614149998131629680969503498332950751602778363859947419171307377229382775413897497230307128723624190733257046920321535850825105969803419237076862500510585969484629858095094348168033521473856639276
35 5 0.010920686101963312421645519885874689281614657532397873617769363824633420352501030512330256616517833976092843378180425727210295369732121945892508021650024627713923846403624894723193128572811369621129036949623351923301217574516728347866757950210045302304967609749621971075158761007141167881959
35 6 -0.007477019815969697885706948379521348430980096570432253591488498923177377455350455293347538542642623147602256409046825929075347079955868657440495244893294923250924069818047440521877101022048861862657161482258537359814610707056419179727100931527295933898241785356302259630889333494571476307258
35 7 0.017219726552837813709073706243729651218725513533832827867454519710564993634290087223166099642181160720176667961428838047837225532569382608138769574572286936710375818057724133621842454912737953813750289369803042871019574813706757766386813272173552131800122134255233964924243023215900082213468
35 8 -0.0019661826263964517592437102435176154980148121476832419980833223138053168344408424066627196759270406494692321678170396218682040371032497275048689365788207720555281271966992347947998166301540211072691110672676709938281052671549942985108157391469637156681964002782055195533604158845790897760863
35 9 -0.068727241581718535216291502069980758167869982095581197689253967570647908645953581203798140476908996178769587598800691854167439621039082369422578226319505982600459535628955639562107609749746471313296177717218577900144387496337200971552444262573220001130969467061531779373795920004143300370128
35 10 -0.041507875774801834448509710529697623587459395319868510246585548767459699766264224751846962615409693755028369176943824360479879430549537329851507096412854999803874138662542162298086169339842994686248070301678629860958696426879509397905986524903191312278204152885551797741078152574890756747211
36 1 -0.0047279617993895154168462434695550364189971263714705216503585179233229109518021841486947591474478536230753054186632859258155765424168680650849509990507057791868703502601171034494437239799548808741596392408733356720273715400816632349325684629233351906322948674731472949060078020050247950120212
36 2 0.071923502266032686507261177945347460474899852438874939465949205204410621318193351897999069181241199128034515395254840458140045690882891618829073243672950586953021618458024118030680147772891804492260846994905873644275310322043780273882658046692907540620907908325498076874980804566747120873794
36 3 0.047632110891789747185066507351944476243530433611617793680124028189261295172812576434318495607854174131395033232745397020611227835335694936709174689662879973937500756193336032549503659246457465749632362817310886257156703477428511789646496607623314772011554336050049694397661343716350331627196
36 4 -0.0406361924630374314504682042978448373977018673886441900798546529187904224580528297209213356755460086067443020035602910289574374561915336397486938013813245818724062186043728923620722941512904562531262490263130600433441532131697429365368816629351461722409818239965087757703924267667360698817
36 5 0.046541628919579063910400186564237693128825252163462676233041849900353154883097198410280099878325354637067260558449313895502040242512022909843983558737901658064450652367990019550897795143984852415364232536692732799707797334112320933266886887866284559082491561651325041957944573473287041316626
36 6 0.056530127689952445588189425465428240411894624552312115978795512506543170265204530166421069730965921585818953768430248088656105481841907026983828779024335118717331507904923328015137940868780879151687301723881533884096943246776757325823097162655508175819011708833410464060202498906971693639825
36 7 -0.038827770229348255354150913525178782518041807193880909265621119781126037109790109058424395690880755997477799604578639051250423220949449494209756606756300045313174907971401570189510136424067141484889794671615897799765808692050652811261214174537041297185917700421986002126029523014929985515416
36 8 -0.023793598824441235995122880821157767675151657996842207227672583616057444581170948250522289882257144343591900780040604378748262123162080151321314888696803997313702545994650221122326836932114882920271854888048566938614503351093180477559830358572186554630262937672881901153230828017639069599112
36 9 -0.022774651256551184591511403340775730771975321994859866841664480208900020618631760601004068269264599454161690292684028491097171995762580367493782429876690988590301227196612689397090297498445012194174335242093432261958716174147865179429838473296302853165417761707700299338191420442908616755513
36 10 0.059166550764750749159784157660912277336317160910273748510616097985640953686602367732436007544425991132126240251143364206075938350381848699808591836825070967845143686166310491642908590769167537307380636955617022712662400243692334999187735616985544659245795585412448725966984974519000984855423
37 1 -0.0018642045216079556727867905255283458322078789445485983164907597286701413889932563665564732493495594073236061450841533511385882787763765252050474907403637636983224372401530930886530651683923816530560468854551727526871241908153138112737094576312212481446840219947527875391274686450717808873434
37 2 0.019373406176003060478243972394620483608941420302456742781290880238822236755842461897749341421909503738775561837729568975714271126248845190226795299759808390380735379893998953470137876047517257327364258735656703851676058034251229710293884364850760537695564370875074749187800006835101972156799
37 3 0.018443167222886538467372159308659834122751896225473517048416168625293489829687144932532880140754926473838058072159414846913790212409041145671293243625976260394675519210268471176154617009112919367493721411655773284374772774623394032423231714566452519133268098868669249173181633455113442772199
37 4 -0.0064813105116768898397459998746603011003509883340177809069377536855576732764464829007457821056779286781643478204269293977938495792641638174286862237407111441716792601418163274131928317766226098650202870873202699960924343166088801177663991160083901166990702204270624623323358830444929836620153
37 5 0.013601981133771829947202069412268762282000268996952811489229907727130290706474343037242285405325689026241524888731997864053860378667060155394518009102008134662525299876928825456351516137992440856392181070630450895217250401487226385048258778754234438770464059438661066487291126559968893192142
37 6 -0.015208233993276509968052479381943614211938778446369125040197010452370278074550030544999294649086778536347272917313713853024618419113921137971096503318419062410828180574993648242996922325278508465632027158518861771170454543142313849507533373839871287539687901702736308874042527961732650611647
37 7 0.0095246378879989819702122272600162290041282467452965598604813307846479418419357594412482908877891738236709603362179600854107597765178510983294602585983474476608294599312661450912599579755430717485640033160578850549399038424010190393867498031859692438810253685321229969483640644736829443865195
37 8 -0.0038930243932927651463664740382415815502577246020807276993619359429889906659070711539583751837311520020811205550509684233027481549707950463809308049084217760354887534495687956250360116174871800496570419765119449263073937288878345512432998115913005383017187137364905497359059765851010934678219
37 9 -0.0085791516461144460929450399927366625345689133558318684325300396920384545293693393115290976129692232438530836314107347202144945054174662601305487333281401538360962078883948265033418100280435769085986430805202993622974497719340914809222970143503380688898472529939265968084577977412713238981414
37 10 -0.0027006963240839470631657279761393734387134213469273578165755656144403389055909957658704324088413689086833772564695576345667385067613645767506896148927510976675584135419792919693008106096920968225459695352726405999672683478438393607104144165457961249902645958490138305789519968741077586964389
38 1 -0.0071108357189990036913241503811740467692108469199060478105286560920040183908988023998646438621109089697066188789182942619939767301736221178978761313762448355043429981089586933430258434174776381141443291437895710220483207860320110055444272030884966945001946258363212357836804172824052427296799
38 2 -0.010849721881703239783576467829455515679911738975920824816162849268975041059773458444612099400608371940540359244113041361800623913943599160132215723563689033787408262039730671034722404947492507992033638618173889196602435028430575622454949316780938347821064667564166939229394521926287481066815
38 3 0.0053747028609767108879460543151856112071585436156217877385931983518956093873014802609624798554546025393445298281650604369699030848819365026691695266817858173029598883591340953996169095075185467163387417804764845583418732673272707811070405726506540973482647550763860985842008570961180787461972
38 4 0.012186468625517850453138727403384168741581566924915989331619759466733707955901737834231741024851118063070074595937253672710209453320408208542762132719504220499565056615003983715535346176650440177712805551062732106176387532623431827235740220018904967628500975160778422051345356249884653868836
38 5 0.010764683409861390142652269451275236942399391681415106989273258925868248048742454020981340466306677782866070752519328828981560430142406852854638820331986185499951162904990673424861323449041440412472754538252453155711833402088744346137095919450995605783733694903288308744973167221416200486382
38 6 0.010763665833363101534972716262803362695401175042353677935924054696392893834360360620516926101384515602171389242862435652604484575200067047234116950645160803774485972069904758360064486815192940492855329874570807152951628968822253325727383692332254355563391068021928697403713469686285463415376
38 7 -0.00092835563959500485957919777984428908109167490179239270215601672001737589234205175575022697962934791304075198080250979285451975325543788114598734217846888603874177169909851679172697007583924099379395539626391558765839933292411092627001707414914320623030560821847812913830733381086219268810649
38 8 0.0009700753701705443986493551825701235767897960080593931943422401367561379683187855523451632346275327503689536519095048701999692922903334372530971573841157154654910004370170222396921160745091168567767885482756187236674915018063366048886060709557744167493228905681635815388041945301861890355204
38 9 0.00094587057018732319071473725121260507146039750901641910585833411848425180490514280084502552408091612521405345412223274508080261586107370001178364292012439262706668468837291424016074428378963090810956094169291961885242682505364785798621357576740065957528538918212433783368236386964345204938383
38 10 0.0054678831473400877215526059622802690284744711485786176022062631643970334637438630514345592531632154540419017195487651883740309315796781321284501283176774283806621814242311069020730685964410664677176957872240807133104997862215108690040711675829898128403783442203453716693468548755825185366611
39 1 0.044658690401293763922870682749165317918884658844579123833169894340579797040154104554006908893219282611940866736487316311796304792439598965391863495092259993194140868439114097410234537581434776726325042720062803057066931241908672180507974051325558284969339601244330271929156136628863029506049
39 2 0.035645901842616520140444581227704604103729979147647966869651055665141292290006859196180256772243433444916053694837872273576096072900358535214261680521180864249458373788537242744729665777843825908718848973943114034302977003243334254303751876922715885855215931728082932959640025746099963721998
39 3 0.05250180362936332802001995667339844773568309984141352784098330903567545549209930953317809805845061006449718086138745443204504011559214416178030513306360826776159201560147249073431237214019308189595856373780791047691168550362317300032117489791483313726216604081650113183302858297314334770584
39 4 -0.025543899968120612799145119542912173311499321303062505334907178103465986665915686715573615765264009937175329335997277535980570783493503112513121116204701804469440516679994410524557647353300629763616876131708099946103582885849520374476241821959919107034897586598941926247004664577804232764919
39 5 0.0025073255052439174876932020917541700724738766857896792828886171577368581745238320995959195947801433354860366636760971852257505264261349701228169025000416530457709855453900807707055752032405406256011221695547771157032875577481080756008756801017534629946512788029663672089169191357689017041314
39 6 -0.039231641068729768158760914643296099308784231419320615120311284469025799657274092672205539284149473465357347625507898697485224859948800385429397643207932978462833729279199365370216124190904587805556973429221715875346654381551683369151849340657298165524456718199994360349722433405213085472827
39 7 0.021896636171319614838395193211578957982069952523675247520070367308860885469948437361941556122151105201003118621121342960690147293690058604334184603123738189256254468398453354093726862672689078250397046341828099807273968470699137690395225478802134125572682667397816460107168504366747931323647
39 8 -0.0099122243262063122303846389981054719963439754730211081620041518701423775668158747032079339020275066266445206540254943694250527608558541764900367391184270143804962235203624424114260295464126540468609414169038491850150692309073560812828493818429879120904294329087622803847073206892755469981421
39 9 -0.14451697731782347424493285594147696932834846119203128422267748458484676876948323147402193259659126023021325280816510553298826725757666812728564559408024786673584295122764717570501448665453977764905626934640270875486160273070172757789180256897504753868251288802927942390873262507690704092757
39 10 -0.089525888583381777491849774112423065978228705724264205792846917718075671022055309881689614494331184656453263508690334915517198696704719528843257074977793658811914467897845156396535221312445927106925626729697270373523010377632091240425940141497152746898630576028193658430562651260152529116984
40 1 0.027864045929922710771931606093351475327961486285872401631815993401795902835221719833451905821574641204785647019221813913447940830454914700804194545016071372763173706741856939439609455435909391677159351936879662965900288542809727128826919998869287608090332895518380010216227053467755983777641
40 2 0.025559535070075509953786776542933762838122151032869273534383669419581592912429002640695150643443569976835420911852418022934520446971010611481627398060168455093508840130794247535996433267659577558738930398520901080022818768359055677711917977708274694726008045572365708944946217510131416819977
40 3 0.067550508677323663624554738859237445392565693350211688814462686879040129142010123306603043589154552324597399220442222845833790695697370546562057012552470954978450916863347808661537714280985449074506065169618949028088469459239479619271058791734533961549242508112740030178606438169480230813073
40 4 -0.014742065046184848026264533194416299160600767244354460061863064951827695215047848106739080449383415815761527956477482345641067652401155240305024134899492890774244303166527084302338078315353959009760590247876251987806161252984311628640707665690913289939206163384839909165509609979552456167606
40 5 0.038781119237991966464612494585059673037338591911023559449749745523827076069555476851020519571905493899801257422423541384100656369890436393843478584444976405182933104769983489115714827438376104522403023172858218308185295351019977527689261991090541634849610231565429111051861361892464828933861
40 6 0.01894159845109644312867270449995070474831291604495038282472979288537166120390855022403831854336752743071357083506074930729379411933978873701309805835019336596377458856324806862762968439914828449552681637743286160609189347487591916526734442388268192669796134779594503983141839073145358793843
40 7 0.021194124430740877019681237569693776236823694230201585997892825481446415544068633868827715217071755714228725703839844307564002165028786884611262806372102130981349644387470873390389310899627577406972899272027002046138016928644410571128423567585618682559994384618416674097252486070320389049317
40 8 0.0030393560467240093423936798759430907694286206878093952484168891911221543236838224991083362658131017137347257162794664773966934000051469838688772365063694955006230517081008268151499623030515915747642753169682933544060500007219819784980063609857943551380866667717655133687647792164642772877276
40 9 -0.14084835514663287381623542798302748480313004036706766395341624809751378590248145341200143787575446410555799854688810011678227963535061749459255784065652412253618070437897100214744953935542388782012790274787388185768019998439189250780083510484316502740469312764129565135717545334124690106479
40 10 -0.069106664254693399341271677030893787471875543989162927203058023934276862094661405603084702143991789548046302424906434065423096428025116013522495608212558013066781421620415689028520757082637834688190249204533379628274866448985176031435508346778301409983466434408711063394928047120903926462392
41 1 0.025800958628327551316918148086305784393649450011845813313087479994225191743621220880879693489918172623225750154233786170992007560141481600792640921938731168399811558431554471778427208323660340348153119899298745411844990868995266241475529516368448585395776181183097152640083498932142587558503
41 2 0.043806106781801602430310742559526750094752279545878852038069712011105605536579664658649266092555170393123433235385638763075000166052013194728622359251794575549463151512330869238861444065020416706385331803900610697375652083322385991698374300293500065797001164069496257387204203065702441868328
41 3 0.06976452129084738199188684196820290447479729121543627388510529676568134197733533426050979066229990288633772717013896186729671789506461575680908611473579431143684810629372204521779380502255205743147868336648546775646279357574688454584907282737900540875560901486408363462148874819968037255157
41 4 -0.027265816291710946183324267818250874473047162416436613613827772927750481754321218735543863865814533482101659084018635850421480133233509552534803761536410589814788329953114983849025274222358977709810257817683407283004776329720031287695360320636211364373945702853250960897014235960553903520537
41 5 0.045460559718747545848734572344331279627427893010686651573111480598755580206580145683850151417853700764208814964998001849921606650931407946696211416402225878278703560641140891055417007094432542109437417317955674977588804637464078867868966889600781378541827939430519095468514821020010274345488
41 6 -0.034975297461415514317808801686940380755289735695313940886948088821277879675377620015464599182765901353056920379048377386598606398911661617645978232107685936563332339107680801955054780413116889502739337687313558144092988671120442078585188830135137173549871646802801464314885367853407237773124
41 7 0.060528908316705287083557382978368232618855418413302280490508316292214458485497384945614137716718250563957654436083360853543346272543264989920896912697068982540121597120416019998498183389916949779784497264967637251560309458382467428395659019066937126318067402030794277802624474681294558486672
41 8 0.015713288042896818840647789450425256764751952832063245012594153596531469536326779786550081544888700879232027963731405509783817664273502762075484161060495546965417594575258856252194961189833993271648492014452421508892426139903974080332017827928271138990176925439003705347551606747541654325046
41 9 -0.12751711392661392626221382275741163381904810239795555317746152364080338712756770898627021348472257506301450167550019495445495247897627305331758942268834922630645282045170676133042374071382815112456089970706937351151147462999660238693957093520075741066926000350121802478588060292596198922482
41 10 -0.09445593320498382962853895813244142497524170434813228338391049069844058098609407401125343291946695792736189847803666577257801602174072348728323492244657872068289314022160070664852170881994042955076798584808247767958228404697966667421844183319493022774494387752292180880654711472322085816279
42 1 -0.028609362796939082550258222466122987583148940086216373588810790930219723898090695194688506029987956321650067725972140703776421424151432302661422859020162222946683475712974849980887673508866609476092510441702076565269433335053621549402322929444668374391880291477060955588748897892972975237142
42 2 0.029402493529072609453655194551089662878683352937407105487372644448017539186043624956000159485668447736597053096095104173500339771408540952053152908950245443112106045023877094670420921451482798820627901767241480728065589467483840779386064039731209516195418655154370385079458932364191543022838
42 3 0.016163757029661423435578922412252447861482917609798551496594606335329073212392388723108657980996604376305471063987883722090021500600389989896540777963330279863723400332703265892436006914984702312197131364267220080454715815959806014982035226320189870540759505555547114702307058427710313871893
42 4 -0.0012580276513968330324263384099413618689990991792457351873521057305296684018368322622213390334806937137931655232031101894933713771761627261202798541054899926183498844396674908542082253035935885851096421762735211041751946560992318962314722546209449345335878437605736130151786781042764036764005
42 5 0.013621656410242811582726341072565873332532938067974701079384486681100953513471732257025684373211532940290302844713366549639031283502378964936762254712646616839270142183105120765113173388125634894233367117609178133756465697156777694496060208257072909745045465437070519293386322831512438137522
42 6 0.020396145046768670613451890527901950578027630721007205715457432955250834030123131865877890313313852381576908386391119116778795347903487367121684539393991690947999185568449259786614709793203874558416543362091973880603550553462420856135423085581011356948732685617872912974041998813829190172067
42 7 -0.0050454734829938523600913853970175685826149665927158674486632632404534356789313404015436315537586472189051950519610703809259540918429303854213849426840622604912121536499648452704604803549190397364213204124496988022991250163976559473160473299844709071687153279535600157704181183290785648697354
42 8 0.0059215786752314157534224052546952241661945094048027453328682437170424893901436612857999929885029627186673964025722096292416798676834789014030209564007734818172810113813136649487523828694010567585377959053073861903700795250460098142770357104029409074297649037853539937277983664890761702981126
42 9 -0.015443868789713509910202144661571939277328801484449073697932362358509145910364798635998068708328161525667314206481655447457269057249761173782062850561978518989707465237363658477844804477466571434931388484643809193155205328543197195642662258948926726813996342975253361954683863377977320455934
42 10 -0.0056501205747092113015835678583488488379948748595440045248879243548286741520879854961338538720420834694145409064293387536529484765950509936425352728617160968240078741230088296257852470413925669513479535336792272060899223173591734840446748736029948846784683064183304827711039768152878413125721
43 1 -0.014449013803209011749445724947032851199848170648360336537468372003856527636731794174071918992151010141416174526171544278774019155803355584673128472234731787511304270751720240673990144711458472474570348333658519623838750312643157881610775242389060148440246942321231388933119306039513604693614
43 2 -0.018015356328230557973848514931547792124210285685365201465587892660915862192504498444187494438288542687379076017304714660142217646456827399614016682057305833108522179444805530817127110012293786188888167334255631445898701968766683142295226065458863669692678119884365598953894141948699022703872
43 3 0.0065266500617843425595095266282024717793729836251217873516795001922185044185968389122869236189607556787320032133311708962001480484446465165109381186129264628704235941162299602446701544946316938722300184655939625855260028271779231270502243469244600756309290169836434321674308429119235936924937
43 4 0.018226664575223801502193929235483743166716502204008981206485495255124960513029090375604101989604068076041996784367510897457471581288125062290147420863687442443426340667644782297008488694538823059794891498081505591671451249921339342894580674512461767655561410132143352133481023498704851756177
43 5 0.00055007007215521498593761461942056301397166601303921603577858645598253076765143009271456745560160981439625268274381432767960583402307289803039366795014036303477891333909272018066769014253216225256299407112122438796670972576892904178372724835418297035403152292511740274878301354270710312566909
43 6 0.044148181947044526580725946955162343810631882073802823787614896626365423146728966271945069040572154584338806004274551351007836861823569239564055889767628323060551496793899800310806222457703809008723117249223617968620421956211097731356609715918518958610273724867387881480366345026514947518223
43 7 -0.031521863369952882943836051547214289454998856259429855015896783982487751849432472686168343667096583873508482275167749566869398830775120487398562720761063050684733462194907903065156908049552529944892162614955973896712190171666768939949550085871512905423805738695686904774815632459501089208982
43 8 -0.0083465836909268595946168778929848150618766865366185770468928621917062059837471581804032892458612991183439276056066112388345441978300458610550710112874220545071489873897105089493345153534908464612859420828232201992669164169610588856593176618366749177822102800834994785499448868630655382173124
43 9 0.012359329117093949921824214033695728726314811066947523434086487899505862191560896990679167162784937832411420461747554593914531317905368288994535416885127270855785926825549038979429478409879868138191062893452484545551381309567922307399605334192311547324223493221831087744651888091094066784952
43 10 0.039047441838355935934389777013535990727251693635765308908311676899378974728638781110934442282487431021568695092122766193924790215898756570554448612752759788054711496998193263298371506622850974974557230667139833952199411338518654891011613394764365553894154620980313109445311389028115244783953
44 1 -0.0097872440042882069615461294787517284130890895962236028998688020615039412657957066354926376230089542671238199336498227141212284193262708207904631854957901188896060846993634655882793835272983745984421683370915466551019158973535296919387571614678951916979279175165654961247512263179694152259552
44 2 -0.022349246111156374180441206462514584070005845275695611165569217426973028876912858393016381318315905888515097563658822153410073717216380467289150119742991495592519158770144957380481727670183450625613144008681706251528396911258077575549830555352144690065561261364358550142469835694711254915955
44 3 -0.0080274590730668153204622700777083010377098716760911339902233244346800197839116587121528385053586531646542163149529143492641284963148083795170481933401793034556577257117296251341236278548233318967677164640283752598402777076605212377741019223773621724324676137398000351613988443406838221190355
44 4 0.054111524712931043596154900542016262349987729202932215593233945236116696585249311067836155733708598879115342666740317495041007037612068429137538409278001658384429379778960437210124081426351908767142248666810190123032668769217196386443735030838873523641378139898422965006012773394089190428806
44 5 -0.00090301697715683102348724566667262885302050005373724125739931807143029857869380216532936783633691266707712794102631047108796317596929875459042634091804023364236768459681870664602418685840851331544143509343313079401597186974998114395726368458404028444018828523945756291148292789101328027366261
44 6 -0.019289690366999760148242125558110422622755770481193596089430390241174962882078598318952153580098770851815428892433768161797142108853647460453668064588026104111560064891833950540915713921719898447575805989774436420719091960155699248777495267043614058371941939640173762030219804368886510604125
44 7 0.043293888476291083632902540106774950753692883720535939910440111877641110956240666518479361213214013672353488669766781560860740292942313052497516050606163573748388376278428161286828255037629516078224046530542597428891625444029822509064991725754339350888849255911415358699928006439329370443503
44 8 0.033947044853818667679075587642560823204541076916383485678642898252637454293634392675501484891377540806862687027615780433805501575286423601450054479816418001359847775449295660228593132195213974653892247777446064590366391016889503963090780930847801726073242776545247012159656786099675880722554
44 9 -0.082590653169417293715011691241266170934611038565187065204587884794430330868415695410429691054763050279806602227802493724571668996500743974694040580906699286611986009520410481156030481691418257382725770715337087200781352578177730270271461991582760350364778799220138304651362722789389950159608
44 10 -0.10578317875310818949984375222220165115538884849119989143034382714119674768754149790456862505627996156407410441901802553751557035551588193706678655335018001840229714405548935494619382582980117117028652145309284619914491094447859270392756676520168607161495500841406556497665473716776787763604
45 1 -0.034518869165738179676998014995641399260650886525091258659048766602030389276808119787035430235876895321908750998288442240185945391916152722704708236895466332361632953777073787781803538871993244324941430590389970148474193941711622838782126931844227018580437876715894154694060310675415684993169
45 2 0.014101004376483668111490168077494578813248060725611669433767681148596223566942787033028613831299739748446478782075869546327051128942690103255889966458199316559009542519507514486997224338256120681335469029680979921048024369405937340316625534504296403995238415257319727086212926989029541354312
45 3 -0.046133819019103538472579902911640515649859363402526099389082691610610345193477280489570610322718532488742543257260512489792967200939401377501725197794439722038955526611854324877585686840562786132643929453127392536111233963526309853616334996573781526534548104182686578558027374596496010923323
45 4 0.00057932231173276982041659264010088860314346165628761591971358704885230467575930497791217596683749852059584536178246958830033568987618545234947227919693536076190188937629654958955055778083050186044098166700059211340104271122971894544029167862403791453709815104995672111642646586961950898397335
45 5 -0.033816185587969432852293952222361646130672835730722282541782914317055754911523065232394763243179418242963933397004289718893570930752856046953513937082953144440348532770030120226980288802175679762183622689963881277887845614884451895089919233677508498862076593555760857819538154333896277994162
45 6 0.022497938455884063208437059575681481999483786958860415030678757449775583624616117840892555508889912302472462516283442350656677250826444254269086185057567186211205697494192957360493859027760216375129535170362891015136473021706330393706901431205155942524006891721929244507339627947931859135434
45 7 -0.05118032771713014477442369836817839456324082868433444248712061037124972619968519103706563920640906433235699280412643657576628128349817733457475839040191656662901361155096385905121598329236227587158491975563434635379490376954907191337818467389607623349981065466411492058698991551452886123036
45 8 -0.008268546015267377758775890286510791804719089001563008859233818403868888232325924010802982799355185832107205940540551696665448852804781547663093005481103715188005105695445759284726499101796589264503488740146505940826454906058305050130289106473585400373266385433894040111068066283605084083822
45 9 0.091450276250316182160028843310200509435692968842003026114645754931974732332010119823500428983805358572513768044045486813786419405084333354505932654160334925602541099524826856815493317860693523749329611306294907666194331684369633285459970948911773787404156078573122027709708639282077641654809
45 10 0.06528014114684988876442230101430764876305372185674904997810680711650695555810557875932569593525153814054447465439586991018195140032572646097063795314389063037467147978741478770060976399098324542612148646245068753082406346412563364438159971103702526329251251870395571172373207707882012208903
46 1 -0.047649434421849893859621947444210784784968176206434002029363065743439768998273965393111924059638054192595580792443021935035467654631787682629676298055959812235883829255195449295601256155331927906874384641506616767979818831096112625778543199538231909142755611384860383300742997855400890423608
46 2 0.050649107046585852418346704559222847982769515334771816414460965938809173426251452660473327436175658123599311467900686269598621547968401255009016511465476320957010613654594533409801296371242430016153060549701001070003299239096508763237111146280605914978573179684361762059315443541314277871818
46 3 0.011204329168365663879065458468171991098047407685856765840037203822715998346393382560842774912486223662101667302501241330193656594602645708637474077539024515209699847968045843360716050104046018121509108904242733480598548570924782635394939765662670439955223553690433318816703766606035690972523
46 4 -0.0057294897298708607878407542864995389050586261372162226105771593137563432197091422043567698355327351156781760251875804246556187407296563622948523654082440768091804810001059911840576923874566591759860197521060875298368242667177013081632274367317013458767999151285026874812351686945099106833724
46 5 0.0090076824539136783154315883858713540201979696173175557113771102849292358187943128380615633641770655705332798762233799858912953774875459662672318433387990302325728686759489437155771273322211031083811733120244548392553032998001546648605092346628136446861766858666883235573383491486955867703141
46 6 0.027214365677915166497886210002796006252826391954862598804251313729445013270199063781896980481746378732103969702157372217835772166280353210477533179908669477357871428738020230690097676387332307623002601457274605957607883165158582329866187678171876107895351736225821076905809304358875740334705
46 7 -0.012051078262732656107360534302994571862747784851111362489709867830111138588460078934701346809221862543031312222620381556666627676446793487207177882844903103059773404290272794321078714360287300886653139800932464342025578161581357295865129993309148053266745595345553562396885826021195018431218
46 8 0.013377538985864830940881268629334181106329472135428048385801289867145093559663995135058881445983564114175467093297824313982753001576977959958571225395564156982274721208744834554485563013850112291641214763128660348913083461955179365840764725933326257603363093113372534241806236540248716537449
46 9 -0.007738004979153471173280484411533138632844068303078625248977664141045721522453142901894948186459480445117656145499058939056878532286407148150198505362484411711786967197252535788058104235422493355268552186982992665024275824557440904046428351226106369569954286731434736454546160394430340911933
46 10 -0.0058156201208719118048897395862670782495694866738500676694480074531728705744151368561193516528900012364890746236084287509456149231595652087584178464504641346302631135668023454384218769343101899974687811775398766042443793947801930059579514299573258032287035139467263643411064632937442086425552
47 1 -0.03701157806328051638014387153091643220476090600946424539448993010935629639568712088805368458019709374122126066295048672985278561471965528135320717003695800846717277764270487935230473849389161600317998726208255677463816437383380017794705721295931096994299698584565168097766483584892111086325
47 2 0.038541118046461797640835483970353747704304026770816568293014974303654760718857055561109093232142082777384569749281675726673042124744532961909731948452340679030493331336995007020397206085722347589712140312749390729969579505050396915869170562290472997495711761785672029649978242884189678161594
47 3 -0.024060477588601549516446556160237306863041433044677176160238160913320365992195706186269111796194491063868817575704204385632513291062745926719190768169293816655700053966226537817161936026173979035411040884918107480368089803105895110538635639164761621508815171574660919319690749275810399405078
47 4 0.0052594757184496462264033657646965689662948530320301310941319179807177352882936614475251170687423382317216642579699865167032431921715070790688943629066179944686466553561441575296285861090397286362731639507937398721655734098225630585644620037398519556759329225238385237775643195197938727266386
47 5 -0.0032960066836005280171425402780939170125643354434054446532932964070278908756592291526052371735443831967394013049585631047394798679072350695488037173097024810327829228027751919014034705548963814681445968254556909160502938233106993173774582171583753179851569475697974985765570431494028313828347
47 6 0.019208561434215574668000853702715963872056588077048846797724060547954558874770676030426402678693453590237576796879196439989511496712427148957324539861963706920505497022336630203213193922091746618446517890940338609896650533732105148826866785940922573423477067794904089146781643859697528936586
47 7 -0.034685206088161683108236391125568390224519432001757980818521741098886791294282573408977378842665770636556838834097038665769760531874846045900313616613392377890611527275804038829485120971536844340168663200071417354991942569047727175431622665767472892246154202150505516029599005930721917144612
47 8 -0.0036600976401409879608980506329473420279781564630557264941574827748135900195976495810515270697147149278246450940337281497209301717785309457488338694654259357587345156052591214205019864587404876532528860388530927528789132271137195538853619435680300141643840649642079514334776911202778891266709
47 9 0.032941256709221936229424146070181151796663631199332830325892737212140137073643537060687616772714539109781041123384238932337840182461225593990250983211973151338786285260143242644736921587853194450487471180973841389611943522027134173503637487970648932870171315588848421768922887664976271234761
47 10 0.028695145359820968651455593390930591138576515441569701081673269130105866257475626557812470010447372355032746607313111840989330228386364944563071651820254863676840573282095595369689115092680088272398678100004573616084384703239907948169504795313646442121499471399109897160406664356875999337809
48 1 0.024237499314030240226877403720142268771223474861455805299160733740188974251861964901908400473910984998139820519581715756788716907372691672504332085432867807945080665691995993195457276706406342567518937572488035942140565800242170439220416467486794401724158105901129731353183781888564040794972
48 2 -0.0051327818303078372138303798584415249959394160269859601547145967614089332703915430307434868009006579564723459778687282533376857510421668561945998227795217416725020825018737554424727209247936725562106343397310510763895033828000233885611935678366182429376215447328922446470300354875702935768764
48 3 0.01494830382276560171050358811521431957297778163339298793506497163425440604782873326208304105641764031264363996308973748563749144156631114250631001716500814415629610414657510394116612788143081397721878340667902632263715580327433690721169262483266521712209902341900314706329772085320804414238
48 4 -0.014115595888039787152694208341380488293827543846785027440918040505296842872720563340168776786240001886878238987929844791313358672549811739242305225948274044773443078184850522942938767983754106198478522935459049734149063195569855708199651246748966530962030961753104060793470612852996983567047
48 5 0.0091829419274067129674545836241066550570333345426595474359127237781268817133738441166642876413517902764254474925269579020606238570384392570517948988662937928054754001797454245006733501410680752733411902388572168639471870932117903150979016785831111800176514819394605940261236904570817898015835
48 6 -0.023463963353047430121734990286941881744375791635804647976701710450961463203277484539359413710929276250251664480411821331502355636775712076607729165543866941083552598527294411036354491039127146435282637323509408702162356246513253390490930959768305362640920855251259233365493576743214600126811
48 7 0.027969017240993398651687814628222982645882806382016357067623872455347705828658715660091669109095021138637851051788560335219349608670958394980470991290203737466625181627423260404595658309243257009807136659323883760873584099001270250821980595712935723760348413572065806921978029941001098698631
48 8 0.0021165433949199789133555368963111505474767552852839304400880006191537945631438750558831245625718848155967455037982926696165028115488568949662307375418569435566124630310573790394900867620633387574747237357399615149332289144335975623522374484600459088534708231505567408382376634225666226977186
48 9 -0.019369483619240676505631040622151595779312037812463417806795246094538531998438616125069091553699658384206023355161949415976704567396762819251508019127853952034302517708685546370677253826994450400308696139341117681302674581053052279464302157157797211267800931948282304907724539307040228281183
48 10 -0.014346134504815649548332556495003887603662751178632511867861599701111086461521203735496506718820609599742395925547473688137551923004861554306499597351341072923170901979301427775092701458611859800200063301643564871123421620021683431520788815008598993847484424960011166925781270931855494320588
49 1 -0.011304678663296889718127319163137143182040822228835523801266474162831947049840300996194080566425208413753574297362347239375001577004266295792823016993199457423300254279186487253460462823522710088507118074674958988935227364675322877790667604647119182783875160963146436852411286958738815677213
49 2 -0.022093628356818626555731096312654800928469852246350174310314202586179302634939529595315213280096093589240580448893818587085351222089064308583511953706393276185717401446774428188633207987230675863406684399835970958398658436394387886675908128122418056455501719673482052124488561319701608441012
49 3 -0.021665954743854675134576972497074398270191994401377216941754947062277257009434322281292367766414877139634381031223866518639366733935222571850850046466919885255087479273508044838184109459189408192697813250029854714436754079459386546786462389980931813970482774066041806912537366548830149182752
49 4 0.033439782929190748919872036610330681408424922868862929103371853277794514735971461410079046863351334287777181674436156067727046399740865220174321111056764636473616483139618626589344193236535523845770619884457129542420315942405092321341916367694061887068241197564258509463764520417665524555596
49 5 -0.0074779478463137032915307489064250845916004798329822456692290808312396297377364235117415954102149503519581315211222971447125275177808978554568478600803938514519813229296898342555693941122249423942147686522670496211603697896695214029003300662205869914234270015961427605038316719342253592588444
49 6 -0.015678612030519887504342830460959608189852500430666630807115055292036040329620543374975321332243823625995591725659413306139345051511456881177426886120047319235514149378815710816609068638123467656364735800307250881624913559904621262840178785480157020290249778739671257572662434214662287713086
49 7 0.031896273530293274812834986856002615791143040881432980997977391501917735444940799644759534585409158026166515884246035123842889917247289592715713234668917900254580232000029313759886093486557204712811635702208383817216513708699274401555430245739271380570284296239347439299060956921521871172035
49 8 0.028984794059019800831603294775236357579778650202460030112406942730030956771513280396014679660288113622036135700964019062008337200284839679642208497110233346426785439605601774380357424695523069212631964177942258444961442015005547087599470204554034233306629180145820639978985431422571036618361
49 9 -0.024811348138471061124136548631784956940909682595451609556114386200153436937754182609531566375927696023427839023875836106694005589421657215264439697199841159646082825992481286178000299679801013671422286987353197760675890881091114885509781983915602245078270954243114724237034167872898574930923
49 10 -0.063128150866019754124209040800430928183034834866317751196580584331758196484678592451519138678702726348112657589039475971999780407390677178847620670051357681127146435923507171361021304203382275297364796913505608949985767153993235461054738964986538637836930419821723713169554004167687954171518
50 1 -0.027197563380666017307082902977233563374979633109168084994837494307806557362758425152239074518719255381912789918602176577370293985349263754832725767521791758249398119747070565835172761004028664333593506985582055492279666674145646478726884398195596853244493961786665398188537552920394216407027
50 2 0.01974285155487968022001100412045003726255509294376344049441904486088993226242855417716241365480665615590730517841271535335376846892674575361851071398534644713461851230987054765072901934616518458737374452016619498585153300209358086472871002309048380940722158711387531998389248334596556316329
50 3 0.011676685415978097959532982083954931563331565619059414067791933899795641388894370848499170381613608613053083408702302794003972145563204056992238974283188389272195768129767932656302159619016002270750875475154636575335496271963801234584350318774501575877076035661411210455177828397737267140925
50 4 0.030751672884797107033090663741046797507289972539075035620226126759160640708534026300639676351897728571372710142112403440185583200696391376729989963050640647970530604945261101642675219275392025608709178373770875002293033795926494032831911218284849530588083406207496182354170367588952916634727
50 5 -0.0071681439550368068520317764606872522561873862679990965735357214549525932874782935271430121019932934394766737110528253862338025910942494794378408413895855361959158360740092391050995349155126327937864600634822045385751148909410835616127546675431124905141515128521941784725909231986373500658075
50 6 -0.0046231443108130569565178197396496291752362246217242316447180555306802338831304896381470155608854955018651697680989282634695138672013768727154507182533102518178903359474007151247304321456726667032410254484518926426219352810953337787674888224869041423053451792460629731172860765067155785601182
50 7 0.005472333315303140384979070273607778141203203231432122574212754959727392893805040809334911460156272404015097121954887568335453248987047585257290269546897481391836069202215603922979654192930196924415391559619175141148795824581679126730448882907664552260603874705550590237813465443463660827435
50 8 0.015590173314563512915461314055882206816513014470537554802094749319814213635886648851035862694125274688385966707826859718110179166914941466032874778827949269716093144982263379691368687845573857710185751498835448968101348219179917706230334276952217457003418125020589896353081285961603628973189
50 9 -0.1021189395386524268108291081002254374050334083328487450280652409782294007883909328830536379692142394841179545057786934360857770773986505548411270650779232947199340289088243613009666892524472821540274102737624210832142911783888642290755744768495657057107262192082146541778625579812621868678
50 10 -0.098024974610080061884234533461356674159612138410603459654813608363713029084345641278431988218450890986275323822845300923505878186405538460336048100447852433663497448463355653821022028475478011736168963288054845575318295503883852491044824083175771605247879795017291238278210926006561147031197
51 1 0.027610726786497547422496623270311668298018671118172624600923262606503334935813801296581934353326058589913737601203328819199997110338353715952517026702550425485462408380584634197090492528468914112856892322005211964862295350827849369157204977821686097146839547786120189374955801199397628991539
51 2 0.032895383556199441408338798026867941506551385675905771073152775326120596433631569033798675110998242410160733564755306396662804261980842246814527687653783217733507004117773046442512748753224544987132500603240556734717731823001736057731636312196135431776946355011820230370725954785363664570424
51 3 0.040672995852488410649392104777808024632582776274015013362206137237334976077862451464613987569951595891209205396624862538299116939923381189640007623711896592280735718528438576255772977340296692920191747875408727756936800909081729725601752160254118980200271947292015242514860823795173086044539
51 4 -0.030852450615813358152681709574358917012739100215040057113163067903792547435878570923620613843398426900491539093871299267121634962224125528372152283990866281202216781122297469185090830533009900087788412309058384339145121360261561161763058784993547708836273341604250859362831005326213622491491
51 5 0.030069542231962153370138309642443253354829421217381607896707636583245720937656171598112609690071784962718555905702170058843659968317692219515320513947988714160768215627338849653887963520654198827150456123237080037901807842470958238819310687686403396197327290706819410501473026237785972946404
51 6 0.0051978802244837216688515974102485003396144716590533927083221155032699925892406635374666824566715187075633707020683796830625588547829513417664081451530804084581551826419674649571735681651682069757608013338123029300457669231935227326618226732551055694659040390340405633558829197656407124268808
51 7 0.0085574042359692868026533213113436434560673698716926169395999318984561260961485282666533709813873223285513845861177827771365205481093471188968159411338290128232451949789660982497385672084013798875749364865788291369291494370172594312861678322062060378965007752043822964761435694199363166253473
51 8 -0.0058994108089372636456856684427378000931036530861027299255166861432531057634558638750042490973651109860325653089812258147002150641071389142981770410610265488684422611337805101344352118956624569015739600607234691564044980934530100841585381493364713875195314665512919252631217366683371764461447
51 9 -0.049009995184178350253790041543441301686418799339860598204600470357486552645038840817827643386699185552341856050698857180942304408969691731434443153334482406585657957095685303156867255871871108026247860708335237096958082317370191308163480435643519259235413794539661842477224209369904133978051
51 10 -0.0071150840322509488201094883458992164990460421681973848073504000356521749492169479929222675405936044172149795255651716603476242618676393787961533359409766071115289774772023240404769179101845820103094330160926342907894365679261580285808691869361159880832332529796269338522101650414125430025139
52 1 0.012003529717559631812135639920280021827779355084133075153528870563144467942211542910274443936038074526028112542468847675896556765932520829062064774716647336630510437363221456603803462570033223334490855684967467502493751522663948821967536783353656513780084356454369038820994390750205360378776
52 2 0.028312229671652273793350357711883420682539683473832619259134927105766455973047204516631793489722669254252200556369478734228703868202245959259584259154824201271580688988195026989661744926144279759273578539688460770799908672460178900174306346873909435367467393597751912441949567929539706788517
52 3 0.032265332592427578046176036691936342804582083660192204440314028844651361211885439756752125897521850523002769641588359288115261054485058398420568000240048818975039660321791320390438836540740665532815070008653548728545370899994431719105887057832677452361048211802569247304702513797456523434307
52 4 -0.020603132370012906627499315819847952561501839863928965645367394078650984565103493743022378075372900256846651506114333227994578816396438677596393441057770056331331826595254866173397039973717117881299024710094360822618167365362144803568156955301196933073054742052845222295958646815817678651165
52 5 0.030910620547067602231850571952681828943281203723967139218004916101785808812866873090254778102838403325600041547056520538532072930607064279775340673912316278491620683531326502966232620484715890243304211761152797632290502266714968352901623676317406527689093409307530790850088746289109612314488
52 6 0.0046864008166446226523230900817585088313185501067504899313341523459871415493361148442891506137158188537863213737002466162867929553634062841464079062718886691419827851857638736931674560920139666299864826782471769598713928172127207067811377725933904008778557461289407620944195365236210773695021
52 7 0.0069959316152413999372739551517403147533688958514727924105968051881195347344004694803799381867669364678238591136877303665019411352859228835761726581201065627012732964427481140621491845208538804025602731324966676037921423050910887760189299718015197391150856569248367514193701691050989125688498
52 8 -0.0016692290147231531975497781816720946546949724511234337353212380306725570059754484980274518070742587451621436906814977078363368497413593023280084170469286922941752789218508366061631286086758775809889451266164009964191531923264013384583073483489137470067687845435295365365149705883037418798252
52 9 -0.018490058555420795272407730554928595484833039096423415041976239443393184599412296703676541480646143312491276630080302171897523627840371509466910859684625049742125874384156501543808495906531095786640125307549093706770357550197190374032783458481364593686850720632565341165854528824479690263933
52 10 0.011936293579482885633228683979012160949858915600455646299769412495592777480213834733807417677955203044011533153482140001939433811089509249537702299479605636914478011343421866816391578716542564269178107512812513820405628440630846526960381644800088492651782089999872341552249067661164524456107
53 1 -0.028308335185883764109990245374369023127407579768162175125224567944673053146699911060861045762946514534916705002109534751518876742276754018216783850986319352635105353230458470168553180317825542497632680051023097149806114523615511345397934377389609228568721901660980610838432325728432405607562
53 2 -0.012774585390422166378853323002724472764843355814803088615534448512960927724690832658864136764358077640817633633420063678541245725361576193684580327683680671796640225915486790668519528875805000204558803805927564526490901442115788533301314035085757440546595335815015580692238116499510633849488
53 3 -0.032859491840495273604642218540457424412656742478201428267343752578917490117577990811883996553767427055922552284395244608386471062423374986131713996114189756456980643632817206862956533549226748308143246293893449317738187099244762123654513364569726805957041161107446841696083400671280912710462
53 4 0.018015809621219333232325363415268725831912233699971758697936598012668863125983408016868515317101670747684064745604102556871716300169523856812038026551586435237219934766030638121458397692052649879574534368841586012710145962539806458336710513340229848683341331293610903751710943635769400841482
53 5 -0.028148801675320442351329076914685013347642765482567446269043001847155815820250184824095263887930915230802637201517077084502993287196880775923111619989373732385389408345038484583153076725017671457830061253356209340632135403600506549419886832366212913147777873650929211246644120210092243308917
53 6 0.042828187912583011268965987782097758554021411600371025633945467660638314703939822504254294428530547299229266190272345151104970905508192934880890942996546180384796656711621881449746994219966534470459828877350894788725118970984185911945598520924696629979614132608600298390728099606391694290775
53 7 -0.068127994318224573025544755589611655702189994603071451889002631523595264850702696565310967082454524722901376854187383437203119616935907210690541632777318994366913321312786250443317153064888026915291501399757786018127472533747530207262016021643577110912662012023827589174690005174843000068997
53 8 -0.019657130316258955838041032088395179142660164139285980786267070379553125485882617757366769503735775821959282774089939526603093660772069137833337297293406792505162034269818295755590906643818462176929292205771219168191276032972156350019734803924611077582874015340248954577324990564473045667235
53 9 0.077498800730245009232178726027422302483324740356940411932234955744089384369458421981640531913125420232908368929930593691319222312176767381727016889698740516549045640686421953341371274281790991607034319637059960816012054103451496299716603021912354668131647903940328734376876051146103706311706
53 10 0.084678196423102793682798632805300023607730584690719686647176007269537090281804215049627632139503198679132898537991456425711524365216471439459585498417653658094383054565480671346502561123904286905767754954301949315511757721294304230659526482304709789628625575360130586890543160006394492524767
54 1 -0.019742651015805626137546221485271136316672063311746087774665506158323962800088970624166857114519244163119956239946344143318804679722139638940642954872025066326180099200191368185677030404635421646685338885832577923005293367960092231894183736124678615787486531758124408979022269964037731012978
54 2 -0.028749386688184695377053512779464387653951816679027065489954969993136335093517656346320462255556380965779884015100142214515831558815741636083567309406294877797687343343667829440980279003654834524634421579447000822745609633998674737353550847879373024940604940016792591496240565235365068353075
54 3 -0.025282668216773132644025724418949668386213722166243502038155343473555613637741159437794752926099616687630293483583279868529027299335950090928523264121256559787308979142588174589079787100826220581425192467916751280870532533297768437854761747342078244963909641657574034405312697617728588019662
54 4 0.037208973598811660602823654843962505483256399520732247476563460292871894208936746537480964443744824017108736093263770191831162801048935689645097323999966519825656749354460816769223607240270230202213564497544328750736734572154296353931604292792679981479470361950628349614308263915891808660968
54 5 -0.023457334104881510697036665834341487742438862197962395434532879531019046885765718953923648318943445936211928711613375450290247158062642082850049640160567832442282506680798833422492675914752659141127565381620283933933464831781514662005509224582085794381098206442047650769773621751121373347864
54 6 -0.026211680271710632587123544657876747893904816261097534148041807947540241642192167224667176077184752078339105299242244978633081611051920325504653900501993403839867504721952075783040933570113450195964708585203433915739400126023520812366042376447565937844829581384478722129434461715879254003057
54 7 0.016064141839495844810591267271693637329806631946978564009106701375138891306474019088992200166290360581580778959114305976658151948873329735468434695247221038228330779632317915128526095328040622588720104692516431923050864868331595877595406543209806207095008246841882639653630761707230196471248
54 8 0.02054252846083325965896838401647053294938509316262677202390585644563245586895382099558087283906942835877810213781718516073086501211311652673412434448540195052359480957894672916051804661032308823465899057372068264394052351254741934402808654492050714515028692179453734647927878081925922114203
54 9 0.0010022124655333020087946463950530642756563028135643271490916371740966998871082555066256433644974072263203415294952137393010172746012884245535155249053180743053855399235471455243595902006976734522066888650955030300986979930166445565399585128503061476614420421153125605405645870376673331522996
54 10 -0.044205111809323658438289516840979959342486027566253107363968212419593423057264781094354534838402704530056800911250380268040050369363371762631431685145623265347207596828313636759435373931029436153719060153102386843400029312532239778030166517404164764703027295177079219293699794084713051181323
55 1 -0.007236912414711497583467489830947959985492966180251941062315090252778124476550337002919380292782882032200552747173721402029542597781518330892819947341546628710909865737813409537171760272729047322615790157294209086731966537766645319027500462600055821332788793576043701669059197707260763806681
55 2 0.055847726165453273166077533318285133129617614574397283100446621748978629382540965925917113622537248246258814549790311205357575057793124734606977917564805765088612427389628447196901872417612900509675759744388383111175680522542615262024337142962320279438962626775383062400669767486540999716692
55 3 0.060211260098895524493963836135985903742689469300937786926828288128496795599425130034672960435014449149760386308170813303183767999526342736581527350552948062005647537765396549417407243295246351920122532995444482925775818686101391012791174423225698389290744903378580162990871214112276131900458
55 4 -0.012808693184335240895468455297448374375228538923091831044348580782688485567785773791186301034173599999261526709044668071028668269486377491144596182927077492403904751252928151140828341835761832302543816911673705789121433571028365358701182981332498704257070191594086115464163665499654735594163
55 5 0.028575790829948598161356346552253419127448162044041737788646332954078817330173802334291918153978209353053958216842387627440748238047714554631167542794500798593437937143982688907572977304728351199608432704932058924306864663391513400672375518153365262840373274512244321732338804259944780273308
55 6 -0.01795259709099967871489250018630744715458515141445724809930537777943836443893051564138852798017904069016631764201042272701273706581129265367861734155898494802392432341106679301978080398734629396543087443043168303595406297876107105261763106909233060624467550075697470857047691450112764477315
55 7 0.024363231273463113850701724568611099636272120667108299095930578499364433377383067707459506248647437229858332505080220847274654016863521347962450003160479605181900570175722855573012277151476448757402578649753969690816317528832851703617037785817308287833092924386296701449630866928133507830608
55 8 0.0062099915190439364047571836251916883496151694484350909241106868019321639924081477119680804045817018565879700040948500047078708671654053268227340582865528586578515371468978688213581124155133403229945505218956586929091702918628250184443774205309744134426040752732787527174899425502447661844168
55 9 -0.11458420641025936213696497902884029847448050817171910730047984475826780688132977271604301637054067526451957758114874732249483381350324248347059172992420214043030444528794055155111037213720108460932638898502601059831408657879849471212690790951009944203161545376498106004561446254678830439705
55 10 -0.080455031274083472043291269882478461100253609025970634653481166062065018967941495811886026595352190850320117282910355802894571073299826177044749236826891085760934790172231104196892940591832230348490989696029459367068900781127805886950653454853168466146891788695624589826623442074508830455806
56 1 0.026309846736826462168104200737442018180554747396000169917805118564176487193727324202520930468874281837086794750349229916674873656449217291590664592423286622685990963191799974961278907226801813119800485262559042050404938655027974124737125188751005320403880455667822518614307144821522797826457
56 2 0.063815967438976990744272110270337035437257111697084945499620634658766827287429929810711644633957214651468068050349713851550238041128798135664001389521222204499967024555410731424619927213321989349933911481547508024930427976133464472998109547693059223042152854825281386858843533410474264529544
56 3 0.071292670639649783228671072706398398560290571713851243991715233519950376482538164722015504660303359020028915547064830201838566348794224773677055493509807528247980240096507502944652458552320659010536196484065925665321504042164724161467612325935332857836873858905523994836716107899132976917711
56 4 -0.052819669217055038350658872543817164513208746789416744723540465338767229459187365029779210415901119087649984126362274888242724028747583606713680912533234052536860429179156609139449567152958589094060948768046156668009489638847421099288376170571084581247017028460164867506277555237074943591061
56 5 0.036213183598436954316849206545717637132686780481105714745691390175162086317850586424486130965843558851636704938549831890686874127376030441309936262255210800507904763350671449094119639871898135623247901335808798561554591127558751728729952984648515982472384520397181119605518617368024485822057
56 6 -0.010488601375832049680674252906321822327676890990949180465888328059087221640679704034095490992973729917367812720555427736000716649713388505245555107388935625951241896463147412157946851536254659928253101709089721473821059840473828705063128406270958047066895821296311269136782757293385474401989
56 7 0.013323208139674138176366001703179408961144649810768892411617884028337872557565310635809393569065628813152379505994218379449408929902217319978090268300368155104430376868463448178685936037010898515977460573408755084119016327917402685848723951323740783834213616596679043548628417317125226776549
56 8 -0.01256189150536685553409758181137650934626874079444623246537515304676967928511190256284026566044751948290676833208216221631364112644034053719118659280957588954567989111651371127772466839353110190231359005648351206320580568560376397925298973198950038435321786998641588381358945001057060852591
56 9 -0.083139307467843349818165662916164907419776980724793093167852437936937931112533219791586261105770148671687694084406056629256391257963834336011574836124681325154787015067750192831339586124616016901022774303641798942577911982527393166075820863667581622084044662353379937765860948174106276738828
56 10 -0.025281700722849114450767627822987490500393659955742804483835364330007073372420275403183158742700525475076115585974554859593755727502660838696126594438296278130256088459294700399285107743920716853943986158529589678376945418317487721321973005246736964327096312359764975297084870340646561005289
57 1 0.049966331950132005161519495063571692413995404859680358495015400653472090087038079334138067937792706048701360209186969182686394473223825820202076170921816890310243081202558039771295862516328394841868619220353458139471333312412274023945551230135549025045974615410411198080483279002977355250969
57 2 0.041272616494634362454939476913710430464032364410820949013131134791501370446066248453100323524049293377455628364949884679327293938760660132175198978374373448465343809999721588249038604821542794637437474585676827090871402079767770481195750635874711534800342986876893329407609392582513357735846
57 3 0.07888930421428140535171111602520047290768976104933600767530191290504089257460057750689349423318899057800644672459332364238089162125035881539864749731355585072589825632456754473469651545926411018274534833309777286628793960985306697934384605879724316106233984067574494870122587321367667633337
57 4 -0.052927986792683984989700308035271494632482772365376790019208823864146687060894255188549157377737281940372276699214679014098523604510895549767988963587845419448500898133215410257869360667846387793797933707357193493699125588667118967721047235305650045429421457829148591478267005410885209229564
57 5 0.059557982225965154259540018778542985800930946033881848085961372685046662527897170876180848064254002936258462152894862926390017820849094608670112464273468479663056326328402610946734398497064942953998884625519759855407870022747664752641397609741451195237594462255642126920727349511410924184111
57 6 0.0085623491085071823160958988722292961636501210322657414760635285059263396843489792320294071806666608767313216819471175805240419182423200124698243068627748667377606474099519367168913420915838111835269092645911141630005602024023736235832823028729642348827724444221625277246251179588492857287297
57 7 0.034848844499193498590534248848612598366803716155338110414096205910004565954203506905361652617830291537150309223034613779587610885916586749257764689165461619922475029831623207012618868017331234586919138989141700529209936977888912050664032284134381768519407489379593414193093715210451040372839
57 8 -0.0066784159778871890045767405319764300642046392121087814378362823690162520669272576766769268607283573519742426427908257228842239205119012726130942122385212538466137188804520463556163595932076358518479383576253446315861882918968882382717617416782889751239747160899503742097567945388624486627785
57 9 -0.10833029724364790728313201360473986540759696459107690135628487437866968346787733785951419548633997932870365654214985487082637865556731331801577185910710721494853195825017026366274694429642004967038976642858039520458263181810205722066162676976148908711165468872434628941151344434262172397677
57 10 -0.030487018294920169196368896910984884595298121738241113337836457439253163410863226046287002819346175213223597156596237226344885206920032758321832515017451563732310950033011798616333966587726302237547429749688896869392167431415122019372577055628098829828852827687412815391118702982245994810093
58 1 -0.03411370235717873707773738291765803508179571148928633491274002603672013885033671552164560559922845053017122028969834077112472905611834859114281645723893209344029294774428882345745082464590632014457664446549822790021703484099767655996173180856426310259555751396640211023735719380921196832596
58 2 0.0069602050117496056619293625915778472303656435389732416785393083933573077905674363809942224247159719849347779448422130557489261426118443637556262450990677382861379936521256992739084798651953923987400641215740963694586916144175134700110556875562502685557174693941158954997298500624252492302642
58 3 0.025048219505355698700925325922653511116705722452821312796080177445005764772022958125951038791446498923017712542291009733763587519232717103084326230357804742320983350270422992965652260539140458439272281758131428694516854494848926288540163762176739619755326813838968390547306670654518016822747
58 4 0.031466992486524828634475713774311742042624104470511062272854326682851747332532696138997463115834142525353501641906389438155973939982288926077417561776825782645111985575487393125277768937762580595370008949061057539481582014805853416153493082974394055374587958703427052242381419854487787720387
58 5 0.0010876841507818187339256783764268179532724495472719198740638104446600378831319910392139193126930240528387375862283892044317605585181062505681904331178355549628436808826435482337440621496696676361278077294674695053656388203365252643120244462369877760668903924061032902358938306237846184539212
58 6 0.00073503647576770877667903918616823817182215719889463734248453428345640342644324555427666013886928465221955518207026878852114425865837913073375307018573966292150850601231559441572695003795135801229169160167753983370437907545659845549234366219125065241110069757623606646325104259014371835265112
58 7 0.012073884023255797558223311079663324860060150539913519343606454537452303751143072367901866807138824965478998720970531606410818567427535662751487584239780637813758838748220300764144135854391952799180256619973776859384817773892122934581144038855128958707969997681648184350432728066555782622203
58 8 0.025484270129151693070087104804764831825142466176747276348897861831585992832609252107790187945002876235429941840807104299387801273492127296654114894125937934139172651034682808990258084088864687532209002942472010232206947435303847227532705455710409556067870712603062087607118780129233810306238
58 9 -0.085794560432106893849259763633029297358650635341223566070533836555958466109287299428128854524923042681690491803457184868480408442799735603178820261892454477691644510666418754685569000198094317270761456041507519592286004891828997062315639492495065317232887754223666064382931779210724008070926
58 10 -0.077594342970786478223737674438957083124100343673844079066251652692433246001473756461288794698011917256582936204897306317249145523877270004794643588660779154560425868445645772604913213642749810987284436714530890492817145901186771206713087863431528192279922878083452903474529124925086170671443
59 1 0.0088660556994343034901579175207810868559386171685771775069223244710652435632181519880299234175208155845885231691681576911987431515416271567117173115494494342114764164328573854351238963228962088590589933666131292848746589846069387516369613262913925202468267550837954251235349458559220064667056
59 2 -0.028014640408946490385797365441547282842187538768153994498667673635127338240466998220164224217558372680033083401826552477948608906032884467786119379140630913983447494664528154147910860966646546002871944404879232948272568815833375098429258706936086943643588612861954546323310507768192779336463
59 3 -0.0014458885117407604073693716495112305055922381605310647108269440772305069985603937172766740489904021507741576952584918435774815476063527990425778658236285405441526236460533326529489283706160319751091837444990374831564560655761674050435564471798826402534321388596800433436324109350687693025543
59 4 0.013994804165497858583161404807716346966189037193479227412731709670831520271936005949919143780824551809414534160902916173919740978003497055093819118348211279734240339552586454441606458256072314408746979844829879234045718750216318357752319097109501380231768577592204968382121445537990865777272
59 5 0.01251131377769017105379056854924939762964986509128665468877630267886226847802526777179567577428379544039859366216228587232484011551682229713404604633597051684468642103932711450625106034760172727503743113303684551671231168575311405645219041200038471937976239410669942847239450874366090971883
59 6 0.017747332702833433567864854465897807667585033139944817813458501560836282765475091998094863812223142701907028805118244749863593926412285827437727973173642741594889571206099444445125090006339357307532807536621441022819925451645324617272440452482500817510545468798569830864998588380675824757425
59 7 0.0031971447708408269065061026060571192353701764659050290034904098010381251140408319136422517570688804940995878765650517343269038545704790407578653818647961719240649235171960221004756516515220261217641128563639489018001812781472490593145187741021288597299659223798756974636243324881466687915163
59 8 -0.0008639835161295409244832702252290632193808139392681175307539299058032965166612689622369435956049231596071091464061743566822551217594696297705761038333183398607734636605732011791903553532346577442247816325343697408319486136185562916666682175110419200117135651627818253513702635451222643088852
59 9 -0.0043119381105493581999267960200018603101309755430605259230191826415961576836368554948332971236571472200572597815555531696620884363949712626787731665674891219914271147935930693801555321232072047554391833484473220216167007978148558504119829032926792023717489503703927244837907589107043301127515
59 10 0.0045074665864351994198363066249776276060065448231578104979256741982735469204806211756999470124847297493900763632070726441403606107794564640137910286552466240384003589834602512541934772161617212235534420067460174207223610324266096039333434992208964631089772781288538633027102405290114852228036
60 1 -0.043567937570720353597890702923384363096538803734193663230778835865140430732842140457984629795509462095927783059542362954513541618517725199636714561466775226529402896026220838548314306410948522701309013432070757356640598462131918043120876610754801103227998012323993098934832051259622275921797
60 2 -0.0040493374441510503634505438480204595523520344336678501847292287091264920819262876448101012310106571148706461659658271696542460233031988231279085999120854359726387982274307053595499160239681642627776629544608466978579607632676541269616686121306716547101752800841578908178632306012760267451283
60 3 -0.060206295770912667979372485836782751370187700658204433850392095479767221661998256649885078526539630196477569363257843089063565706875126972509745968418663798369245909806012684706964332575134020697813319966584822109472181873588820618531614501349279433842227961925992315853508930938337453237683
60 4 0.0033791444833078730604902286244668747072352334921157424532284822120349919091200880936427733714354880003854885315091589229991166300476829193938441989883723566630002082335384464559412308870896880342961014925406028615670935484550699947906155959415829452661751833668013355350317031772062602096388
60 5 -0.021059350519810355676305976032846863059531340956946057828203134457380217688492203552996882659669373068328375997649301630201608670636134846974500169244053644173331764984969205085224689684096953541629948237343060556665285449014713247754259616467259210515328450422669095541532554322783619019353
60 6 0.043995795867338370424919136601163637148674710457718508973307917496493116631738213399701242266100982929620986456106297724941468332373795814476552496254165390696541915198483642536591465678229488640998792811414168063808209751060126941345076640410236564067561829981173497293875368867792560688532
60 7 -0.056343649436765189412108356064586328085253176064808601723586784930694503792057385457564215445516561148905477707824746434739342267124784948329210876808110818467598890971093129541380447318848720582370945603366440153360510261725935045550600593966385238139153448405129907335063875382574517285674
60 8 -0.01492731207932528599763357641365412311976448832213247434578267470431363994859317544862303122231957972691743108673733428572069963933239441028564711439282829479230417154614260127963022846843048209862046390455791077101306597960951825589248021525730815721437744050732089334706760459569234352139
60 9 0.14058609156025012308748550294157922939919650341792565421767287046664665061235782734981567612840916537125637827503265832835299511581506517535702453341207417539905372017574219841669857292130966119340524810652382990285365389576573259932030076947227837479805324187753203127025612793798541695636
60 10 0.11168613539888978176301907312965197153469560424793172088564131137524588306855072720660848826630529470807248484152280200008377793795208367208141221357661290912255103077119895963387261734346648704779486602723500511929095822105956258908739782236795782049840789630324706181804579645775911190523
61 1 -0.039868656618686556714104929705390086148459371468435557542422593897042248010123856360587871796069767318195382935900452143027259670328925675790199658357521713323802968386548560056706260172387152976234199569294475653166644801652457614393018836639020090914088857921520201415172298299606460706127
61 2 0.054584780672194024975323047236467377569306067073023230227683798848702068527027687950815143926442969208523028940324912781798900839759350887969071879637931874127080655541960778261795502619897831914272626123038419492101109198215221630707848771656221828736073500200593427702491974989418075705089
61 3 0.0079457542079437707178310242739370169590186283853417212453887296731532585736568896514150712075122264842687662124774421100322668213050955972384792659638153496953046118985507172202559381211497420559296283181469685686416068923149497255884874456786368261280824461284174352834174792525867343705437
61 4 0.015353383103875847411963061755309697384556245516853442668081262113266779566779395977973652752722511956791828027352330790135177013012991306792162454532158159511077631511191940042921765893241225774880576591356191355742233098720430639268642289603322355328078709840313047950813419364578631954376
61 5 0.013376569332558738561995664958099207863868292641272644102067730022060282315516178425655126690792289299708706707141497063283970282357532511138831135535530676891333744503341040582948731706743654534799524986844948549304364745343367298921985958351419290078623214085775114553712672365153838992587
61 6 -0.05039541433820954270969669699440319313406792564446394829553423760912016359793249540618727278745149889893271782470945606545829298368969200508158692202433306406617477252583021657055496001695379028085522283932018199150793121615950389387670333389274033445819028756290938587903370203473189472552
61 7 0.037258965580736313289319738511443868901383412646260624497921171372064626319824141375599953571055487606450586939058756543213599572110276919632996621402967122697464587365576525624270633152486449511356814836197708428662453020950189708629735510751150063750764277990242225477933586609529987666126
61 8 0.029143958646394633609713936275327226519289825907843197156913583012590227238987802601766634198434618605128331055572328395039597537133873324671084928901228035622719632509629665624384845780558130904881745926543799764699503021331356563207432046779255105799800051279140778879650441601306311081282
61 9 -0.045265261220945993859666538753018364635415523336381036338694598346444878967314090710589776050560660734919068534118211430336246323961667047079794555250827080362954869763926514056845941158065095955708269181532119568118590351784177975222128608457369541869765344671168769725095295978871495245198
61 10 -0.078216293299591756163536420337970932132427586746118119467170065585573334487446722348582612497007587518681517465689339220450488398455310406211208176186351135697706907451952421946344380823856150125444517254156633786493290742396427636169616999069255348474266772687859953304103835001141312535333
62 1 -0.050533501490802300428352670225977759174928169563636675363906794882404285918775847604881335357497247590944655691372975187879150694743315132196354802728988886056458541940033784923982901158395832754131732434882841958920747103337786115461828340618761738515701917828681855703757068604585288710283
62 2 0.049972076746352539338136250391699414923546393963810093877191867336807411532106235925996647934123222511274774663052711449851206453104189919652645940764571715310122754758583652117323212888220497028037778216187453735495150647130233912794923142940067423215048607019244547020892166357346628627167
62 3 -0.029786679034933723248627841990613034559504640664842034356350353259224588806198346425812048093597676962969715991223097582608090369592781795714501541769696899569870476345853611450765370949758389265538765793864995891530496064055556652972212930392536804751309900522985174430227160972978098297219
62 4 -0.0062879669324392887151186910649271151616528757431072923523122248822146653708313452259726585453882915057616344821241151222461241100334623463219898711670625419852614160774065904360024307987282626638966969201326659863697335039436206328575484199433343013364043608123299564732695490503951269431445
62 5 -0.0078647306119056747991199778692720487599373278094539497773880089633709469463473299603098881699863791712658188755923846442524849875334763271046579507241063955838195394918916267847807437109335578835783554189611407330581944133802248960129156745325139207831988012561304987137942219054803487146537
62 6 0.025515482296626055499885754739336479431817586877244178039125194523890080016144322416416599615026024784790430008399833136675838766166856536303482378947607575767816728360549696959897544882597545434362834981765999212290572967319089121575321393480381189588624580356728735535223580181972035201456
62 7 -0.055737569683458410606315562592017945710947470999532178206556105929565273178790079394441033691911796637532407611644887406119761306852582458738521579134253041490122223723522005835684042190858331424824238484190556649491276895928409869806081028719494494197864559324781420207919762540189904431614
62 8 -0.018441025393225537900902914916223911253497302674610222177159797184030515913526427236074360259734436453324671889935828460479344399787428411503528506109243044833329906888537146199964149754423064553349845657957327704855308517870269802997956258547915697577634729642677807062714194502868393715968
62 9 0.077356652425933018586612577164653065708855721520266377275754401007178511507677012263991007235838309969154857744546579116831637771787074577518456093073543998791299863370092574914906914292685194161846511230966572728966084912151973077510971799444748529125355827025654979606554044958332220874214
62 10 0.069659588524604859839027522677558070786027343712061344807593617638268171554746442822523063982165356546115148746139206294500080924374774682362885965258279747909790527685356857117058038423668317422880282668161345031106540377679627660263872643305901539992174830459094765334169931258767753785354
63 1 0.01178154802356209001190154815517704227519437781438849985623141651605110283139354046668908880090835798443670162319400544142782809068783283057663446503665461456902933264717121552119498519020136965274292997615460830155293184687745937466128713893108166399410948783647061886707674410713309693066
63 2 0.0019586055670148732644935706396279851330980371787357430281249449579938995263457953923656749332478631674613217037907913144002689487329065880532173705590341900533754208960957477093702438706605187743974820564759210147868922872211645328739195347820147294447729533614189577173872054638626831605031
63 3 -0.021135798261976142726069175355950167758662344006465007842352657228251528029013857858804115008427373436097248404752420575770246017529483104432869699416464350397016929751880355216286342937409843251423077323163514459690088769925027006943712793991923103732178387721028317051201452816461255752407
63 4 -0.014452638941969458565048946666183011723761553590727676406951266038752831582984339691227310459310561069719953917051019103854525165798048634774012489251551582963972540882118788806346661971101172251685040895091639150400070306884135301321875801403200770731453295467723485951618432127193305986838
63 5 -0.0014009002683291317407941306044686311831330155507626695844967175492918047007148391379476779203576970115689338492458482794991055955753410973716603675469506067584347101365351631832725438539709752225910215291263757028582050620243907079929610312299721954458664913021500674046583989862920249158221
63 6 0.007299676767632328248869714235729807140790566448576430884210265791048067102761256943341039680400906906470758565543041571016456725779963849504791180552560663192542606634259160439330932222617213055807194240692909940705055831663986890562697227386734762585549336626037189664472019451255097824239
63 7 -0.007626176436897540487074230200993133061384886551715365994484017166222550990079871905652247487507864213242767463692298361618724396608235224576911996178981758903420525220553864101046554485476163657765418508578578909369744111510511414969351174628388306458164396176298153663724586947707580385001
63 8 -0.0064839648718298013918219072616497390009988174804327763041318541926479951712333830642801808142431904432286237495945887800124855032533989135966933463383353608365417429243301330597475484550063055115925191791949398522778845423290774916728297734639990968639288198873435097687927458246635951369534
63 9 0.043309630540270262844102257900849191697192059039964185473878135728958762596274024563588725432195672701715075318078712671368674868855200242985860772988849383069989845384161310131159800916704563941511043486738534077950761775146419719054029682627868595501740878851195146586157105672045020276865
63 10 0.039020143167394125338179086928102681239729128762488077613015452805522537378603230123278035344208936109957994030625361638902176025369897736041767317146345256758346093957851878456154073844772703555127718795131972780117970653559837642520300082215316688720008029195669588849812676908180831977412
64 1 -0.019014479204703064971642216873766390733652893444793847946020360808313885346569412446325790811813912972853651191668620760980918930299059349361913285194369335863414259493169416288201798749615363381932113760376556806318306118219070406106515755782543530955949800415164678272008214794156229566816
64 2 -0.075281591973805603750501896802411942984378628571592661159318228441683904703311467427692249124161824134064009618093026018872288196240197240057748770450051437622504313015470064272219676159505181692462606827316673743975995512573930009188598761470141422838276446605261738159678212510438557012011
64 3 -0.051502034123376922659353122617318245261314150343401148995197942341136567932064626059823109279489988197777115806696396850369163491817019687143405495800393182372868773852137166426862852066675323091715942513500852570097771856757066782644271954393191474240573912340731577864663628359277168358086
64 4 0.046513634815575552901911314600283825387039159501565987531594471507406397163979951691403440555709421352239055419064531626848853361075982598911215934268847062550141471755120509162056716807086127958557769908854087103278514300984580357743366729997861051694187304278167091132236593912337978846345
64 5 -0.033605977729553376827905091733886830992280653406533856264861715641289633811133682793962287710598243789908199278283795603375065454622237258216952104101424613643308441413660452621209079452105668693055548817490908283915869048118610641994546409948962952979206601532836266738580674839124824343836
64 6 0.025036600288144019488667631904299970803576095204464109617445690144403784647170525909967519788882808649099940665995361599643350624202175345184303606370270334051617565027716374486292946431486689665040912089930039472645696074032695293921993810836169973271829132366842867489156095969620867159049
64 7 -0.029715460434476549522432584790319128585942250554322633559120524240863886955292081044568552327823844941856977103083008115514619199534737904643868199965642519708121551989973641935116970148377921248353003825345036920392234753742277515874409686231244654027766304465481356283386214942944579138779
64 8 0.00032073374329595514506082040761663870564817025683243456053272939521209751677396939011145631068391575952692709141657293065710898760332851255545151211074918219686759771129067973578505809807530757817839580027919846342908300249565411449441206532111534459076614833920282535832928116351985008829698
64 9 0.083738038966135138495941597641680338676036167722818825713183720782519801125519129261183550158274719189778336067328210629035677264108860570946001431938734060251657420627825433008627321205646079210856706553902925163437893704939644037331363863473358871585263437393084051493613925011326174515028
64 10 0.046443459578018994443733797546340185448780076618135490316852959605211096797394512371434109922936304921688833921916357869606434007006327926928136589159948104890442216587350240941943138589918164954039435056333087351391530750942826013306322026910507461622048620854441881147292068454283508847193
65 1 -0.010591284118547902428000562299742196448279206452792010189868398387047157361083583022389708193437348411936499726443362619013947208102859233746066644064494784981271549878210379387701292042265287403847775184610023157772272295074390070887533875885093218915887172161261156053728662353598000203792
65 2 0.0061337426861163893127088068877318840074211583922018582648851814949233147852690295329919466226265877796755401860527961535159145382454464097707187468862643257256564998301032163859409978045088539191908815417741013215948469485070664825682896853000453754645373904224779274898996348664298518040342
65 3 0.018870032575794194615699532240252976488394044541110951623744861061545522198396534735368276134271382429631613538441694189866952873618781499802016276272552309623240862643676456987229609887147238317490014287512582181757568425892889682057645840015150667613704010085988718461893906554573788717229
65 4 0.0085217615529768616521840176927027148307076023347570591487755619473746060544995039101930000768332560556159712396917502197698708031502204750815277293611202506308968242720256162238140387341359014618049596525444746453988863080897450151185523652178413249025245409302466155926867180497394546141329
65 5 0.0041783354030778531507218638636519369319651145425696959609040670193323887122669326212552123015046937088718534696805194170979772845240960168713543897084511571146551364326554821713320467383708701605517232704028164096467669617986972872140177585680292000319400065390369688714960078468914357633431
65 6 -0.012305648950534021453485767888170019090034585363592889793087870317774087643715845144775088820098284049111006049305743764265761515154950607765670930624870933425192173365864341162720196495254962137368657291767403703069421373933217040314724641785129524552554146928766166429597344499427934331692
65 7 0.024379325540354581266384587220057914010149063443874495950917076004329388493981904485517389319085044933901341182397785543512121345609245818873886684510755172543949906800400032100734698488022419591425277243519526326514122213140171098342640714356190675176714085553241375539926486789349374538571
65 8 0.014681383629032477057354790180462304008848636629392512395479035083216462339099118971455653546626320383173963012581221200646092487659824006798785960087109848215050679128534885960549170410452867276825746137233565332306135815156281983422584003963924780268380875796409194597410337157901713206058
65 9 -0.051465607690654396771791461133505144989173085311609594052619114905739295387904207674934963260171340245881091957361338904700338507675411014564219043268466920529642610288367838566168835051295397039583289977239044228963909001190476939644825160086727215682746793191236753384682797726125962315385
65 10 -0.05679017742866861154880735556566604775925374153061034246026051937596959462361972975552132485594921565918667264844938356340495986667797922529919326570976594276984482308785422189708612639199238821211242492628722010450947686796453960400311792704650869849607414718399963603576271182145343403858
66 1 0.0046101472863082661364109521450214368976725910381507039751886572192617086451758397784132086842146546913003261728054302283034081684113279049132475580819602281926692187595257315740108991596461456893563817511706134990917130236685367102689452057603271187182894806120861685730077112910980314426717
66 2 0.051272733780146917937096496657943287978092968054570188479879317553142645634643187027432206919826413793814144347725799311857487970047701470811095029074544653239464371954653824686603998581910384316189190279654006919780875484043143096837422494557909160668794716084738281361146543926404864709765
66 3 0.017795783759712917851340767304001782903533536707188746291813654973878321164224268200502422645667658309868309047965865744769846831207602043609474126284651621588575828407479918230294676639059947433288448943985668294788364460819036788656598091510490674641886315087898863734814152727094327980152
66 4 -0.028434368600694641617318443634734444385756767772163560048062383415156324051307620646869127810197500773274135408605833913824175911451906910704300423929249435777359462065679936833346965228240087987164160837926792894757418966120622499765319727383372307736040926022278136205974734003177219974708
66 5 0.016055095284978938767956924010635213690785311739322485043074180108294655357120060396769494330168649458441475334757102940267436238049950429583730369416441896992036065211735290032088635343143735841442046059317787154389494696845423722404678461744405228576159870576101232510034828798672979155393
66 6 -0.014797717814059585196858730392780040474688647440300124142072645395470583081408277560314198298094900545914281900839720249194516558980099063168203532133002411111621535951661259883241508061740618460506636795303543810732879324765671063765527165739378048109788031272116424849859274628786315610482
66 7 0.014816539610314757968174813975255691186530467925079388671799242618271124381369986868229675568973813539031432103050613918942288224007254789724525383789254659887602359211659610868981597572163334217306509478130710656813039496282470402794285502606421005734181553392705558959081674464679420350067
66 8 0.0038062004828257925695033269484692979516012341671639861398676411783906059291161347004417781571805665054626656665344137120465495846993989035676981025414358758574684658221197177281091928498301398054020744459070098787231300638684721813116110213954370285279925414350977777105828769605193633415192
66 9 -0.032893377182213567634975460689442372387867336584102127608446862860048582476050072943123590421329893910173329771899416227130128690436394522941254758906121366712930816578297324292607917734880895753591764179984746409718545170209671600685246319116900724459325016237841827543329005692006496733368
66 10 -0.021220730725888642546683698335207520017608972114340356297392286871555037814491134542430848773480706906297513228122661525524407871155480108691588766173445864130734005583731090143496706380812058025510929849223914563744569931274041445079060252814614032642346730602112463459045181821247857798079
67 1 -0.017749471524861695476220628432139490545342431504935905608608636179151497703799464318469689904365425758662719055062481901967390165637123480299513160095773095032392595114964619330975103845374476446141904997669233524560712228224648610591423076041418905980723316040018265839928546466928294047886
67 2 0.0070689284265245676227724358084364361936284033604075171593946517258581934812712113635359297305093675877440048084968527345335715545264798685310798020219328935152934552634533352759172131263447923624461126958367010153161963783631198507357787227115694985556136306457097955209904308809772337293464
67 3 0.012821667772362675015804678439735611047187254411994512882088980157759390268101850528876525582555133026401900064923292702347863962182911621924003996185316328659000485113916726152785597756447115161328264609626796254579422644980680934164784145422409006200992368393757721626792731050854393625635
67 4 0.037333570782047185652866515672743193970683073994618791377739025555574208379064668040012503140026642377319706647256142361403767458499591514844029729758382910508532764780939300236264409256546892987681804632816932439682626888048757400523010858935467512322911156266447937044358182615940872955786
67 5 -0.011916626961540520980911406376258426203978137811948581549518027352826585181704044402398131357999128798951348775568569662040358745733771910020695745979552412040456821322898071875301584902403357282824736078159964620571134470876850986938933150513689346832332458190185267920377327227879515233625
67 6 -0.002614695703230152727639777820893799456389835723488932082811434586691811663584993323650453997340137537192092991152574750407202135645180019096875395024990796674255349145247033828511517483529095170256843777946810817392233596270336948202305171915888701633370649110614204203329400833251269967347
67 7 0.00023535624749331666690964323339951925327862056913215162954404110851239926581227900968930808970148220082042706152982339861768436231570863592371218108166032897948143633168901449253537114493583923274664193131746019488683751484793568845894311385942766467307053865527220220359971601478091266062351
67 8 0.018865087857808304316587791627013974338184680677968566036483523276189332708592449342760252481531693139460249434440939303465059524906040719971335649898900364829737798043486430123020717268065963213292162846267837139541657728734730785648878536795816202306777365795898111406831352297869818624586
67 9 -0.093920624045185651338024758931854948564187943692137983051289211277688325731997685347033810306286430931423523381041587302674361899857876820453065915696711143548527321311535240719325089309150198844729310727958077252384274908298361009984526039341938483979026778162651675227343474605326628123739
67 10 -0.072911114159099487317690765008454697181283115011430862687328001215979634958441743158115780183114426756325112159364009664495251100495489888117744762883019955124864541824985078515512727959539888016576098905383404362037750739896627478550830695816907894604657745183939916903001752646264588073207
68 1 -0.037623967601775703189528758642163033013750763020604210308316433953351842433141702178367146481640656510228475312838582541487636331768025331677339448741368578624467608346321001238891131535651899103707186268214127624714713089425655571647836373477288472800233139009684025072091191355662576888984
68 2 -0.081504534578877615936813816946806417056110065057883345883249495708173927246698241808552370715797920319044809536063794715799164240859565444016583833816908028700634789380300307508249906533177354018509842554568023274724819709616839314531247757921324356936641337505555600460424940889920558702276
68 3 -0.075557046481907494046146831557681404485393172853166506257154024122162726334994559214795759627733039712567527138189545669876529504556183489672601128481440104709849790993206627536523835313737441882565237194487069655775017416889010656756236922219135763214879091515150114452868398647585888064128
68 4 0.074087521039529987219124026282520420906086359613410028991221379479588749703868982581740130212126081952627041633434065234773843088290455678790198839320663636145035255602959528374685063804459655171361674965768113270806223659064310620005689762725774353963736415340522715201819512616482030472274
68 5 -0.047817704383113951670880471822657841245077044194100448872497372408242861548378829992370661293286882402193182536079321875129447812390575646931411257563584768262959689467903320686331984530357715176600684429715295948344912760108560865883441363108185877337825526683229415603930860043291793313879
68 6 -0.010820969851414387603560710907737047398597920620208164619776483133030500856727822512801025125070908039123332134869451063315000551495233524843853635179504632819121504115546339269092496413673145592647853024193642237097654942325834667280030601717633413294604614117277305761848771097533260209847
68 7 0.0088257879098511694466420485059268872597398307749862052095161700835336398326524996691391925365282068787133961784929334898887648014692572035830385861674434464427900302317099834377441934817379744659291546026712007523870748319514772946569594266156893912894165000476108465737023537678069938809858
68 8 0.03155278939938574137629182215551562790123744231219272165923810360960517757850444035386946439481698862255496788165043557229851904558530242178187762625161617601281562119189345801307318635439586930983928112860074019980478395755370820949687389019263777018526419744778531576314856579713988714027
68 9 0.064030927987220736484420814134813616460626464799860936598994038869873639635466111253772181859788930733451937486379888953388865802449151281763460772748095888511817592136708923068049402785581153668125080198979262308220773698602420028084873005957387390504863867421007391720996862824475869394778
68 10 -0.015060985536692559877105864857647809771428224386735030323296169677224904810189289439837865167834823896629595713748510450408158181134791124929187618182810749307284397840698847478153906900669190756713229963929167900600182514864735093383189619717033662676219652124881361536896254991762052304349
69 1 -0.031656438916395088949432195642094563959060656561882421904310790427633315485045747055140505302120532645811434741281246338665007894259471615188425714053054315819702008304788017901397417471216329783403719726254663911129451349437797895923154714812879235455430953552392793044473121345858821648023
69 2 0.015066052482602214539131386773884078643234811295221292112965930335646635010397162521758547586960269413977804289090849460640556802342271644552514138466376117133836017018098810446118021405409961437453259196491165553807632082726864830188615922846727434684430522570189213657055689155086133763173
69 3 0.016814473901709904884566839623057172694288147852105375445646538112351221728558208129988755772530973247078664970294634579528612324471558757504552442876578888207344287663401516434968720139087782534773370272759748094301866938585752559445089930760060218520897031561281069042850696758959607608896
69 4 0.020463982577296803435888917102166823017323252192719975765360647511693336472601769362303757809657702864541159624060923900135895904881335001572713305426985038916504840968495986594772823645509368756846217242967954697870551749885498889164563569730599914971659213894872354090621135054848156052453
69 5 -0.0016595512358073332389389331463742140553513516039350234433590451969944123671468111440194629372644459576787536327263185741149490295650234127472154876989831786397314208507393834084931182078159521589712812450996047408213696750343148978532512194991226226261746178622140596966683471262955467502934
69 6 0.042112252227954401695549675191930238514465039208257483279388280853112334954894115419682548302839741047035682920207759939730062530171713766720747290915425960053423069974774167244250988865176736312854651133787956942344206506360150815097061530934699782971290603336892253511887668273648603572189
69 7 -0.026678329614706928838354663188577947597725447480071795365380631633866742709176011885840487037511887604780340788330342305509546869835625327556418550380791535086315238289501153668745918374724081232191927698778279761773908035127662349890123362049659246314963362481269344863857475801073345210995
69 8 0.0050929738259152032859517096723566895572651535636010893344062810439718815756116877130874906263257555589118025571414784405006767320221871574910220665541330428606966189602104893728249987278595766802142851855821724654084957467468418447269748098919843427391611109198455678628464333596583495862233
69 9 -0.053612886629259385166938327293716816777794597373293674489364976890941588689700241578278945030701148172888121822584447854077470045721061637318793367876380088048167414214359947584317169264481354346226625876942302496327617751942687903873424100577917562865932785187762717762071789249660893089397
69 10 -0.02199117899406952080561838622338100110196366645099599477466708885575309920784890643264503864202983179817906695665329920774956404563989487824458882044207139412084305304574659359435628719145853002009121790787622623682680867727044543911198490575028445164009966581668124866195816614303516703875
70 1 -0.0042616350922349420227930725687429264213268747375363541554597916354144503679016679911741930363662821162446024928935883801485926602870102881591908489028732033535580454515626684970849329014989186429954910265591973611113255070367845903942689760094251149709126424877603266214961755794291557815213
70 2 -0.030694697933527533960698343092565529945595413753938697123677884836621845349686649879430544073127046079663319364392729693381668073807425493655673275093511678912219681787219805432892873904088056185001708200367372854021678938315667089177351838136595753686697788226034921832633313942313802882119
70 3 -0.015274192280351215103764543919024675388960012090503487462342390083837227539103743826430075152527719334865191988093140047404143943598793977733039389806769080166039394842296859986914247551432323562742426410076019066986544161378919478276515458524949287285298975518115256911868537109106994546887
70 4 -0.0012122624713086007679043409981917696532517772970267055814051861041825651234912070348459790975229934183565467972411920559189234010296532200242500455178794566368364784120268892850064229588471213686365390112770019893993404083279365118700850170407264324583473321913634336514156728119380617374555
70 5 0.00078734668224408075671395690629175153213807327015562819785458490487194273333824232599866857961761311119194139852114441121965352041201510533179628949103772839808449929318945237966142923139890960472331066237987946356063568569348456895980462925477511464301846053203271587597842153853196832626894
70 6 0.016924230959775571687709319827795315746795909202963832300341485070476571597064612848556564848789446423897274055203003090872033132255158102426941974074940099740497056511217747802749998528148642215250093227382582945853990249073353038843235377557090138232257271827268389735413778062149853940494
70 7 -0.017410828698790283345836691358032476472151616855578567815169498287380319127156421156597861785757351807471709933259599492671370399074908760218367164991918085372876181501915490283291417850447295453167769412738935435230965774065328436738422747636485772480953420297230756196593282266091153753853
70 8 -0.013904770735686580496013149430852872234483065983818540044500075337564241293101288046354344702308604417634413217522427086585980808605527500946588525495506814602640554445133332114146489404657638723702152471023593655612363164718494694393170583097513049332579333566043706302504782607406277888473
70 9 0.09620792150985732844820232295384935489842016173769824661733306615580144129688712063899477976452793526134796395826029346504819129183210617656210205287238904541720453336059416882442309946905889872582700811851231390366808981482147902406395858922587912656818004640428072906459960007132753583332
70 10 0.08017733153655894048215903797311994941351103413516743113549124664017626663614577909696685001450274589166656284682057543839600045457818961217375580636223450149931740890342285616858127595130761539290819974003041835807892758921942460589020119612932848373903200250030286979535341405014526654735
71 1 0.017846966036727728002185994700135140603117347932530375281911696885122464227663479630301957682944620396796738548363178851862810189943161779311116117553864508734917127921632524131278314097248966982590636246504496791569460906728526117744558897177079248342621568448210382667257263694116642670681
71 2 -0.011857404394873575634400884961055216413172614690943217667165072458254860549161709385984088544362754593423053449829412895100500156651381262191284095268557601608512243596025190540696845325287947859044821779625676245549216162956741717022691400704904213360085347536182450594492094088563511312155
71 3 -0.0048026232449176002761261537533410545428625915635852581437770406123283255232218675648504761057336768882926173249142908316177448599339132784793143872056315045186686114800043342643698139829486286618166403100496573074208682110951270383279402325474082868969881586301685591848807145886028797698521
71 4 -0.0024674679716628043984441128242175846432620861111245370143774566686177742023930373715946610765045321255229370354453451091019716228683843200773993756570104436562010544185888380149234488130994665000741575058900260655648055411836425661697743638336427173959331016805174741179035724854762013878778
71 5 0.011940044922258510569009479972389442464651692172735934922551699410738212460453163216934769779854994624403465636162032098264208182124418988684633190864907686866662969097902786256826134432503722919598211023902774163498798009488140917105800081358937379648723059385802894766278303396594942590962
71 6 -0.0091175183178545497624217287999261733945543588011447980706240068059689236476625797431748758399198953719314213429388686381315775794016315032001746341800348643912775868312093318758403669906761002905837855567300004961023937085448365860692313213755641769176235791079442856927930471016527639959115
71 7 0.015393249476501381296395577332139409925451738314716806398964514645754900749382812675190441722058556462305909391225762939886831037367551684334217231688328987591034452257124820158256106630861117839463659466445112248735717297167904923146465760608691267985518728886358635480200751031915628219946
71 8 -0.0023924046027973954005272378138742358715575648694748041510138140068274595391562413196442621873870019152737702582692928357640621924405793377418494120379187418849315797446180356009459997161178227713774614140195631971998080270474089141929244132875675263095862041247849923576288265223749316004513
71 9 0.012517544136589839364219196081721191030174148627358931198298883008348632958312468062461107855227428969852591308223950623271711012342766195273429975598823763537384369878730819102973187997788739187867214969620157051749527522611831746044866712122819597553269127873413757759445241814386488938073
71 10 0.0068189788036391802637208954372535404922903840802987527955372247301901267431706774571237000718370198368783099267595676393644644939329193994177310707389253432440380699773291352907580178488393864119081054155701637305151767016638869089223555547417132919441791483628767282238262175862312811266942
72 1 0.0084652005955998012604291903317228436251335162049569856461370876229558165944490604534721636295834654790354726108038774930393032019008512513296362743725665953092653470800236897379146536876336046697893135741107167472520115786288648560629966032096849949399141577333302253045029162526813515980532
72 2 -0.033357978838906624897044657454879655838388791239503222477373723941459261203001601079838181413628071167624003011018472500932710395612687386438493184137822786970036168717973224780064993046832217840022616610718563582407522200317754431806908892036849469688089866996666408004027528268731052125362
72 3 0.0079219109765710961541816953857513591931228952577456794632639480600887946591063561212507220032294087525487830887378331928793862337465888630519030730658036333849615906896196951194645858831329636339226936006586274568861261489001204657946455696955374584702595438426437410757711267334093492776684
72 4 0.012533839244247364123295816346946658046980935246983439410059020941466334118443971099700941861730156224116531323839949507192630550071595244533364025574986004995542063174474397536863222183485188198332427430475792367479582462305692664342423013532983742504922214275777040613229955022024750982598
72 5 0.0067511357253859075094951092816122660564464551289890610262086664570413220751224465374640990041558018094956970172344809879482234811628606364955415364444825829467165662287409374301113059886851463216363928380174276007386801084150547288180004140922651769746491959895507890963469209411393896175342
72 6 -0.0075189830451145463511253026972912171036685043141399372381569729408336465608656579253684548521323783166416306470080661437355236329798244056577076757976775536832089293937567897340376702741845513277320982511907661477653137763590224565526800016333003829187295326817809664320202448970789822899511
72 7 0.023888844300102046877513911074398406640946517461026364571828828900961989086745426578380000502436698106715424166542715273136130999522366756113417785186411958514619075296818672125702798858054985769221666711039865303594677985437921469209371703085045278098837854236121965534871133986963474270334
72 8 0.0095510615131019530740208655458389389402344700977317861171259724154371216190067136097352760778190038492813892879595820381137089014637477870787331528589028533852609264173510094476511841887447892012895509579659328012479038235567175434220352401675369271096254624556144576916424592923466943193414
72 9 -0.016370266505605035309944685618141573475333385612135972639934752159442524901546680562652600757981812755563165650196573783782014115798357329879576664158156455642917514008259353902260193860331249132288811946230686591723885421576134920421206232323853919428462834881184943990793377786389700313151
72 10 -0.0220432274227796627643023773257511014495155439056089883100837481430394340073819448832045367468981834641722179993300206174802297953257459326619813917944297398697786815738453976496128516463637054163042030229825552650498084975711934826520320344961864812103268440914171081804595044195546931955
73 1 0.034355840329643314319386968206833414254272893312773451120044042759480964351483580283390903147144126974049212707259962453474374881418477031642072104531470418857484609883543950101777715145193925126693097914747996000259150074647348324813421108603334692526989390380140467666730485026463080022467
73 2 -0.00061581737608733726224812374923322565070344702778958732268337620041676658526226081896135216299707392399737357988951324013479184053536802160797118570350233528940329953136068236360850627121300365553234140414384047801004990900324351805644135184173319364789354986637633318179142803817726823513999
73 3 0.003265668264133170075660271511658051416104707140130913530908941090988917312204295464398403263336293471846520682708885160207998937816554399179607040307826819608962660828367395218094032221731948315835439188173524938850315246171468966662194486956716501881255201893076436689972828688913424851123
73 4 -0.037835900447374245775782662079814165798860582169080917473263713299320930602517753821552808416731755983372569099560267397458031128230682951837812854165572625514544279122665205144018072444738499219904542227562154672264448083074830853960912962008215009326528375865474155312884798809974508327069
73 5 0.016460182551962435167366760121536078958200532891025705789236112467983505032439211177936686524170343276810079518078287715604737867417328843162091148748010181635839807895628149802556391804245499797283432055675647695081257746607475783496798203044838964506558271839937287268871841019850925986067
73 6 0.023125424041900645102207224249077512586595315654262202568133421773745193585521352713261755623573188446322408663659577694474970898498978657890751002738293920295797830700614522323749331945825587059177569263489914039279595667498846329833926292607420828564110487978676370276233509358488119264822
73 7 -0.01932674163889286566964875403663156338648426863046180609537881930511567171458278765031641332793715956494927588110777401196661816727271602470507918780586060548745719740066232437149038083862698943048482855170979771028907645317167781053224130674546767019700445849523116362645382340689386969368
73 8 -0.028296023358818708613459022038877955132417950817830956104399797756144348391370809894557352289008392827307444294356367351618047380292997559037126117938555960944139657094376071594677417974630027036990404750260628543333077915341200843856452025770768530038997502635385928891031460952395464903653
73 9 0.067130549311397561250969892828321932628933308842229244870116439753147533742779295334598838442821699577768177178123032847139398207390598371098884039278584343717884499526015377439561316702374471033931610606479400573386832656807773837831430268694913506102802389397995897816568029256347475947652
73 10 0.096543207360035368884844566981435685373344809495646280506206091007859323374740734766533742109173142270754421982605834785346737663490089619120019050179454890352591030846428841531087376185159172873888364116059952143805749776477051274066209699995490079377447355348025017565963351053947486522704
74 1 0.023426150661208205345531648988656232614917259626613215949939912046799824638334224751640666560030203557441294869545278466298021260455338644509733530095960847127636235180287640354183491297048018810129257673123689477348270903095696333684153596049151168132538408830208541485261985994260007515915
74 2 0.023137213244966030725609474400958874422949258358541469215876817892173910308158311594364842842990305232628642332871735910665365553785939223454434366806918660707066843837651866393041571615586164296757199478663150484666700132471848369053289279092617370823419802747557907138923573010625133126028
74 3 0.042716577387310110010873657611465790007977649858642138383242315432101533171577505095740426257165696256719451144311902662483195703379357051629480085027944959212743725299454078816401127548083394001360476276136364346799901084409136695899143503298604746040856385375251542867629930256620072369112
74 4 -0.015911342122962330185485579719938455733318922723900781457970665927344529998181412529955612815532203300981024019070613069470722611704349839596466651448027412155864429299989456679320831248216721041423354053197091708705405785901392341321499570655536074540100866762870542997727563290412639717286
74 5 0.031975295590881667501539515505607968619363403178319095196753917148980478199015359724878843431469882835438259817644361938848321710207887743302605425384152123990157381256681819844031792765999084499023641702688689555675724343886573189257758393162749231049375389671383259504656704585879143761653
74 6 0.012435311850029300288818562640678802900126611739812776841940040058370937177183198691370847691958297622673662020104880439780106983563042250598139741625340397884078184254234614701536349097423646774218382120217495236150654777866861962396805280094659508783990092277215937733393711893074619028911
74 7 0.017042234543407397849031048349432518688283270754583714089366665756754647747675523893139808092262999156357068909643234695261788720612827239715445513051697058297251620790263319019502361382947314224204825259002771514593986552631823491143450512825722233450661808145293211314373994482813825999001
74 8 -0.0014898583402090717979185798263057386966746791265371521968799697447058453014335414287670814571916763808184720254768396347792324477752596805840704041583649463034891055699111085002627203015136400827171991036833222868164511272836654397388061164560900072571998870888718158765679607114238203313645
74 9 -0.090366647013332574973252798234020831292377708898762990852081523599809995655944826105974121084539319383183811472471816353765374464201485405779205141120744103031105007717601357903452332523877870863978217560947314333114106228403226589876962034354093244143111260052828215400433706736256158942694
74 10 -0.038604044655728509607964499833206132849679438654947143949106086699263481826960969762547079799359991561381647536333230354881176918125342106863381848950671227618056389213182563839265746995021234521080328724038427754719348444389212961330804525074008268590570393357341669919114587545258430732728
75 1 0.036279341766115198576698863842919022098433538084929254725416765311970866497835254855949386760187032269559103034202551124081285463481737821350379922292104200620303412142530340984109843464809973154578938598233032480058170192443654603555751618519210692648783810880529169421398320426643653913802
75 2 0.00099503522023412777973503193046493102706003504755354827136844297097578424415996910615992323104693378483780939948862736880210723459549294481922146168549941004050761390146493426305881789381913446823618901826016805645977637621998525576846865299671134894325685728971987487309910347707625501688999
75 3 0.017116342436329830070297548897553884659739166879734275808201126728394855559667456671283684086972502769475387582133380663886015903075856991846072339051664442367220734463090338882705074301862146778882913422468469451164437337623263173255642366066417300310255296562426489639235129135534555492121
75 4 -0.01495934901761576294660767067786393306425931459032381477259543969808751257778993813116139231952262652169713627096886583894047539202433799537925707738439898458117436769385593238425107438410190602444041564842863156168012494172312419607330749091591666137965402484282383745472156613724127578176
75 5 0.012558057487597677543273768779355885060704894625781609951183507380951595601087653124096405482839218113277484088837134281549360191231939005693693056462760484084600756506991999370230857003793605235693620656666996304651856461332717421715740207777428800769725004164403627580431007068540120673534
75 6 -0.019910779274544134381125498547301430346145488572570558856950545591771913866016454677487769567411335002031071795682733353874620000238378584685728904008087276362597920552367141926802716640851193996485973468621204677601721412852515887198143237611906646683214831742300508323936499038070812897024
75 7 0.017462309446839508952442980881688334059572913292067663240352454930981688291939621771291554827904068866953539898662706405532040104273678000906504132186687877831075186359748100400529142512873549836205448352968738781815813577807163615088904681036002279919899015202191983932147106438712194737984
75 8 -0.0047832043402984788991592324034837918941958896362872769385297917043203260826124233502670674345009197556863433934155518695195729101915727971828680616655061271354156141050406965922034997049608517625318157541698416246123781789775881058420888910728622819177309666581877920933532764025060444601776
75 9 -0.032068863186059490060039633619641118068944117536157450158371566586508264484491520266924906916911241768115287114087268311169163495730517631761283781950113596486735706467934206115238568622552686437785769169978224454531664552990198687960503081624832831390051527829767040844903242722557576672795
75 10 -0.018082704613760900389058760783933025716652245316998196111434732895996723247492072278941872049806403443218072608472265561932699254180370665133416877502239959674481746180993721949248447655860336045529440858602393130638496534822229924919858039306692985704133272836927153901500387904685592709634
76 1 0.0046436105881493656454193628914990547188780353426357106710250638065612615799401507403434747213724597412051155970358184813775324229901109707443647279779628712386048041560039612035726986964490401896860424569185937563549759489724938241609391918986182162606576758478851386059895796131901051120873
76 2 0.031726266066742609249452756048284806285319387035316987970597095916813577334815384522436803689779747768681146047829288630526108913448225666404168939936256434007741441694771302883450414229806544259380528869996825668051724170509762420449634071443675256034239524235136779400901730597291359778708
76 3 0.029766040903263714124258490770899238884014408954142412222667078860646136131579986771912956378482658497864931002423737681465570743715829297432200120496557158188523217474176073962028673305339188142267786291467581168463101809200187297784509249514532759684936137811935761423480893527665229918033
76 4 -0.033759474166970349800989198581370430762857193348533383679675788941833660926397210355459249359681768441262227625210742909615710849186069581969582486690828965546762215282923296550628871160111303475268711464681011645468785023011408684862110084590900892896629789444989455396092407641078195192261
76 5 0.019370986459662593633810648005161089710808937323434901440574168383264616387540528426835033228900833886470442205907085953959317492510991764259456042693348653622522127547513183989475096012431299371222918190034746598535653038334378891117372845798775399666891175987388990276780135395416204508575
76 6 0.02598637998817560608259324558186515761564418535376872489359940958562668600228923169897636374781904114021882245854379624923024248154537070975793506055782590761217266627209402268414528913755028513579242101397644337341849022080381658168190325803103467084431723109921396933924838269273885142062
76 7 -0.016143901684299358184579958330813453989182544871223704309315198803763773168991323633416182771675585899924948284783466870962872349304179495683322332768079991880162615291740725948691631278853809035121395205559021754435555710310293698507802577809097150878764044304899173202796325498936391249396
76 8 -0.017144393165970194415668208514369160919898487257793871963858441934621436661077678207713839231281536682799079421452237501438213334075349735709284921474550186939575338596717863453407877544537856962636395897400676878146099101768967124203156595346754488188280442787403661619206300575943034129256
76 9 -0.00071883727115436983262174768172485743172047986027457788109863093980921568732030930009788172961043369002225184080511875347908331007115844503729597228550583867170044549930474426058473663937669945638871197733758889838426999297549212782020947738575773142116326556964997586188551100051075996261763
76 10 0.035989286840167674608531659409088676495901892462774327854550282717428153825283225183296073392542279076474929952863918623875716255073899027460359885316286053705618411289667369871108410555406817552350668244583096630637669511198162356626436443884050244865106502630739283693886140366657165722277
77 1 -0.014565227483487669124083524892739690541493569429241309261862319969460098041620246657748666210942216020231284493187850919324556700876447378136410130459869833105821691240561301426718118666540191328019057895052860731557976304095252126239508634203281051727029311078824011105156409246732578566244
77 2 0.012028074859635815425357814377043107767737545160054120657983800015044035396206896404337556840183808017606958689776279901068045117844030942463377236287257727493012222376936439943663465548542603473281551222923352720419050528737904170804152262248197424434014203734376035455498259025395143014445
77 3 0.022514914155237472399134712502996343703050776540190178953557995916593404618392098834103344389756358735942839043782941298079890185377702755692125682751353796397636844632545934046800005316927397432758836329511788278713657654720576919436427129848745417367055668576955021750861601343754641173349
77 4 -0.0035154577127905792654780784306969812003694897041819211850402193459689543981678893219875553599442957037418270885543873699250757309422711055067773259617085671768076451646019186493811194079623163402156192311255260280262167868486417961447544191544908542823328696203627005174211227236283739038748
77 5 -0.008568284048190899793215110029054553903944742390386455076100194500673771113160091139114730019292062202122372710882728918379838516039398177061030442354020272389100154511211922824759687073541476635214815356558342482859003241395457304863609650518389956761472340367197462632174080080137821092635
77 6 0.0056711325245638681383040541352425862151386734581524303822747953152087835315180256884299879624878890105236053292892302776511229738424204076591245239390657923404021628608515392788850055715240048955111997145328734106342261438694135409030354532736156595633547571762603742499842252173627288012439
77 7 -0.0094568870557706729663987190445084349317897957837136655241160482090762953101358285203072326005682688269971218163218100979272840105474704909832047495727439469427950995578560538874431164609813188633940030053848065450646128507152998279535760720208242943180107730174939162020287436148888008479201
77 8 0.0029695270796358788640710921802516008607828439113476547237804505351828574579959329105949531736304073204621431531449888325803883348205997803154232453126079068751057707561121506987006543312961793944911002980256495730021778686853644771930743032254156897878280325411155505337734347096088453132613
77 9 -0.029558272366730295437510049182951172562050086039976808722361116979508243982689270674775114317232171958965150480973640093091463423613065883792646145474698021077424907061263829612532555868063825867862772054435708098296140461523848831956318418583588890805485309969325821690177211406116189227223
77 10 -0.016468740629345920840274018169002844263920290518176860705473183364622311255785712374643514995131372570508923264513759100596472050631684003860994080715303753068887315173792762936330205364793387398623304206543215019928905276175286422559042995633636154735229477012508554997865974445026216265002
78 1 -0.028885030455243817695761502764974036172587102590732142310125608149318788235350104405868590278513003413745145286860134690975940264357944337979720585905080119411286970491574312782003587900497881178682751460731032346227765849237108406743544504119797380345408424091900274169405284371233208216157
78 2 -0.011615810894495339749647592204690127916403740838673076970782629168086032907096377059943279596964620737280712860916211791935516166035175960795184632028730081276735180808303606435751911720424804014138072825893226061214689043891942358587133354754212265255305338732901677707636253965490316503835
78 3 -0.092721611246861441657260520591670406911905474636918592785516018123593887394927399343056127137470649665401589731161414302367773642205241558263411372187042828443466600675843590272531014467526717263556917577914143582991735249720830991306869524066033416884418265032151606835647582081198560737888
78 4 0.0040926602640134563910243662585670612348280899691129286635282150628847362546771614705623078732724705797704389988684287531426818186412016066282362838004737499645196631575504690848273988411141920054688251443841824970536830278079694568511444094237935356630585580593105530126655382578686044440831
78 5 -0.020219220732898547524490740700270583908589212892470488051942901338269343041411968826117583768425427568110891659373696206858527694350923794619381262081446853892726076632628993407265420631722800944405903655050058743990995512032304362942483874972320206555216172781043460104327572533661611110859
78 6 0.055376307676085109633495192628556304360434300955326108961566996688845070965163464927448639741797396150409831628476073721864127167163651729682281709336673849727361432953769722662938949985530933036191068203543472697846360891202090818226257078476511718407081422594286939963409542391808365953528
78 7 -0.060727746691779258426079254549003155942700458685920984444743907178556976764674548462151660336801128860904578706634686614085426691951532805354362532134559793062569756848176180920802272694947023845441388733586061035194535065822770411561417482958227629260666550388858437145934110632925071186118
78 8 -0.020988792427127747009574406696303666100173804318074976127865743696049066496803318079599944211090613998410339923030631331822889546669054167933985699177156588304938577351109186360506742807436160162625860405284120178713659440231406821343081143363538682516150875716923395970338482441066782622183
78 9 0.16984439677395403131667684499790995074877575376446438345840442090217368587375415620453796557081229287209023296118629242882746310642806639951281199283438532921042812117858673748958848561163612407937590343180423067031681894372572955036862651042298998178421652469121711836492988086910632163781
78 10 0.13188850244543163325842442336340516262067816422858562359561938771649772417192231727590194984246158134979037129449140946487054730924214291243342853778170216267499533311166538557318618475920016408618127875528735267445223137880831229574165556089743635791581404702433202649033914095957109893703
79 1 -0.0089427812780719479959251346275684903387634058521590938681958969271402302340842824842233631815174942718152974598749096980033557446952592111104517000280638042655412401054235691649316281566696405785492330479388463221940243207350838321942128323096265823160343862506824854691610732964902897406541
79 2 0.047120870044141572341635406402798423862828106683428814897520416600623675650512162293035864293006361449805626367566188193493870686237887092334583717368714016797724675858688278964614914577075979627991872061451612048115614221897972456605218346262575031429591781541666431328401915738179541205577
79 3 -0.0018046201619403455045608366444296775309061980911931720302966573607157332796945837737538879204325575084789818156567963801220154322407448536479976912138038043326209440698468312343243996716582604018463521655486968016929892029772292780276181170672389658789960740385800383762582225071134702747501
79 4 -0.049716894326179714095941227106227829868575116789735146380653841376926993269325604358388592765297205048704103088601338973676908550349807252392005391043638029430088986842722124097370918525455847149761282983516405157880512984363755769190847780610973349906052164540461308685270430938411808608494
79 5 0.0055816500060697578694129321802186576498023446670172573929023106545878926223963044231955043279482892674149476281827388618541487831682093058739988769800261125372831185255324738351576831024215612877282021945039477178964552785717368607794304544044727361280642946198732498542839636699940886264205
79 6 0.023145371128791174341644272481313502214292867513185475571250478447051673414540144802257786100314760617778962426649367595360010417994456113656874572400091537392642916514151419024172188440641434599289470198429480015414661704415948554234942472601860030215510485082727560336685760937448117739335
79 7 -0.035414014652914644045476011235313043528196661135310627356162064230161043992879638943336939732567709657289010730790506333468217212223564027227139276320936143215801048649730780659932307627965020910932039308679921300269257045135035399839043596902153766140052413937665158964457463310344836718063
79 8 -0.02372954393746326573092740730985472709177974989131005805978420104920935231670014801380379783726318201359275109652728990100313160636172208666714575604957516754616981062983958306010005032789291562181823708916811126078765149411721087517737510141681110653740095816564434257111625814481576693153
79 9 0.077715097319495577445824370384628450831734518224052752713257669997553651671105238563152627970594356288449939287289879974501227086543028475091377385464602802050450908015322443312500792013683125139860461452579008403883015324435537473493316019560084906858459480067013280209914416106556637894373
79 10 0.086872214519510220958840002966939145070762319450932870091539403958327001640848351089135891395996373882949823044852533380183294765851771550850715857864015283704445390497072765477730958937142593489684200661278489694174918482540541145610208426565496143544566487456238567174795491554330738873254
80 1 -0.015177260237555576297392494052589319460467592271376725406425205043728551782409318137644195058284847189401622244566977086859000703425214982832667224457734694779741044232261655326165300487209599823025720034201634424795244083508580671853987816573057259713137765562826967284705051714380359124394
80 2 -0.025057461644478932364461931874928048211464512146093403776513789857249498059735468467526279370950508886988454492650611833001857332242036242251546848479584717134184971940268392495595719708070816733476257927155090110651697887659802030054537740835574712203594649511227297610692920455747596663614
80 3 -0.019627120535166878840391316154293396309049093932466939784364309659285038960143436069421489164603536706588132543384621691340348098582485186202034217030106665298688572215273166584727158225224309511087241338128779147285900971465559093381137792735962903967364290705603738230206274388809061507477
80 4 0.021898254433023831144779071694866666010609378367622292439365947979561787636991565647854737955736094645711799398129930308721125594532969284479677581977449534972579391166869514752098325489929115459350612641079326475097544880878681892106035492709889083085415579744062641109357741038560249070561
80 5 -0.0047898345225063536318053505257121933864589006435454569696308094909227723746040262093362630979037258408149189767067705764729154874405296036019470589838556428753791878109776004788884440078158251972159592422093193561533736300672264014941144019862583553969413404550231795338695787154362187712902
80 6 -0.0065371726421487058401317189459235790509618690733987126714006258946125985696438292427487275465637270590832293545935559516973424527840708250280989906435418693158007506855434829809942572994802094795959351619075245411935534599008997327325583009080925781288284596122874849858363773784333795311717
80 7 0.0096918156485942011595705794029442702659889438713280737849650526183970170299012447684699637764314360749930887810825054637176832377367177431766971082115110802770668058145943463418046913640259650325263609249356617783674192597027854791260647373519934791258937880581538688032347155428732140366512
80 8 0.013273562602539820840902070138248659921801842741968940282377715757073191443153152903649908624046273094688445271665509608746101233386419745894032646653636338119084395099654946485628389133243407598373462887653923263864146333715131093911845110969896279366238716628681795170792124580953760338724
80 9 0.046788777147335570898893255439655318333587061028586061137890177063959385475184341995847533933105591733016544506404793925808172977473832759000104590225685190199352903915711953785498638287370118119475927073857601178834934136652049047450606256965816783364521794747909081076262823045541245758901
80 10 0.0069085124156586207958872721374383001319362290583938299736093416695519823115366644000970409845636721212200851112530263341063517263920060125971758282271991143297513642811776877136253041708527320019058357818406788451164938963071357045541573789305198895652380655004510057581908181548149805431468
81 1 -0.0070368887658612032263780967573899357756240121266638566335937718689323176655376046406897932262539493273920814438139796233557723122532400510630929128200147295306153786949524462514661921007935893630340865494852162664817534067359615402126192665405703632004191343895506047373723726892389463110722
81 2 -0.0057228068964660370864553507197262878813870109595280302577075413842952395636000794079003464883537448755258513558442878833650505178353095165250133870162400156054419712857163413035006047704067714397006604693531515877440022948833423630330309616113699471397724155360273926805725110696950363282244
81 3 -0.010381593682356557446311884484429329605890606022885636900687850274857407159116484713407276270173971539586793316520377337517364084513741596815748755020487054675083046364802644618529397346439567533680570789673481843410376362481614886680629271616865683341120145151127757609296540955657054543565
81 4 0.0081923754725505083663225168654651680110046997306928000307719550934865530554829915618914378483595296841222806553120784389657158663747033307126540437578290350901471447946730178565939791444380718238324025198992501498692407509229121800970846326576813415655988144073548130640124806846109390590591
81 5 -0.013672220574247594045902507819215832418786265625563102234953453099918777566451400787858530419240975025509887560526058943178153342647439830999418551839178154734115825862090010211885924716551187389938648159758472506003901044031596301671087662143851445052591395276041535069010360943792298427922
81 6 0.013482098995939853279514075922425175679431883539107523142661981375171609574268003537514706291560484891670487687959224900311300402561967381986234655847652979395850906647395591171205686924110394238341372418004568874214099221648409224453959301795084351813339842072881352055103693891696482005879
81 7 -0.012665058938502749877400137305773956944494241455792606174824617212956172329424149982106478594832381789097995171602487035603468488173493100594799132423672655615809335674876250922841031915651440910414724041198472626025334524387401117377951485492469666487568204479152064527913798371204438138931
81 8 -0.0035675600029233055236423977397661509102873456148177739240422071493659501724334414277208196376057260417201735721902248712952415445151267004632483163138348696289789573601245905663426102112212744611667547204668402041723576515396356668925042153595239625031769628001447980361656356730736899574127
81 9 -0.00030714954214971513318743534327860688095324223854469902758889661531280628693590908107377139804044307706203196220730034436729885068831890661174446035715036205942285351545280381354968001282080842849704972518643269423828064555781890351072128885031952243168905653849214566978371444059449467468589
81 10 -0.0019262071152755226431601970214484612890047575772979933345531859754423229106591282324996418270254636131008285999050763130914495724720161072735061371186414418422906118377657700544182590627942919839839233686033533655631163937107167292689899355820042222495562588406169925347840962749670739263178
82 1 -0.025773810040538834225547964332221942909773018149832326752467216001735006157090646924345200874028039334231623963731708323914810413725543179318537913546052985469115792602099452901395983553333349917824799978327073329667961800548246175109887203900215927793069830618234164398766743988626995210879
82 2 0.01735920135133163639579796906652449819372799716207687808134791961358815521279026641098736057513618667411365522080339438990209786956206118399409024307256590444793408413052775111015314738669219788139919786173577704127052846060638741692863464069589885236901890764308336991690668077599791527533
82 3 0.0075173229324963774484406069239414900295896500563416534860485389778997130640183596074985037319128168827598042190189344082218538957354834413224368803132490952046858055233780992424130193040882068353406980184513603074279016202782362454966953549621774037734094353802232260607967357051927132839071
82 4 0.0091626836421920219121171986346114736845972031697725754908328676936019222064106016147465944260411465733852927311053569825834790215986514168710941667913560028196540269043823271910054911691904066411675666272587103404753387930767856067318383082264375710135166706543949941468094143946844780776325
82 5 0.006204298761916964261477351804641969031693532321512265499662861940058176306920177172684747717558636737167837340538866184621063166738921620386169082995649591997027135178756910775017721140010314285209274026014600075441504696200001083438200194431228154385084118936872630877045579160991860876493
82 6 0.036433437473689877233134931667766804903072349038790071333390934850983537166494801812902460690634434194656587107631651995864858427832926993912060458883384352828419466128276465143734677179915316055629092770380889399299243897600208482785892186147604505345182453200305960597299203480631405615141
82 7 -0.019744047129823427967100447569879405689167493965273713749370885997232359804430026953050135888606267147322299484258125612997179498188068563650055367338748179155080216923063337001173290302598564783983516599063567712101598666220930412443793186713773998210168895639491745783973157973874398032603
82 8 0.0062107006018280921316583751313310991225670845555959601213823358907010511181957548941499273746284567547787793681706944890486253405387332660323635233522324723852683190193876595790915148312938589853125765400231976105140869760334978621247162393209411384726727213021224429258414935101649940711602
82 9 -0.022494573258784885737958196183627086780803934874984292700182313770057171170224597419894130942057261812184133280818865507546650142876958319261995733412628903254537307324760003176110949330475246451017691291968887902420676293358326301008317171737956146298233395598102903200638825976796623246342
82 10 -0.0047049979542703179846705979482798180324701012511892013827929790330221833666384765594198828288680303619962449544635464981789632971763873761809530779394472354386888176843746912868201244061593263580716058710331523248414291455969683355230784234809978024766015300476139120292391379389865009636288
83 1 -0.018038185394411509375990526531140936000828264291645925199842206458068112480234715068713120931125386132775164466449029779535198255821826830818543962399478622163405833390763160643681860992876458902926022437490337271894450423792222252023282514913674432361064887321227284140706466071672533215943
83 2 0.079691379801790529929192815063462267922012496508193540713990193391561636431436010019495225354546997950274241511085903231513370358702803502010868890640623768268796620307006208573030058869127772762706248334751617396544931765835427261646201910744893226758281461493384645399952612139403905741411
83 3 0.075162187868525406664584979006255021004360915726342179198937011078108303099880830640978152782360684857399456376867506765331123842778770606136767259653891517123376806386350508615353432946055509243998240009307412159357721287397069033536751057188627275544057140789616212322154544123545173734272
83 4 -0.04063401373919790915329008930789144581377515799290861848899827824195193452787279719592457805337730376317214422484098615253089376119630164121188698632853818494715838399677031430897571302002376446067184905861984071298339397015185354337226748028422054016996958816234988402830098199619183652242
83 5 0.049729373843119791408554405372448971895320719228949473358434339959716010775837434347662353952692474746160146949894481604451937421967207049303919279180900454148508263705942608032604008333566323492274147150282908010338265967759137886186944111308768753909923391679330976406090794332302110193397
83 6 0.025296557024610745108654746805963661523749046880848153971276732472395224277737669544598771827047729866268428656043172638692808330718270112039426459588417375986910228960940855287162715484445434957372054617764477422247497647885662661559846637711287486088978436250309010066393301353533730392327
83 7 -0.0099183584248447445873939214530075935775472444254299735210683331502940855063703483602691147319916478717288107576630469553597472095666004398904016422156144931446485580019073719215035334546150263263416680564550814988643226012045693269346003895353654544196535034274263356716168356222188503407349
83 8 -0.0073160505982804067538611098743741671065758175895868179806517851664970912295740942931377105669631601211038857503351091894675283073254286616530662407643674409903397199023494294507974433236313678756548778226577807008910524679759075531475607833430119891736500363019858459666405687034876584133211
83 9 -0.061599391513776616019135751005433687718398881784081701917987639359233971271439116760946179995342224262634896310799493655954687930608775732375521250271723910491392521793789697475831190742024776764439054549779399799419174048514920684700412561103871828408080305235524133316274382071827284535914
83 10 -0.00096035298417617618755064709607276050157953849953964194684317097075169047199009385733813046222587335721017518798067930666837926103032498571110149656774145808351122541752580399467114379079029560604122870892731616050889814692653485041939843863767288278310206618538744775927060902410520068137433
84 1 -0.055245332840068607450861809169623015942877130308047886427994698725528153950564617556575634039573212245893473459484143106754058343975885995341855527466238417359933886619336638896105736655222497487225677064039936406224334689922754385812773432907548460352336839494789953407111068035033288801479
84 2 -0.074141959342791256095733861916289897969358636013586119215147879784381688722659653553697305491461659265559980539260719876623152705862932412184551315512551226092338120861714094486091947719077969970952620189208673638264190710738381218278860528907297703859319355575830741531102886024222976786598
84 3 -0.044451830263391132964769736392202521227919573253582546049499998686550775468435353455969571380376645185095305768922351761830923016546372333910513658801448071623562138474899895847420257621523738519229917578622477334437641651107905155699311235590452086958640372820669686877475173934680167136324
84 4 0.082513793753798621575907587949970766801492769078545430898816311267828584364053623144862631450895579776749856012586089213458329155342020661008101632689671579840011485122738344630465505046034257091950309456975080176066163523209938972020670364828685585263210247534398037971353618845772171189442
84 5 -0.060874908796134336258647333275285221736001786719623760126812259962271349388488646267621655880108411411868877108436546378564245681542822340442291653673324465655071651583839770037856674686746018178211031243076811583965999253900334714990662482254572104489104699667422918972099880263086899891018
84 6 -0.0053876195712480861714836507609650741092825949709241038513318782264871457640075980638429487559098604531825465648113847349237338798819470246393640380091975776021295987406969633399477715777513986077055460478002902291877102848372736451079569347533109912632812807757780046600847553384788589979276
84 7 0.0012259779014701017744667529600525852151761667865563581167988936033697997170961725751072864981300335821684018772435208362559045693715485616789406859507012683562310970009281061565511658625416215285154262811472408805895612873969444657892943244658454875365756855445247021416537012213743654974281
84 8 0.03611827994572393277579280384533374513550521152086511492725662117224412533390953245527412534786550455418472634259145681672824033418551173100671535667569555988356265734581596015408169075217832025290879604681159680142010472950198265436567128133665810592262019217648904969250012604060322864439
84 9 -0.0059594074239442692606201477117228256006509424188889925093061114478286641275412755221730670397984131770942491193799648751140112783815077195399646790202318439414562082822911280047460963794193594632306163215521886386029693567921516828682289384627314710853688366502157117016694060347699623871792
84 10 -0.069258437954307085444265477634979055472415075367163845419051427076440112655249751165066138542961073481853239184973265423291768808031561408909096237228563358353985831797442455406399034246607415998643827407032309756247756361575432964472942403688725520824188581809104784017524750459329582749922
85 1 0.030537550209067805835483495122023414342549831123399697532599720364361867344179819908831054874060179764632333525156023098739811724860221331619985359373499858863052563908525086264500940088792678468256513486636945643334489836388694330842838822797207709982528566958138846580825406237833754807802
85 2 -0.0043163502833482525205462448176634601538313062935356963412308515643837636205468552818130944955887318665935592016537688955202087493969483589235982889479369593380473529670035516977107999384816797659841506715433790035118292369274893428422996997812252800675263995721249969622132606215511461867878
85 3 0.01834835474948805254006860226914056180527071839231179121980743618612507572331705347138640141623187925377989604197469932770876020768608253455294139965562517836141330272976419563812447939594894178783434100072067080299327971225233248777313079159797679022137994264369991690572008003806329526867
85 4 -0.021883897064767439326869693571227351135679430106679687386295382477130485459797446351821300324504418214309816163848067801536771253616046132498834470011506153579668139157324294320948763231987304175454127786097741500102854901986166411109399083100619776320163970847279168752195340463062058893248
85 5 0.0052577758796827409342076803016685760010600847513942246624918393474633927677470309449915033713799838155514355970973677680361422054847214296616702331524322056454111731662463511886973947298034181811380594043869773559129083734497888884427082855356926082156410891262498017962731965709187970297957
85 6 -0.036052181705203565619378248858606647680061679819035938699888939402066675962752499854584632357269603184749952874331694343930984534090569848421384597163671928022734850837955232742541221855754161813552544818112123172435186426203724778794031538270875578580443602453391406607671976570680064364237
85 7 0.029262295722541211481339279490807257220782515564031280654718593165500820970006124241715893013211565149760723243300012252697402191191685667975140654824703465655245866473869125093943706945916364968657597982304509586247170627576448000492176797007293261650091874526223150400397573860612139684005
85 8 -0.0032992711990981318386046645476144647453081166272848207775014156470438527276724943928358266333326240326925337455863537591026573540548065324136493052614562326271929519093285613680869486827725185480366590806437354425195389941002595099388491299878358011386174278670961956266446325977007813662109
85 9 -0.0054558502963438406765743903212507239812503312764444659673709049390452594530217581076387385169726027914552049713092695055662867464242206395466136725899178297479224665403802315546863132534474423732870319220436283918158694897230898618412519998065289291189586574125037184396638299198740248477633
85 10 -0.0094057515372373817323276155768251525841176426341926453924393031035747632044452282605727481377732448012181317774969226380577132308740671872913230682822776549192968022338432892916217262089717336725571286917316847965174914521294836977435138975123027566197486800339375978028296290917759095064929
86 1 0.044131615110684424674575224681752642770639392237984937571280228804613771823986513845451707706965038653082481627799544160912754776337272354417805126793718259648383993448759454459356378841658268356535677049443168944597196049656250056561359642557003916873003148712094581113000932372518890401332
86 2 0.087708460957834973071088505855497052449801071685574472854819656941176904927387460808248488998414760909220354522850578894851212915562773112138626729329414775476374659110430778823740467278469149190228959203471085396308640187585874499651008402601979119394272785519852501344936512074323453414613
86 3 0.084961074904330151900055667498645152003139707741517912785822064004068900948393226896363693911753482301404208345796851367017266060863836265235163328067417405896367923591729463378555747718938763263396048113655539701342064689002432182376227676332464964475813841465255668971441941252248285604557
86 4 -0.073188555624419703869402652437488705421578565264186382578344563658237883462339164307070208551060692474660608497168893969822740719269482613272815033792969553556578190969498995781505976929602939198819361855658938159012375642624633339372049915302450550991209596637752906362306824761980013574499
86 5 0.040339859750475051807110603682249598647353297737556337532397230707665164330994822378936258104197462430566895272059623719672169668776092712834727811384859780990724191551107828551810744457758927136355114806970067143266029267676574675555238165606185996549987778763680985547056885648188603872682
86 6 -0.013048574704058769203852050722999928482135986441058600838659583779132485844938148392600547460085836794063743685786039504586130498023331026177522624044570764410307712516778423784294639218786580271037994551102032841460677309136979468548448158292292729871434716681594285055906428754063360521422
86 7 0.003486894473645568802420996836227941851814697513529258702759288214202962551176965933436014471562736073627150771281303087659679528472247256136513114018434466988911522869125666999170547315822719528689265865926215193407581328882349291194570566505232865607725368273845702112057678020610418597572
86 8 -0.027775666984836347942979896159745515983422844580732688621289397694125768814389048200045361037432769657281858874689562715383402700728218406624318976220848227039481442156767436973669641515332860262529786240709480589252077651363733258511460351078689654588077425943716003700353084932968806172921
86 9 -0.094877462139798038826872107759932866592614014369899843371533452461403730627600771701932299882249997332294433828900499260141275917026631603328982472649243388209809263625850892815305109867530059414248603173164716981984285794957493106849799353860187101401050734292852958195142799027295763720677
86 10 -0.0068848536994163499946378029285676023955092415288423940587442299240213931772506314447544134565067057344390365780828320938278396673111889904471272338905815226199508669460782062654616117530258549729452075812340012405194785263775202675165793490055369390393363116868523301338762565290531523064191
87 1 0.018411482766253769691358719484204711746749422532396902795055211371759128972127535729517880409771097065827851012433456572494518227907748261849931958097885449446776076559674371364469252243478509790985290339460578712359769036890990722912249839599983322968282226558805466751371808064494831614505
87 2 0.0024971549518855160153318091358564757746047732944689510286023026440177164491388654775993630249324021273320234938480434940875983347218784727701335986638972404888197089302211246847593965033761085511560596168419811079958740253456243111566147413829332515619528869913753871047099686941228958644248
87 3 -0.033047684739891193043815239243188871842714804608081873811245130677023447334694686483153860342068059658969932067053877938717733836483265370953209968914493731871347919055305610533075402731795507277142508270476136788969031604038653832861274469418439279928061133363498368366578863713991143512762
87 4 -0.023416037502985516940308003630964341367654712685205692035177858417984358865343249839690073471327821933432049381402882504377612421243972108854457895341468234497608693200248128052077922866142924466149514384714214359351703274784626832369665127464188101316803928602533226391422823576315412433208
87 5 -8.8165785271637495546843671600301308341216211553812574918437284748140238495885798794106840328677924024388064101676130866218644964776002112780202387564145560154199012459565704984327958888744069036782317997960927730056211526557378720478973848333954894634404840579513578072009326296425587115939e-05
87 6 0.011144217099790503160266405194708310023170061031428256587725652706229375195940413728001387470050370843841797247788179690119120828654928450029260574247791301717984739736955129653116016402466476437158011456448645561727721467535879632537497588459731913728432204136130132600880879644770798155766
87 7 -0.021426603935991653314434842684592929383124993110704264215004733438359033917188135602653156701063505283856316352323927212438396174313555737261449034104446484190314596181431077862365284335050924499911484218355520601285811355310250201043059535650730946005071478623308970061432820697509913813491
87 8 -0.020752183129639819694448714493416521587541864475837034187845938898454814350286021608568549614543120952363245664263398623726948154185541967868297661688798795014531225972023374415306603218884377582215423899582809835514388032928941910495473415851306053104314762397079803847697880032046016789355
87 9 0.08231261327482011049777770170888360798600195141385891172725780308588396722342727804209678189310706578964958633399240062304442649361018927262464618571655148809728615183894038344642040857662130079478728576907455061657385224962106835659079073459515654398170124953172077482853129024582208027291
87 10 0.082169388319130717175122622464922026721851494670924878135657321556064816059662058056417505960471392512089603969274718600071401739212754893250888158661452386200269733747908890852337359014628773473932330220816973687455625508685366899969477683692045648663975006494249326895224789327360923765668
88 1 0.014270536814884794774540213728524452550657428629874696984327224073885855979282314474632819368850550195102581969401321200560270184079299358253785219444294899412923283087490589131002952025961544767514636944548390064081142733481059154575430621768611520928755149494903317032032056675926475385092
88 2 0.016417422818706907616574917599291009325915185731374621619563761433177537190197986275388483406155699840618552612228392837694130103261316492338495301203170262847157261953547186901704815374390897747404547595051982941094513691620134759949121946419286253453920707542097574710643710173448668745858
88 3 0.019602147465702449049333154895249017683749213056884878184154701256595176530658680426908354503195630189702313608447565030462648058902422509701764634916032854040892916932300890634174032658246754042293607042143771756155578228526695959725925990442675016830238278647998297937192032195301652848027
88 4 -0.027700608759314597698133117462905613446696564706450136111552694114296615800068054000776400693523198925284872570061095097249086864491620195009361209914566094785645251116307433227942888374626564324529105567268187051464720277437593753974687537889104313358481536918890733816721404686603027186619
88 5 0.023054831717932656608556948366531796991709499321625937486602200199081250355503652869799972474460424241364805884692989788183507291514208710413145859791683859428508558303786966456578786660964477070689065098579347944413776850569377444929653852912349456951553513601259916337060417332103716147237
88 6 0.026904817766985397368753904270910181313934774256877993433060651383254705369620086541041886533427792644011710399716650164157646303669779611374982472010869443263883991496401051182508850788062842284030695225642239163038478866003584421128019247922176869654946797648976789536944340504314928413628
88 7 -0.011010073131005518435789209611312039223593729201453196546079474876659395867458909962170788416381736276356451685173246782924571594238953863703458803078481043303306839145722048833624028749016640407928682032011851494776340169415635969524550334535117659728388379786099586647757844836044885642843
88 8 -0.017303911072412391470751693282634966530781803707316155614415464325014630412554083238200100818162447878645392668586418700429139660708326886554116397774185584928487169287240013301902458310520351255851810188899422952331051006012556645179306821437890586238386816093887593628881807479796350814453
88 9 0.0047052014770345824142596518735589831123338835434578887505115448723904014071151179949758462026996987808672901320509304717520001931698971661597240381967151623283656824083187249888384480404892242561513050431818178153575560000005005821801364922850307440939782828109606799908491712060949818737979
88 10 0.047710933263059682042982335104335154310756029317279102336680085267280130502643050098651947239922095411897640834337545047628638290620406620851291926671522416231497887132240956887869233701554279698687730587443907122260339668556154612221070959632018035197799878611482720539637595365671777752526
89 1 0.038230696692315186002748179902455325560562841471734064644253506904789544756932512670092339151232512719391859494705048557322793727057672703246103498711560819258241918329965266102625745318065306354549814364353821365306799175201891308912287166910514767037773527238051549480564905168589436599455
89 2 0.0031457150471330296387043487896804652650030295424773116395025559911904183481206734242271906077039352612045474143721313901675640092847451516421679822617113619257526888934671860523870722021741909819191807385446134568004229994603134338478934629593208248598736222488970010751749674612086605905597
89 3 0.034831383726173155080593212509151575425132118281663350515636240319737360351081906842337890306195957087161401686444853396417837052444841116686848361166001182053562982611295820727641258107441915223380347435618359150394609894737260976189632045438247906760768524321668674121944846587174888395144
89 4 -0.030122638220160425190509954902624818255105234828835474275771130351818263317326363342368374319085323855776579439470253712211210171894481058160964526334077485513122690906935231616443738607042356126179763491281805049042873076564188600853619699243853065660742248921994102380490199958725580420654
89 5 0.01571429474686491399178464610166672983669177129466898500050901690711172172966453236182591574242725289545301072226481004933637991795166146760484633881080368459564330373809204611850612717349278449656139100762659872612115022991541783675615324405415212528014970114672352919112130403416151736725
89 6 -0.011874149204773744497489345462834799803382460074852738717920460252828376423775763094555582839866539823156658570040891096598414018546376813185503899977171711301018730024102435234517272438738127527081505514817461982170859642526328171903159362879666352031601479845430691790521493172000009828814
89 7 0.0072403125207169733955998160002762321332389760082579396020265001772030497360701218897021355304307811846334838375372647605890350399427710879148838747528918830868347336679197824014593137168626315119043134716767237814382765220444978209210989393551930958178678316325883331980872734825438646626944
89 8 -0.015994679568114790597615506803611218852161668186373470338110254163945342602776802085788278214947612544573937950223937018715141976966430816270961418569915785937896559519445019775567052791939268333791672455903085136224617866548608325700911535794763682704888403406921019881528884504804086304764
89 9 -0.022787475467767761875209972691407084704191605138924112008929976216289686870644139443040682916535236634617782687673058871946168231371756022893102963481341555147906422524329779820922121519673337360148142687055598490260862481894842028644866000408487277602961935731028014020301216824875216436407
89 10 0.0058789130646580041101147255231672503718196562410574662584569594703705852491224748699768250659226047553828906583359350729911538719541194281015298811558401671505549774235939641245235413480457297434929345067789400519480509920391401210636498428546159632355621498298349517577119035792182175915345
90 1 -0.03063411777529937977224660982062094794893872620194248634701521949262475790862164716427901299336545695044074802296496591997693648242774833039350321406526155868169812019070392831274650496893979798225141279288280641255043236387860249212184580371196799904298600481002211758180346679019693151944
90 2 -0.048148632847979847997644716224192991385051537642393857852534480702789260796204241778564379781041280096036967384796532623160501692104429083474721530084160103053637198839970936750284274094570902493298209851730619629586220907301955714264984008906550564987101393032698345814954142371869825563217
90 3 -0.069860348310385258262297451373362501068270567632696033341866939524364101576351548954233561510734726950688319374836461371383021012527435076961927860516326312065022838974589146829260632050788446673300316108070837034989345581801875397264956185852393310346711074006646948822703468755510106121748
90 4 0.055600379023377048879091661305879570010962797683824891094279204513775059092911379309905052867987496332313567007895770632783931329977177254676845940681358666565231944332593602555899668180897599383335252782282084732090653366492663529074859008953453681050113932977605003346709392864226436878865
90 5 -0.029709608070879391663879327814397847404033600568845001402205843150513535531824988540386534591605603368254177080301578832358348391426508569088265539829520005087072198679307408662777686912891462316592658271183248212646125843439119599567622189327983361939024205361663162462087037952686670087779
90 6 0.011792195756415564564502963704359770937218690668114147963354906769225100199052329969176438617483358925963536852795182274770153883390264885985243204036787362993788109589134060871077287924892045029497308691210879476285714996548011297975875421295391032163591551129428234688648461853782755290507
90 7 -0.018085385767508233414093964453658661940506976097176867628480512897759249640306694984535844256203011017692423021064949448486335639091653339848481767476725760744695702269033539294294318584737184922767499632357671750490168556750872803087469126719822887785300147691822535003368025401279331170301
90 8 0.011467129682489887833744271307496019889689037283061738597597424558259281482288765422606425679674566473561144055939793365915426748949877918286933847119619165022369747985327699655909933860160715730516002603975277559633073113355930674852623931058815393234128117160210931597903037964729732105031
90 9 0.073575161651106396099916106771121203143767952594388426967334485360863553728841731027729624428316421332825179312437311026832226684765354094840460400055267599649816642362076896498118847512357781029828588667072180414128622057632595349758401146497957871813591338666582509235400888937828103106282
90 10 0.021537053019820943862035106593502064638815084797878435854106970539726198781894470970358433138308084485677038015478783255207790377668820430099794454342002403802526977795681062335542499198088324310541355547232906398669142243562140818867116285607762394767556217884645137499273773509719116286355
91 1 -0.064132391121931822360012638154934832730135230512772594734800035951211166038288937393978168150038017500301158457771761463391084844370176415256974446132158616464106508313022253212117394531767522787757854722473181998090160308241742180942358120668689164135551545123770255245388596038891284048672
91 2 0.010174566939437130616629560631936207633093629202546941359737848415749269854098478054201001007662377587823493104053735367522566318533114886301388982055168835463109471411388070701922682411049314314137756792969411950745636571412358753286522386619615650685664722871314360105496837487401648387481
91 3 -0.02467320525639557189876116891922869982289912199894099530937267797898495356669485304205251383561053901627446966870550855892848634509213476409568175575588152004316885360997516818646037189192638018901575675324767808198788646091854337368611555478320871354436308143396360884663451561485656286688
91 4 0.042448915942203062887648027699899677953931473738472414767623808802817108797309883096390040728603183837626561007481471940156089998747419315504326319433184726629822540480386726368972736966607335388557880486076627145324115734223710381396200897481668776221789473131602660785498064346156272252565
91 5 -0.011855098700668419224310773246333429549222269293804106936797308887396830448049966131002744046226004796875135431311992859591866293935918195776418760866201341755679665744606915371752149804439298423488943189383549668373407592742497163577820937796424611048812564401173779128158685827624757163327
91 6 0.011595045897091700774262442810153744168645292503067971536676592235260769273297380457962284108776681911375407164696205519158133629579348385364887237445758637886838807813927720842550807567898490336865422944084582217154771076227101369548289899931428703002559992177689586698583583657534243538298
91 7 -0.01089007271513087203822334268090653042243128265333750754258931980843193896927543878087708574374359639865500283066352715846004556749443716654224229532131875716471985638540566215823966165346203402166945650600727526741926346244867086597573107769654799640953400896596778112440844200313192146136
91 8 0.023957597539272386124747799557192895073717839950522164057127259370150692937177849050339033641982846344700797704480284331437936117571845310537346523455124109313664262061500966619243083160642812564448152176268347948090997563146723432526479924949290885448988363232376496768416809827972126204469
91 9 -0.0016221239887181516413784194676266815723241815841875227227288549122060402299281513484994978659355339858366181233106014355452616878240400916589094985192384295826796538816902453373593051081516188928314607256697282917528495485743960628230534096200216069086954036179027502861426331679241562026182
91 10 -0.027982786042481793852258465795448356661441053024883783179674760840074672960377880657275132811128183195807220433977277102882789402296957406202857354302695486884955672860969487039586401952625092279204149285103610753837297803273416871747723341727862565855775203348642936509411687702133925904793
92 1 0.015558633787915981455734726376667857132748695283168240861604129604334867381397655331654611350968805291810168410570033995837759310186474178686765825909902037883712546867450293104723382668452734075751088509446625202207415327201474158289735006934285810316049144015480004608928175222257266579331
92 2 -0.0063894819266059829806406680991823660074676026103773598489446492435667438431353118648714209351537575637561780440328696772969496581374073577468632831567335512294976927267546970719884595692906706015799514613391597821528409518845170268155420406724225400712564008999246471995875482649014777331005
92 3 0.048340663933671188812397375611161289616920127869839592823289661182116093212208964088689202578469099262989615308198441869245460309266295641789134316505155664335589553960129607833150056309598596567264551117168254049321024765635334975552871414873872146835180001772792265236700820048442556828457
92 4 -0.0053018946815574103770340557451248760898343161869611722089453642955882505950628201080094282529356252254841033831474467704336877408889498090379498821098865944256285330585445422629210171561442508078615135928754506104616042351811280949828902016812901097977317577922040327608041589082228986667159
92 5 0.012794536712337906398535419875368984709503684301783028361764528168115005881586636871793404054781608545401333699754979354131675145397468979977162003044561157346719896931002944697847185730614249628485272775491988543396130928182062521080716889197779347473092057134675715503324805265862173447143
92 6 0.012093252184804849232805616479622884190391365890641764578411358232055880867091654044716036258403932207007319480105211151969337511662852636586968780662808964484922243756277502012892856039785679932189320028013439472917247940802656665185589816015321405093470446448585835756489191742327013597749
92 7 0.015920981952222702833657336627020508988476004948265300797429835774674007592913476387026647690634069714625091554316360746146432049095424973327128756812180656500649845061262043037832944143220397143032759007741612474371356764282090491262861054612148678538229883193254122482894659673919612421227
92 8 0.0064343249442012409293750734055430647233825988063673055308297092142360367481509307462798951454187847962712458730669803646922426404473088215607150450212216384619278972743646897708919262993703860264735840514165097689669448170602600962224225131408250500863389830601499349505578921956503013146877
92 9 -0.086214978831661942083922339289014550439668527950562037408813556766246609865591571238956707674981695381029861643200377043430534633342491860613559830345829765699659828435839414280535440174670285091283441725384019335743979972640168138914910281485999559049745654442252781932757682429390682670024
92 10 -0.050003797388554036586069008078958649308841630181282971758343250109427291527631884243288049354728982209985299826944988930495745293775423213382654828565200538980998461029499148559365787360105971078984662022701040515076690759326346832595811755336653463640129963074725903540865636980397864903913
93 1 0.031696172390316360382219428979638260492166358717968461178080269552227931048846455426722233813976932702333215661792549613781817970644331638432756047146028038072226827074965217584688378983840568281843121417896227767289310436045473731511712703259679005227517731353352387013037936760020871944808
93 2 -0.050279216111249634435318141843404260723745416253004000583973790209147765746072488365867715385673274316744618630112475295088476499056458488312031627984787108309661383712072797746171451937263511002957731397150200092854082792085321848975890686257917925526080607611090791631278321277161338598236
93 3 -0.018844693726784643520380982969137125060269982133730270776962369751499174691380292080591684773385788996996655524823361274423977792807113337259790635570730443346092055104792000331226521731721791695482516041071096783582227853866069774185847375974098537639957424044640370648034403218738429801611
93 4 0.0050400160036461607650336552251269467479024828537002173199084660331424611125286643560216806868370602429469185996176999433347471091289552573487416622721715266093637290884098549323282680539089948452753338969815519846509882167248610539956465189929856240440656689932052222873683816046752197140209
93 5 -0.02168691018367597790560980730929918465762248000454522248474645053857549558278912141404389165042312374294462826400769596807097735253624572301119935918233524169093453415547118480945126810870068614947932374586342319537289990527917976651510365178834986813754765584321883299161951291114371983677
93 6 -0.0075476104258391209277377773238166696909130282190069780944423381894974670061314196890448157375512817449375596599959703906300930344009433556096414101779899197732869612768860948014692161182464554000650254486951311543108805015721862660557675215837463075071545575900332620097938219103337731730218
93 7 -0.0078135827923340945917966164179515262516231999824469691898955401356343735261506391699691855971157296596577115279182983273084500331027899205066530191779973510725331515881876851286506910867917148146714109991055418343802722038444636774058041856913290302574832437638458345909999966815375651580931
93 8 -0.015978243251968978877455650674629896553733202950121593692716477021696813802102762485843289963978500349395646826164266979951809155473771704301675531808584928863045832614722161984534932677331662266915358280347112592881868734853187073890792756084825815898828661248764509474900601692338686926676
93 9 0.023068424193847010399722063460531346808897987339991139902344692276173811271356661180057064256724941875962407347796508524163737839483616196878618365850568963957835352505479144729871376234793265037423001902132544336052486509351287308414795222358884719921646823240970161762500961294178090807087
93 10 0.018215036081751665945734569628663443619671963156240366531807561141072962808114935666129742232019164444185133163781879872792631480055693537936993337440691197951939969316256702547959484938088249893929248981689369258043165816629388843215993976109441902310780192035664347707561644367553846314908
94 1 0.0034822639613068414400337919211006498048203583717831623945817658361796017072434037283210593428514045690668664974831942176576514491845860788995345408305311207804471473682301731780835296704574762231096536058852670586393789340079769859217156816372520667988736702941164044492840284879202307075542
94 2 0.038263613298604985677649675655151395041095691836157648724575376774231901429418647361583737472256310432191478582526832662804807389155706530897170578787641641206391879559152317033627735919446300192909646863789814580528760693521456340900284204691404246659175278532412811193478496638117624540674
94 3 -0.011146029287902806548077839992856647808562925636226898025270052535312303985544341573812013215563123614918052388155367865140425176316951588697057376786834670659389266088473131222876515496260781247639081152985318578548009423441022993524945009094667724360655777371473679551489566834863314328586
94 4 -0.058931770791315664455793487311019031554191274278110630533428511450761619168432631844816000664199184401624243610240384185582358461576071378346325942812393154942152251384390027225153790914979666170180413506560263206471708669390374058375686594684734218037345539192980470535198333867853684727983
94 5 0.027433052185318283379541109162116838580298268116628535596054909390840770762148338668648669815517333044231677526258473848004549109677619770397951505833576337637988333150008916386314482648095402127619094614080818057619967326149002679253496781405965388821031059558935957651102442802855054849157
94 6 0.052796448984591194510463168597997868476605369744794610231929781391413773663267198814462153783939970522523584946768320533038005117021020288701102009427890166622545848955770350450711430507367089966536526420036878707378495997704275584173622244209472080158758193871395359541965033655032064507808
94 7 -0.043155550856276681346214231583615544518417774911625912788164180553879937302398620095840860786849317414348316158409973632172612309611242661587260105377450738932379532239136796624772487625796301016543906048552596774003793695745242636482439432598715574796497414273213027734301198289620599157573
94 8 -0.035429145512075154447264968661929473510837348165262661259214983251247457419131159716941889569217170612921899533116111191127621329005383323358223599037547093340575025768805309717147088954603992677599625874115413151644327043032565988979481427129629308728938569024948812898620983622223799298481
94 9 0.12410461821750627105841912578123260133130774883866057855323577122172538645401912801929157890289237157476199559667530686430849709292737528143961032109085751684653277806664465129050632074705669876342326700359184157791537968160647337553710279917204446911582194534184830635981753078449449155385
94 10 0.14658427543336412679047774383314947130454984322591058976651533293237518015786821318796895905761552235441685901735218832763183178972004325134865254289104401327787501645872223607384539642371417963619651173301796391214249580619639451860423699066695149432238282743004214434028094554417443373774
95 1 -0.010392629614207421379204757199318958130572690921806899329284371976314590337503474144846159685534998632918626172735531759139501096159233109562489258318901623437579862061936484617018034915650197349895761399181954210433183623108251065450035440769231244278098202633667601796844782772982136168176
95 2 0.021060163660099750659977868307635282574965885322136105607101761186670447228034066613445210811109712903994284595076538369777528016292601944033296864555032339846994866434878401718481408684707460988545933758320907898374165038333659744692109504560040135299098987348749943179109983424659350923689
95 3 -0.016319374338782554914970836095728885058018218175490157501462956353999581195148836914761667148360369648421280645945445703635358566580596227348620609839676866780711510559737025484448760166660217933840682095748394596973837314046568437155290659294000699286718038162127252144741116473987058688642
95 4 -0.016466330680640034903676913990228713532156549624071711242190264012483678673222468193301133422382293741144707802374479676333408462124168595817909156831741972196186707538693103561556588215946466056471983909629542762448402542391131658851495153546529404029949746793919956356349937590412204463924
95 5 0.0040831375269324907150650856839650264906125127821171486665404843452895733452500807135058909364759337155062058281130837844955601027756942849864594128158585761666115684751136846471135544651404675645443106941628837655718170907667098420436016525764334634546224621698537945069047343988943556052865
95 6 0.016917426685502732672620830800162415465204911916852499413512720385542888050420916743399938209437899184122915171335329655855919703937556583574804787911458785849639089610069929987318996310699871215481533137049308579797120406708843919027507680657464442926982997168074711805720179910836286059576
95 7 -0.013083234848924542856156890789870665211864808852598186747231806301368041754194265075862437233153739260597796235425951495350221889895648891898565702447209340738106575018709787523636359668715226034072147432744796642412927250563603918509138265581850489307454298654233856033011328014414072376103
95 8 0.0025050498350159336139867362277999240682888465332167623832507916273693401414887724557034651325706061979125661409225812145338528219636534833932513645256314781293371304625110932470794900573522062794321814583881728423818268518751564774977048410280482161695965526777331366792409922483543946739357
95 9 0.061140668244173491595744082057638191190339976414199370425666851718383369155651321487182807171377528073179857181949449067088647428955996126110850373369697492640899032818156166945892831394592154789165396350972899274074675853673052698768054107758596004736778772661971326556130146250679952338818
95 10 0.044095800022147113136022476892854891187351196553409199100471716914675750031261694650963973568577174350768851655249156934219405053649356778777232876214405798248005067620689708447524986344586136233798686456719641646539390829450832576740286155889076046235083719181403615407048847126492206861424
96 1 -0.026353660054031219192451607093289970027908621526805754363676505248138678853168314801852252458749669615187009231640683749006093729895497057114625626064146808316313151350877978271131531455312476982471332519735687849868465841920954337913682686225433658425254850276091333942526039143617749119158
96 2 0.029617437964700636704942350303717006512718825028376369181291089379774671366482017773499928799959455848084492740266296347467640045649830550429014279308596530187105314650951078874937419241721814926332296178500667087170179085902321491096225672497451013466439420652826235928572477684513411732016
96 3 -0.015104536910799824535857874752039893149948973299480827303073933461717414498128878372197531626643898832435774022391924979713207130089272142926460470285938222255755077953308089380807520548248670558654143029920904804503022395025099616287803328764915355205125521318782581614985109310041680375608
96 4 0.0019007450607029370997646973028030464715680920178407412502734055926443668123203213501059063259010580230206123165306643786086639272870407272588377136838058536992032828526013370262842738450123963144809716018244814998741230691524663479267908182678092595920756204451611464772966155844781720011479
96 5 0.0049783299711411098809405336980225429209650424377517457517868019136128305874303100983564663803371627908696367550847204650689999043285416572201196118634887413496401324814577892584848306097636670070873303872608598264603957101266524989569405537488583449878267770552392288049448617652498698965007
96 6 0.008196759480187319555045171995465536026071791053415981004420682046170295575918834990392002683842105757648074867621561201274628328250097045147020067185283192793701919525918880541694516722159796376940349729320166352758228062498011265230335980410503036939715403604324781414111708598887084365776
96 7 -0.013139414171740166716304642548928335108433338572587354230064492945818745026012910237567370454673046608813595598818183081188306384791513437568572129965185023794741659557492806187094067758289990067728385237162705659821243816856351732439913617603428658489518587757798274546745524233849976876195
96 8 -0.0016442036210274479384340785007508404296535865067919216628357896665596498328014402839002032301214079050424898473717791218159798961946139498764196161323093328063420760516365226271413217300903202012717933141038704502296126676646422082259450659849026007576980578900585009093321131424709643953021
96 9 0.023322543080895306233679961294019624559374282870419309102565985084824418629106563542658712613611114572155625849492535210386602032693928754815314018796868083230243824961142848044872528236442251725030697987944673244397051025314184494129507471977657845116362235093385001456594583807963534262617
96 10 0.013529759163843893938314859676501241496353851654605691147364301103675489689681516625594061051118233246663391081090701198130507319202408463148195454601289435546437604112475399899638858438394795935160981313988588191895376891286029975280655193600930287455483549287043256448687622531966556327551
97 1 0.00036286181629289916998540467332994857499683713183828265841972289354802799681215646849265417770611520847748660878733329820171259472995908942947505933051691097654112894460078696720921370144690998275094707975475870487001806270362985140265547793078750945942553608602510187546796125627175059316938
97 2 0.0035462936310941281084272117740978617423031202294995566447906183764991937317836123777890134451448690859793103638835023380946113260612571175030797260914138227436736710108786736449135582729996860883915307685659442339842651218362954724303918639572726376499180641086294174590172609688926784030248
97 3 0.015782361129636894137884896330682185809695414920297362486068714323043973394108254913718342060845215322074315804531142697216405624224519731189193085194831616776735604222977259710057727786316395487277593775569066317194664505227051484238819055241977422515891571908642978188030254399551692609702
97 4 -0.034439635199799690505585151018147209614640368447575012346975684660768033400946641818691953980189074605831909571407208255066262187184925706654681560079723626353244437005845450494602928816801382898258409993357238725117581781671138996672363645039548900481799259797772146530909476027880535965509
97 5 0.029270744816791605692282726281202596014938219007756023165561300793849847132379123326686311865124823844966432034480620125957111090490285709204963954471031025036168847495555958700063386994737742804346161728982158139179648893261386330683068151524900634148441201046517290505420856203034394657743
97 6 0.052263946948945357737842482172478653638301913540057729119313433985975300416707639682769402556543408134460635168072995685664835354867801715075099036506429164517153514968204118490825785628010961369820679589628057726115235551468212076261409719467030274594626098510246233494426838658244585025662
97 7 -0.023296595128140920660110922446036423586380685565957922782885691286089530122275950218243590442351019949487052722860113597195151674198250291723460498886270055252874178371290354746567311362557290877792938449393112393016553870492326163884387766443510714419276217658953862178804110499032746473987
97 8 -0.02008049860519420454651167796816836966207791566050771647699275396618113269764401041070137055286144113412956189148162362448136540766705466231218298295291529962727438048458501661707277283396524119329629586754191430119016890353318241101943497093238571048962171854824006828071499705290449117893
97 9 0.049459902753911146005044478789806787471390161567844055120819604368900762334871375321240292223358568967745279729640754362507957594288015309533331328367085351347084344938336787542815862669385004664883670139207170087916435324080134670727317067183499675739860522703661929522160067149006513219446
97 10 0.081731401167348317946889595882850537910442969843225769443642061763732535475038312765020368047214414043080021743521962301962910818678727134145360301120798544478024668613096071685458838564277623947059054345659115425864501159981487805943877489298717380390612290821090234987543267573742139156687
98 1 -0.043714744867964197019040262477438745502851929470596868962870367183091752193076497423059050513155123432176580686701065550398704586277590752095493650254547138898503401038861474688138698383940422372085289860348274381358616364384716483335387807559335909382246994154686188312787471249807012026685
98 2 -0.020452450921702173244146820735610787283433507046801276204003832820572482156849505250775885564794858715506160630901839232819091267687846751079786899769785137259540972907649113541167304731725119936092493721746121018906743924393067666533879676200012795677826094680134303463027480145153198487677
98 3 -0.037509430054813287041502131710660966533542998591108136634851981349276745776026227136472335858232755038119364725046428809356052581916744014590382073978819510940676984288321523501579674622850795591186184622865340892080002801353356071780858302461632919496554885469273685800357548314120515153786
98 4 0.053568630595564408980089238737007056084063730254358607618655949627000941786528201015932103871035984739937612596140420105549841738395116139089644616438525299404632405216147848424026547734790923247530963960149302409698527963245781810436110294572859075176511178989461478964793728482958187500273
98 5 -0.02861145343505202330680643501059623243161363436820428465907342888741597223705473665525163752599948543753079608956762722119538874912605909824667652996850090333851461330196259203123475136990230281411502204231119846618714002909076928064744268250172914276828202862083447136025152083227997595003
98 6 0.021628770842287281890280829398937638778554581086633783724111267683714069268461362007481630000718317389123187570494327307932007282731355825720624684322453008272403414054601981741540576419837182813170130094183234623183604600369976403258574367410303222592191304776976130766561345921089682046713
98 7 -0.022930567067759757741850490112122551742388973323629456867757491659282469103324974094393019096589728409783731590397740665370020090296841366039999378992050859561335883543593433048098155504473352583892088128458375229382831552495087892081603981196360018366909443686659024596949799094405484373106
98 8 0.014661843469536044214459214503674906240929804815504832791098418947994209370437226674928600179726701415383661837946229928081974572720109685215423132193541053188189457723172904255098075566987940051481806510534527507128546128761245738568950786198450036037415615692029355803530862464051172988252
98 9 -0.010792956241215516744424816894431750833519099564641744391703786497246658372131361664170661182521692926508974338225345575694559265334502681810153216474896906665632243617447804863979953116479463746904682350964452171406178326734076243713221693007138027237838899814749660363303243002819193261373
98 10 -0.032367152886039215751962062653520070227939958853592439774705035193020775093529485882562142495734539784518039733664866968302092414946926606048500135492067063381088610367435217545682473045345573396722013094095579361621874868204619328723770862913165835795801538359301407692457756602857547822309
99 1 0.022242112695387460759565804511609923480549060242260801916036249510385530837813343592050390025181169284307691896918813527215047778931821354385234260571477262262115092711236029094368997364110921141262004729750619559414128826605899445890341462113215431192026647448787226756576968758973810750147
99 2 -0.018023312290083932426111077996068697056423104550138385240750652777857111809078951889369069698637755411112714809234196703487022265007706214922942471950092185313156859878607856126917682593565814951726010171451050569647863889025258107490327660751618062898770475885729274472474280238460635297398
99 3 0.043185506565431093904719573230463825721566945919018751897967783351234975966948709105000498036724413291230858670231173715970106325767641378268314744233969322599382224460768801350259185516787254242009456719403874252323345236769537303966004622571400783184362681036493843807244077839931299919072
99 4 -0.013734856318334995252483897801915462899298761436589638550666405648586536434984688195363136000088253352857152259702573616596493163919866672361688479987985357374803374317981549544060072219429539688239260188489170296334374794997272629944947066714229119205951586783333684134612064571730921572038
99 5 0.01653518571660316551037820770604223679297258235705064303890138767946166820542329509286058941108455417522038363946318138964745082836227964081005142635101284720342667123898646696433995863561691107754217566676046175755755810426749271255874684136031842651702569083856661795108221173505248357239
99 6 0.034106967665556894104612205561311466649561495129164926234915942531627618703560570683176264631498325120990596830965622907082701079882997298779070620658134902129688044492937003730538373490859478909367830313042438858492244239256763684989657319517146107599939197040489610093724185449796214940765
99 7 -0.01802434793456163173312524437857628064817536689283777038873637910547154876487832939527936338431473879333277160768815890538031156904268606886686665748194993719324636132471011276516934689161177454139785926754041558902236842415057054452082823708995489507715834996067896067348500869641200376641
99 8 -0.015008729570135844469103265887333357050888684558517963882118962198759362258954327686881015597397574678108665681750706558624751712816563220198050440888187150066484653487066636004576863163976618534730936174814030086611364013971597809824540474352064170265574419232556629404345437066811855168781
99 9 -0.0259668391765576977303846090106889077513272616281992019767889163848033950963398026740989339657137065591794776490779196126094380084191773781860258666958241951718627279021482665671173867671887881926097863439892370822210470571790962538538162426899326122464176203558267037292657884606397446678
99 10 0.030713990754599809627789340899172252115961881547981135895672908018840032643994661811582872166468545211836715108727753794188668794090208183457258473512157109653379099975507480688464251501753268972856399272376541067105056242348259667817030051354679677675653777343699272952622249740526849788783
100 1 -0.011892783613708225500012844302374615864255720789465234286129349553127497445875109742255415477288215976444443065270739362502698359595721029416500111086993819991943826577058764925180092173811443649359145496353262879523136533462749614595734804410388333876681967947915242081213151691222931419028
100 2 -0.0010680568991077220739112015281535297194597527176551118265582398189145239351925461047032356446858736515349552065586511499517343090874351814612753995324127127120586729233918267722418559437760740087154343479787323405838842417558443137025154675898653619383379503729570165172254495913793562294159
100 3 -0.021702084461532188220658982769401900262135815821990508546080374410229210685439105111319938237417329268121652915620487262129198751994672054273749242012339201768832076013580623651643451453386342746546757459956770742729485610917673539719814230352462773671295442416381623129092309202041789876944
100 4 -0.0033629814612247950165143786493784017778836704405612234709169068044962525292382065873814455600273705094353516843205167282815578936146340485908129724737878203997904223709327520250320322929344868051260852747180809196710277679096011438693483012764755477374662660809213464024093540567517032569949
100 5 0.012561478040734357501639132841209214489634369233058642455878149957635569633044833227577043405816612631756832756846175169138789527426125897887634808831497566313197426680281676467072377276123325219933205769028038585307162491360802655248607957040355253484681495200216883747434099788855406912734
100 6 0.041248194669572106677192136873310704795809830346936239689979467141943165878380261528513788190589147562387439758497795838328218839625138623600196839956457527972213957474394521438255000780356283768005932524286323987432391730681594249763195206828466352632420997545393782916936152760143149200129
100 7 -0.026692881839309945876080154712674117919174864099593849055571897816210805220437813311747820652335950551031756690281607952518001170444887288576112066345085726041816026166257891989051597181623175979055135111025366925847269499411596300303491953795167507183616438673073047168648200573789965366527
100 8 -0.010513486499678562488691690204102970283129627821689257048849329949649933569316432495582750947527866455104952235480265706207060195857623281779929918729021302699547823269079470232916652917278733537192106065921503874940509216195059838974471602447453263313276232534077277570649376500199846954846
100 9 0.074500202370099976039514294133378385521446192131998296113558618223813912369623412510464001404936056827764827469662236245132467538907426866056191395401906516271471336994346407834378565676379728071013633145100879909214526258322276929085052402338886067504898871792708007100150167815265992772304
100 10 0.077756046759190344580652166408459408557264256651146140523310666583762926115149067196190080997767930475973148724205468190110940121543023832217483563648283958084402583197885579741386175434884858458738010764853150123842127539335654024213868067378142147978603660942310631187892030576945231706445
