100 10 1000
1 1 0.0029586210842228470372832993654511383912370305280165382787831627264226289729488142705950696391577637258880716629639477360650353346353436436879846724707441358368856718074425452412838025328994956595739177840953373322354857758796883527183445882046957849899008416318050175694148147341668516894937
1 2 0.0053176319984784967965793352896759593882184802849660447752883602057253201955602044531228274911229599054418640145758826826121743064042979842110213055992361693935029417249882480783331016853424693585023906900202629834614724064856151208724201790344680416330509516932028010437789992508476432294325
1 3 0.0086778333431012498578498498681133755996943166576435744819848128998594431256752228984627322032310999641475984027252715814995113507469875892221162599418664365392625970367624491873556361634083869694112211352279838290010486172791862335241363357353656189607432072498364950891177962880163816036362
1 4 -0.0027551617907038454368095358443451863000793563379829924318563892958523785858929521430585165547290589175616968849302960854087940880424004058979239956344207995570395796366395148224136034955894722467666626493199458910146065965925936681563048642474364149936672792293703334074815456184595241999218
1 5 0.0041085439107293826905538092354939395885429207628581933214074334523391645848017724326452994297432820913403483865185802855457610681857836311099849770152843854851770891663347706796815657777616137701615679431632187603726428965938377339737178949081167562310245705527078512531444165231282766718769
1 6 -0.0022618357195080390218852917096548158010842254461289682776450572312555479594420665178198259848632605873557260982446418197692550014869770270911668777177909510532309279359148367649983361805628049321727794373785926596123843189223609370294720813944910487895419982452601281137702885006495727354075
1 7 0.0045476434789786917679572304943893481530143146083844482699360301843565775123443975471159738826835312085878549900185915579895000002662484133475768712161623981614534790742385236093979216709447224003565623726842042352400100088372620998505213092854451129063022691474771865953226007184665829222502
1 8 0.00097714101327275413937686764888189815989432218758210314434288385570444712176992113637428406471499276482939464430147317830851688435957085327711384497737039109771186103689009194532734027611859581720403698174511338117956921397709584245992005285564255993346784034142538371467684583282929579249896
1 9 -0.016784641963283648107859202577075049153583729603558007322945053216038271543435111045416357958177152795151746906532399383173093686554993628308032879002354663768595688570917114663320832157620657302884480611097403539623921127772972098775158556181042485690086109487098889618210057205412427066764
1 10 -0.010455793472544706794685400998949688164727725404992910603711753588899694337182713830730606820296648161233747260449627990422986617836781974118095497908475169822877955850586924625968741662520681311039600860939277033722153051502819889203682269967701111812462176418720567303838134574223522623379
2 1 -0.012057389024423683050587035505237432814159837312191035426585878094712730302656947823223213059806343973121351883206942587175534331299588879911526039123931794865099118625390671156267854271473108871585484985174947478556405899981630680759055470036629924200919614897850753541251733426372785787864
2 2 -0.015105331579123978477976846325827556035392470783512936641919935365235220182175104989588206263505046051413265661127506655586581901116116286939952350700297793732629233917757571195026579740674246127887933606183093114077881158748242639951888979996989734020867921450094174859330898273193921161571
2 3 -0.042760541284178588019929347613980205238327802187460265531979269063525152349238404879912374303580161042999375857890985131268711329939281174653735273931046467342285008766739117618411892292887276811763298408175668771686840600405114103375877628302905361251951220309430260477479609349625004529911
2 4 -0.0023043865172208535821293737111146413187475537235260326743648301184231236063085577401122445462565522459654827042988152890924305632364443551686046271231119601468996397819616022151407999072937208702841190747629296921723219650980870887009985724657922357531964121366165872514568804022184006435886
2 5 -0.013926839909300399646146990059607477214372377027349857507562947819293832490731227550006614986035274289627562886516354520588688762576427875415041424149907830272162554321608972853286226995799338094842016775428655138670161716826362396185656672833689279721716571615948957378353457517771000295584
2 6 0.02263697797738579611391046068209658598105158877351044716202994914214693641337222743662926417509061696727226939999375963268285867157250286230325289056493333950714198481305764803296627743540439506190064764847817157271021911776129892549743195413061923954617688732080036989496986475692567624292
2 7 -0.035237374397026924361551137085860232950499817565161865980325309311952429276159277556712759645434085337923005242892224755181611602287867140190258222159670967983680495004481332778308942646342745170269647727720405271839286522782292388438569260093606528438313028063229911331174790300730078685351
2 8 -0.01508365665545034827061764518145829849141596860277177286148256763912161117016375345331913914384697473609074663183001057878027245310539865904762979693300019861658586049098377142080351111202916782627721234573943877928416409094285560710450903801235084828046412037289838474367908634819829158783
2 9 0.11135146759645301179888340625183857230299425741983163312996651094666767247649240638503971140520593783310667622768520698051619165337654762724767029356869935420154620481913358824660742118649996298639322040791104153818932725197804750541213903354979991124585386411285379826635905798188142231036
2 10 0.08878554193363250758944786875070830061388831393423277377193957631307029514597435651689415123496416428912433122583735508360899675480372608268712751267915652865403491681735052704829282814212505608543487924025599834256593186458353788311701989339702795829794503911705679114671327395385783433149
3 1 0.010575881273436164170801938579457560080921567300416114877842509821335850597347750925829717903193520979790586947700611451281857750012498112567650898420752344533894272744482048732665081040244749677485011178540912163341684384591477821051943182642965746025429464259057870915363252087424777728741
3 2 0.013571382071662278596865264436062903007623738446378755172952122063500006729982817450419105348911835441837850792174470774989885685415409912234458593113735088060215652964330131406697377016007170940100729994618063778124628824910016073534204514778007815223855597800295222038929756652478482461146
3 3 0.037637686687452955695165380172517798570039134686946834997353434587126456043193215026327542943622648174804694751064837535542241483990819071221129519374223128765532092209826299548127444603308947324484673340997121371108545432495877522483994264302454379266065965175597113820901503027243996644493
3 4 0.0017589232674441380152510810093274954758494135504983608468514802034970894016777271814005958680598303467659072945000082250011928523274431613593379892800102726958476263756083223298573149001952795666694238109765704834945073786235797016904171624696841585303923730491769534986286923755491792532751
3 5 0.012374217285353450713983982045844039657177884367396929568308627935504048657298741342052007334758165653731221280174826479848970866960793275997447895026786805025967173918595170176812658277350094056044007732299905371785048143621474781591226409300293499461449327984492107385632842262428695515173
3 6 -0.019677388726783171446093180241148544382796268401562998585765057874470923892748677017773125222802626018473302240395211417492643544905814750604175761718241422197694683070580929884453699728713071100297400266375805443706773813573160843467226256363396847813297840734495396490524205445459278313579
3 7 0.030747652420068563973291327676987803422453393430688200204850911517353371845288599680152355200971216290654411299650624437424166969244378416904172049944641724505107515593414679196193302068497865743721287764361225589813798888887147592746655513266650313724684580829794932031343804669054630027456
3 8 0.013107326506400828900470065268982357015538768377266307906084169845501998350968107907403964819889974579991492500095029485290223984868604940404304636857071876702171821920146082085656817086745910942728889398744061165641145674512419668695773296129606558248355780440255665210384188890099385749699
3 9 -0.097517801821615575970313489783113021698267786130013055269312603300528805478385218117381911828844867598371838706824223969215315014148309168556817098651348029918231097790374044700639840741599551382240136110596456852391262423976357044142673597901848097221458301083978961168523226810328466387403
3 10 -0.077494531232824453524340559931644538514426484828106357162787272413233076436478070594300555509185497556404374310724117209476416520933409340719075453502724380677764109256691640228521189357007842454391004602696137286272741366031388556856056751186174092436614044085712288349736002751185976014273
4 1 0.0015481344877036522002062692310610719812919836513373923066158198778377480217637080856327614954274239229684275074546445380683458589438532712353144845272131680780555452750126348301792658945777421142318884466344017729115219003090601499170139574395471376334916673347298178410667037041620211396631
4 2 0.00322552157259707002799145528336304561948007926369571444047738455471258157752033938187643563343647878512682403350682799833171528779066652714015453141989703505149323928496270246454642413752337473907853776557048620907442905078607948934007283444309452662848467823799550601394721400048744496344
4 3 0.0051157345908369126737334750500143316557108411508349217652654581890207648332474545337540942910384120560372410118836996711874814279571381606436809824464215778472862708756024436377656064977769499830506233355039357175383979791271531221078277381468029039047617913140359577979435863242350027413793
4 4 -0.0014796586936572652598351726543619149547342265291436445446302631044170006654005302717618840276991721118160172532345648219485228133369180730678545210001680065460434724136859172091544034200732520164310804989785462328461029557264561307955580111535228166240211259605922538632327340065437370649446
4 5 0.0023833880752271937245080530970353732229622440839319078703106515399756636029656735683388387942314335035932825413660752854994768081385278248366999780181934810165537653114896892365230573230642107405856581001357148009463766677515186589292839358017214807803685504981464117051588463007925260342402
4 6 -0.001329241221941249196805753335123443754828204464920053151045498645746995600321026417000268020440550512869535946238088117363914985433610351315798068075215885753578498351633000616206174507383710437362512247937704077281537297567219245353508731737237737049805749549346761809672062976888011969867
4 7 0.0026923745528739766411500365174343529987882507058891210129750246637357589345210127725482762074806082793516148075974389323245849592899483178591822933286511398991963889552703256858147053779729764361304978758708257336348154993652126432640446525182051112334434997200177172519453405568696144356284
4 8 0.00068216520943877239485484998873354896328115860544664237237938536517615182078389911893893695774383372790117685120412753084334126171576478794054305311948244009874064107816167642669959007748611807479379423436089690165067759352057438584624423368408740103732123934137981069620216048634901901733027
4 9 -0.010142441110245220533360741888705537408540944685986439170512488216829229024379102839269229215217648311152793347339521396550424230109742377486871784148561519011907686323512955851863148697120655561025760462365031881405704606911787775371454088950136325283137399321856404069974696552770707498881
4 10 -0.0064617631944113090989477750921094056068732599933605231416459820352202256208341046329688041416527206707640838630847600735992438423900414681193691969074692274640426263666479954557412846363476276563792518124363713934107364041919570083643101143230454920498094311642413433640156926555851319033149
5 1 0.00054709523228354228366216122076582754653953760743173454442464284249414038989747451241314998364009528915737034776586049167343595337871955092246785501604337713066126900890441731727604022259675423892589741625527124756825049080445668617367259327571045532638925765229541083287930466186181892527683
5 2 0.0010826576725979000251309727598290270866254926033739256775803762726996039840817573959554067240770459995772771687070845077091395043849877620673191074879617000135059799985879266725931498504048185294626185592190219295635557738471642510295524598591805297334948544115471231233874445804694132027786
5 3 0.0029007773628391047945716826656727794012578696771816337303936155149952106962644655705096817581915550417375244016471389531384109675453500341977728431898874985803792378381273348102014493654621302799936134571471071077616350904504836089013070894987423114418953782145035211596266276880055352290287
5 4 0.00043704383403484056185556501802491523686964860841868150696407396130307518645102125388771461667135351927993833910114940269253077666184988424363088902828196831169575814575805808123158481981498361349110969595927873022085158984074021439079078205994287110297633258299977571776787205831290243665342
5 5 0.00085760891204092695026384975593859212711633622561318358167751546732494107076718869365422973527044867527760240246299330271456415521421729873467605303012999376201183164576780639574291716052640505371127667494627504314002809398158088684779868905058789852849245184659796946347299629213757548513348
5 6 -0.0016064528631445520490717773423800983802508876611767562809856463182240900934043440093849638716572406127859831512324222056017773728244239229143648923589852522798118334507214555960363765256530711401221175600020657676208546149499903029404529147189680210500764989511593990517438703454800680268395
5 7 0.002487161533189992685393190017978085754600234777484212058623792946510871392789847337420201663198375156664344885403769012565561390898155703944641677930255839484128532627576588060424490649191252948270600506024947703231997804558516793655244521485062182535608863218057092666221384305481420041929
5 8 0.0012247023247729634746144185626746558442332835852060472488975492989534142189967455149941179256452838545778388193747145237907804275776504196208504636129898707915168804422247547704378963494751484449459440292154750638473047746417755594163552095589082370356054734178888064183400827379869514879232
5 9 -0.0080486381941448304528891296575752407399505332145230005345334206539685813888635030292267496594078441953426953896851421211493021678753776343502560232209710196040430356712621051629141288681337990315243002665895565963900928328145629117327972139675278277244347259751441191557545747028438860739107
5 10 -0.0066395056261686275453682068515691751799827585321721657727367498559526874885514923865311528235139728454956129485165970443718365099239686392235686539547171954011450622213084522885943811660194159035876307927498372149650307924697289175728235799180442219171272613371344728153863425082859427012095
6 1 -0.0031194250835086451457842047754467504636654061033705126136670597728112365052639629470032527706908136880641333573941695055489997336353178563549238977975534090710376637889718224696828013161199544516868962329939162266007611025886187989653367446417044152489626159182236075772302742810462607391645
6 2 -0.0037483810080346381552589278646340543733662722965384752649022259648206578308365778163101763236033897223521355271145951114107566103557543714338274006465359756790209175384695898767445599614104538655260395837925927154641843528533122257210351285646532854177919800865963667428284344136115746758504
6 3 -0.010504140152519913897063485614607807930383888995133061137776472748390929011785489019572419909217468698181699789196163066485668287200406706413902225478055098267932832102737424114081444346744351166127811222014315207528735422224669533757752490910756943492440421095089567011963925654976828543947
6 4 -0.00032195296975632867617263673783050327373474903968126449202619591216892090958949707562382654091028089651984663005637879937754053038038961915615045142277374004622151645438936045851040756068544535342625030481522242780132232297979091198390139514267082928761877764217848103015202593022849868557722
6 5 -0.0035053172915157065671468530867800279044872518663539959678816155406476353069364696693962946370614418880665905090554620398865629648722062285608596934505737734834864041390821623482560560975015718471048231912360548576557100173062736135675342202568806255063637503989310966495553595338131715615815
6 6 0.005455034659683728791231316943063774105545998443862556486239330091864577337777381117797419687355214226728646546140877321706877322939685719924773116066161297563193994321974872628328533734621002849267873209890974616182390211456739642242157939272400147001618897896449855666623313815880757101536
6 7 -0.0085281868281358283848225637502656294335842095169068986985704083805930143045697591530941590270505415580891926400930693246717746001877315575820064015120029018152498089796817223606366200345546981803988087743483073944313223840405938411189222419058960995275199589309887913441614692557061947798786
6 8 -0.003537460446940719205173355333102867978817072712779575315089889070936732695885966510124598560046480705920795339204835043033028892059503743007369187309279451125136117315375790571019061252096076931003481009027203138029945325478471442322670225982442984611173076987848773869711854654606123164854
6 9 0.026920123563577026882998053650859877653534539588224063416440182902057515884837063660890919358430889126388781523139951131907078459960101424269424094129650456004568922479100053557986537318973364197836489241462361522144402178965193390267423115846019778957564354738592671006947484580466490364367
6 10 0.021261266224339647020413741730671468931814041357827085138824088832640479504718468875687179701972517628026871447802367517979874183268491286728521354865177066810381575779269646101110540437949356561047527412064205766065775826604887481582941089023742051194355408835052594131813972144309393806519
7 1 -0.011803294276195132788617354740796057193921341266802411603597354310508538289695068847593218168126967975273900926556589714430388587289719871856723190743010814785618915326764471665930675671138566544244018221717289565277080087289729778671645959495690462552442957293785774914199826493687066893802
7 2 -0.015564084491433159630333082417675134554943597740944177812612293106219064229685837988162169818374892525608561070448217360823374460597741892994552566722810618483176631623631366548360598811550020873886724933083256959649753200604956990230297670486907303933302510178794525355723795814329149312084
7 3 -0.039408060116174977947064456463097875323320953641303083644603772682452182523637641762854621268070245359477183725120359440341342478821548711763104197868044902778803626888021013265238155403820720963620821394333014401768498539536276134982972017613945108751504202738646471274463759170525491817486
7 4 0.00063729290455634871451469852914316094023133973507090034974778305104494495862150410645944868046812044936401345419325805022850940624348132496735247837500150320160592041418558806222782085117413577614601852094164156341075494195544160409196694619115923874364448387316759601210705491012021569601644
7 5 -0.013906375664007795379302356318347355737005904941703481665846970508239266931357778937211460925820555198415588294457193771427095980559651381110629907231765094372152323388538587789900138219365315541089406625972915560371862681206125970910853128217230023079872188627074245311683337963212495020402
7 6 0.019005237657533467824679441277899099961580061479043683794891412590303799621798433031208337189857270592988879228392059682940110859153664660077555038293026742120640391992077059490466565404166988855280109677396798333901744950736595186282055974363352296550509253921800905364580287346515398777978
7 7 -0.030384579437978293097826898480075278393467440232159624337014529417800499644823849715348883743057578546901152610741001136827428150148039465265167411489973877225918199518153070692613247823185141907161541279344582414560157630817131145088055445927926463952879004131821641039948306790489811218498
7 8 -0.012091230709931261226142367606878198283283201021488595127485060783286300603350163282648407051435341930679431988132675765301984437325674720776934627535147860683738860745291568664759969807681163304168615189042170196994367822106149820842050882796783812150166046431191541124687685331401960588673
7 9 0.097650129427813021991683533522268274315159609949617459526745672353232730210687996257548837234791123283477898797215354182422682699103417685237586228864418499162659588947919803508672600525607275290024952977887190988599061407173563090663762173577341700597213767765963537698821507708725692651932
7 10 0.075384888923692346201056318308394770340459754809245865982967225057014460313856127916425278808282413406809492670127758982864390208696017774791522380458306762519207482769272550973040180043579487160590477706408050168543097327364190612288640560516612564594529135717258894725739280022176939049182
8 1 0.0053260250293316993896631291609387694738159444522843240995034802225498191355055877184512155211206945105762232394435431238876071695658874501209799057139950671709529905762314803552956726370666739372010283081403050113860461187694401647345406398788309632200629163746007679579427443706939986476164
8 2 0.0076284961708122774896868888096321413715759124293072562411186859158022756929260325913806220465340213890655417641715423072940705688953572838115662727369164423745916734199495150224217338192705749594109071453182341320171484674489211044768878439746790466785514413032021156424267590187093902258972
8 3 0.017594545239353254696384434348318568420362446481472176987894193202194566979444495440730394294110653391970555172742649287268980780376711813654199370901895959916260045192141735655082224058234377949361339133108856760335514345486554844005315568521800259027361758769297261480104908305848843677568
8 4 -0.0011349440195254964659356147342001035094793275733418784603759817837795957231124851334345258811721770767976236352104821486101572518199301975626476787181061797106148048981999836637821770905727779845601884409616961788015031120219118886194684595486679068198477796800391805550190354612301451090825
8 5 0.0065558749042666786753892744174022081171871058805948097618510527468786913666409764740956001336418512442937183922435779340318922550071332831154944522824582153439772414919882667186629100771999787270852308242935645364216762059647687729485321317024301008145288954477893663942643350523812607790084
8 6 -0.0078147067578719050756199222848264334841456627587683893163138396892778080668400224267200320424985172061293650787958571324751184512590875721191590220165032887890699072755518392063366106673226892583293633320718305678520898956861252186309396482574807168174619652705218315403295053403614434023143
8 7 0.012826601200879100649411545459559197453843986742225135626821173356258143670067302488155457293953149510998240654104076949492320467354246964182925040529306362337463832980312533556659108201509806212353024633779338331284883784384739957547827313716041039435795901508273576473054598233976024395864
8 8 0.0048523481816645644210650477031778678043611448961931692251316942040874992265035767505662660606213318910199807732143784596855134812873173708996765281830731784521734775697417338759843926685802204326776559214097480264995610785118937699584669282729759748072645654420851464308324273096310158777534
8 9 -0.042054772456728353273885262809683629040244109022323549820164842589894141381981117572663511563804068166636095220033378840633143982894809714596575995512356663572231337181769188679619201545706473343509820647414869693383306958730129119504677967325969758714881863666786290785835531530050656107993
8 10 -0.031636087817382104732870673052430970554173849000090063175570888022691590160197491637410651849583387097639284033345459606397844936645271286393518639938223237803716579898913364972758501726708019106241600938760320317830592797915687922724766794330789628329212496882910418917453247447397486661196
9 1 -0.0034389584642725592504107619754390274991942451958315233822971011301095639228426056784633622756075467218963997276157844677752466447078716210557040661200424853495923941614029629260897600371071731596782316388669654923923583816732411934280241164355097302773569426202899536173750973987213438487045
9 2 -0.0042921779079854081760891371626273503003605441479585962028947983554563452822554397188072577085424714941993255555700892815620110745916456292899133972331364478256738189117996199381813835684283806135906738482467870292235001167809364580686377957177697400046610204714419336623145420554732298739389
9 3 -0.012707110611249129085426572197467818356789347354964791951720088306536815032525347832114705710541504309409530618016093191394619200274340652287093182304914688416804595754336661692869191010249547380911374171763658262043517397566325593773920099208516595584034692231215694595714218886319893197726
9 4 -0.0010936689243696947980353631951380286755135852276701585497339494933672910024412502256031265489735162601744766840079150545258165508010586585991002067402782255750655734395308721220978834956820475701938320485235343106014423555467058423533295503983726614309252354215778140622839548146352782666812
9 5 -0.0039844794382632117758292526226655893468231247845989714179558137494739828747620392422139927210770547969999123986548493231959771127113646503417551212661320070879431674965095387443876431036099380277909094224466887467566790231282838186321600290559264487692631307280338358934618482294913832245562
9 6 0.0069769281075830609514050683087811036604406490820308255568458611104257514534425492077461063937995879556224048763702707613442584190445252005860054424774879112099920690090513005510170012937755894181804839152801492184484092180603168336292707739470151113954046206569814221296249988890492729467794
9 7 -0.010756458492542983556166698926600405156795430820924572864447266223556299993072794042089188307583757377813096204312345746232306688930571974895288738586552081952636599687042601664327034084592779842608246405700768568052872460769154777560258453323084972597842565767556090914618787516119397653254
9 8 -0.0047538592783526535892048278365567057147293481769195486667254071562663482637091045098269446732472791358710809610856160948194591218239341075285672685831216187880326042321411664146983210651202136459868284205520315787646435792860054811502882005491364146860517552982790074759708166353284083101553
9 9 0.033823877531998445136811308549078232864429648729433161911780919631047684231417500571038386657019084454195911397634430934712213345687832894706774982109639492284518716037377951439766623456442904912877925954635364977458418527205023742449346057813982705682767265886929581912418888030329621599608
9 10 0.027329378190340828290445733233911407316800724125042371624851689709620685802731755272169720955454353234839628420399893769786962369310832041646416148981939170065237120247114590121124619898070081248222783335197789911133022677740016579305797164487521140846801384348876996986853271798623979572533
10 1 0.02370643635025596995786763550761091921775995915528698312982502802702395984507312317052077342476089495169022466288955952513202981632446483097813054270130192616669339479656949818552433277190885784753561743108934173896314660051302499062344345213658893969288744589111189122802555467992990855904
10 2 0.030245150216523237659265167717253303220118070229533162657673649992592183783648384602570602705645739925030617799163135383427920046722206911258413021642705072458804115318253350704706568370666923585686062186473234481141406040676865179340498543000979181947623404728159034147375561834532547918951
10 3 0.081810654514019273869440497468760349998622509070585746130634963825114378247720357052735373935622923989485501299554454142605189163239532653977609656140412420511362567323191643081384465063400944058974340409505259584316153820805255594988393851078350188508426853675109361484521294221782670541079
10 4 0.0020586169642018796855183760879944168895114501597546864271412325767467480942963762972085788532101328661258638273097867950618833146892979228001354419495849488465119301895816575167786241545119922894191737005586864131257808691951271210989751085203784564417947749491106988688191939665526896280148
10 5 0.027551610587508459002025913927616157415337463251626223964059786370467660774257113850469644608422009670649599956661782857012711578437783885474848620928969310461279227413871071253345749642837408841542996534598640303380784795082355023627904699704470896588390213531487220372782036758528543642168
10 6 -0.041764373425287852003760526034483763281125518751773063883386665080259061803740508978704176977228025342924732266297019351810994507424757890672467559943891178125185688929475151099180807146481900990661235217509219182611215369034702486237552410828175522696781960916306999804054609201254435127056
10 7 0.065671203803536223005757107563043825666125332190534732179166921181126489503419222171460206503096269454209173611854457048025923755498632056828903270869323114832247260611584577748398263310942161510714050018186429521665126384719569940630587285144604914028723894519068438158527941911244457674338
10 8 0.02731565689201184554141955725969267113135737843170595519479440020605698597607420533456052748182077847664312555255519504854614918564673418712956750700162896702064071725115079752728009054637025172020350762067970819376708013175968796335905143615860353656190752741654786378535190494757744449429
10 9 -0.20881540220854444409926616735143681968492470864617128331865696579976123397424033776704329057748695929134494511542657629456927213200550113665292832870498103227898706481243871042451908178279396428651163343160598513055270424072464288573405492681939489410026304374993507355296352541688718745334
10 10 -0.16440223284141683408969562398860972065732700758959190063668771806639294872206607140138627613692553123625745718180182159162247741690357973360833546020886442724037945501298180135308283908896777406858896584939007341334936046657917613704282508165736566396726428254834880746574465031335541233196
11 1 0.0065900432497276566038161494279712761255929415413952391251589351764022298515435041825957599541744157975868718744688158573996571312032289145886181241069804200732789402564288400095571286482898262831554338332223036220242198668029924656200018719894031346794536309862383075764525104113400213075971
11 2 0.0071573225142837269141825270367207171553942217914144115325756202505203497432569346140901035210074580396013880680395622042921694119564014280771871486784326551574252114478138397193228679139916313403296028812486626917475167435568181521790260634605656373345856588108997072479532041785109024238343
11 3 0.024485817906337190540352241206995539720958550151102130493985124452203026715040253482101299260752077213939834971765922204218025764849416936457751891739877052155817615698143698459890328068720465921609868565018513084229381171179619825069315748532747939351046538091753133359788430527061189725823
11 4 0.0034241723986129454962397448502867041987048979378874978537435569658564394534693318683743542197646889964473963836114584242472436981214897351086150209396748623869675501750345294561906298619988954144008989955082510665706177288244217487587848485322707929102284332284606215389008222867480204928188
11 5 0.0071354587873574323538447532061350277860257423241966582847271454326844125859136520902330111260231375551471527345119514034850562160355023602737090969647131839830675787495317922012610566938545264164349960327674843113956046613393459317778397173597603757523117448712878637525280488380898969853174
11 6 -0.014498821802450282461023991840304738059900219064566527876931133930518563243575785730607557210217058821147996605968602629165858962818001105997044755482352632935574119834025537081941800346191692591667696650013134397958735076284774133346365877173969256899642933855438668123450712857716742417458
11 7 0.02189083981105625560799971362845269411097497847599592653112806638981027585177704232906152090988091950361337213157397272440928208392798381547560722412785645526221853011431896590906359836100067419963882904517285890629435751174195370369873578503834074410231921000823721976509214117458848394823
11 8 0.0099970955769692980542524537696401959678972901800249028696168060681348039540776920581664776265628671957048912104241522162278832392122373485933300342301920479987175910204617130042200477735464619875717972385772052857210684997772062599616082827221247241314076449764175832705474522375274374773655
11 9 -0.06756091300794474654899520353989119257478627566907370964380289626306014267949239957604105440757242586398593015556538913976447115118648246894198768095949145990451466453242579737896224892160111544058289729018546332196883416713719474654919630874349955236129492438554393790216718827767372319493
11 10 -0.055785259709795641085400090137836402463007167544393577730764554896555688722225228883481692133221514899376045451740422289294507791347291569324721245914511107973301120897752728608247417390024054434103057410159552603875779455223565583366844137942771814063255569929378803716219526723181386448001
12 1 -0.011194705603033372506784134868558851950569328720134057098696177405760331222855771518168247112765549128234111822531813145205096714553732280857677242053111635773542238783195187341708453253671570132429038967596547647339453126750733597413959967852595929601587686078795080392684921348920341338911
12 2 -0.015039287099920830113878309331346408217533015476834061894880736592319316821974337840579589317191867526467309544971170001643828352835843256289992907485194712820448542665121046502855698280220321427163886561362077447719512660755685784608917346601357609971667062343192486939196612667573589849453
12 3 -0.038222165946797367117999544777894137990326444863449761703814339985574874329872357356720187987292797634479295839212914520444458728302830417133258965139688708793908206434485577018499544426632330352387683657772411885123629956604996139252510295007150857248031294908971951181807876120612489445478
12 4 0.00022800506846018747639350438472651714521932155187027338395011327078282738706879177225706347205202264047895284781153553100877228108857866123430754399058890817187980990347784439573276303121650886546232174882085107894634625797799420053459767204454486208514367890277768182346543290496923247523582
12 5 -0.013352934342867318993099513894840669412948752508091905905300288205985678548361828394626931389658770965969313797346282700699040979680228254030464790154348070391529016260530690701355968777610747070673074518698495380865847059891143194648568073518525995678747550051490844178696320586411654518584
12 6 0.018606839559660987200123418321412842260768215702865546290503443052123701795868181251216520724207638606986090897111269187484960377362889903187803632978547024765757768796708538544380065644622193628558974217382609256724964121267100297664811614794876309910651231014397611473779836161990638573235
12 7 -0.029677271952210670728953899757213163945794121941254325311109921218939796467930978030017254912487380125866624138557759872796381503670503698984738321838852510745375153874128429651568224020574119972900670949938575601415596589577715998758598330158600986659537835506625062943777153606702113718493
12 8 -0.011997341226272517891340168178490931000685294113827321278579954696833959929448546510365936757309310205821881590364928156420333158748623958117226736156670374853304115864812615703054619825570292364968176523238204393648350195468036957654204702695530185450722741216893367727801552976965937594135
12 9 0.095407465254139609709878252805041187106036607218497669960878357017726077866346650874736132939048532577664747751115871744266315336472807863598070506337385793215778084235283805523114318542375345159035734210037593871891082684554382421927056458222989705140648399660123429193656531367780466402336
12 10 0.073999742401913721620733260641361329507671149235149698383105152074921475173292009067054153910526695002336526758333698008082419373610206476956118724608456188347322990092303735166426836915007371247368229569015748618834583954590376383331072256488065189477727446426519521088029396614048342635191
13 1 -0.0046886921335851184829679548327598642404411064661211783002285202688868762312905338157386243757296021834167843643910636980071553905720243991108664582107159371042283777212362162583808860187968287766637964680114287638776409925386714976769386176226478446616932975995467131559614785185070849353764
13 2 -0.0048574357887649458572382543963554843773663901787736895210828674968104094479760889371197602666608698458080577541281322691047179179078563220125895154869638381576238717172700068555278073176659806991947583611537910672964746885818685039655181239100008887622799937121976258914186604986495805811107
13 3 -0.017793043273038813924397043216404469524854694242306221037225784738668712802524299576408085485684030122363593212301407870827433675457343323676143361242065912065745888681587289075293288145402985793327592877671790400264994321640878683443144698750143639479780745783885140082935155171029364074324
13 4 -0.0030066295430085968815985823308232562623001506691373883292150453819468379145046081170742852031951664841737040892757027019517527813148779512315032389595923144062914292330836976130332688094836125005017799433024527537148929593455713540733986941591123718576331782862885008095855765508514363152274
13 5 -0.0049808402697286873744900071015392089255428339461912120584281205411184713400828182954178432894445654032864214129879009917168436625040370926711952897843997427862748925079817211173713318234375766346736018237729593165651794303015133492985831328917156360292825298760691881527192182676198555388044
13 6 0.010897010404533329991159574209286684825379841435371824075901596800637029536629781018350177218976665695620928935219917871866953112456924638177472058501368278086974020272434894244910656289859755303376907269189464897101704931408103894025335505153582311638992040398823671707725912263923240556255
13 7 -0.01631318447236239666465015119320959164156581195003263491667859987732791805432273046638109612121401661905103152572139632733547279179911874317125862116714489608170446558377375709011251137041416357723847158576353111610205326616546406429607566554012236698821945062906365969477433064622911037933
13 8 -0.0076001224324880728382025196875508394802262531778798459057258410035795617024814238156108668942461798423115640743671981925037496433883517297740598628841544726920279126165532164565567932355100714943976532155819353338148506829213656799914309386999990560253201550946824093532884630088327759847936
13 9 0.050026405708953810308549932736398959674269952714253530015780109130121750242212354624349386145716367678109880410946243521998224531299301840771426278846116472626234720335473786900304362122190716125382818851056805037033827817417638405067432813021053264217406551199331112469468600099879740860657
13 10 0.041746195484505266657319013834346872926551742117177384036739847348224825967710306949793093535277550052877421456264455158010991769444445698150359163532832349421625330786121933260828726871990518884143307530314823351467711123435378958005946992617788732116352539677334133973087274875251981110324
14 1 -0.00035006373129136144189317010014169682391806918338384160929337491697677252312660966671951334327001321149248262486188631786370341396979397963495393032847879929746462041967800514395353908205539975880577079879246564404709477869104594044141288490883098493527994171112402837129700102441919206456867
14 2 -0.0013304170481666611848104214016558532345112599962121690061691715021006687014440958648856992154868060474480807254347732828452247639416056369469392202223665548525748288791797185709019922187767887574594757544740101687354605920392593896863955127485445035338227390718709003622908675317161507118893
14 3 -0.0009982923824072234472951468615193155862520210046226238999191962831992905524171415660810031026804457416670466674682380951032461880616274137385077295063050331707249418476808831022543871725590419799738028336243017270464627418756021907611996255784362556826045499589934990106465625910598778777126
14 4 0.0011519200859270718471899251638313543893475918708658642588964961766333904513264519988482229955245087969758203275493054697536504497524942083308537898230370574293638418918885255997713846606074247254591215097202467484146218879780110555368580798210791703623300687241043646038651364998909797386869
14 5 -0.00081836285467789497037692934990403966335620184752714268327833121255412272721012009717416800777163645147335264147935137791014396964762855493489224925429001733245728888289519461219251383377568089347803967747074382598620539336565215270915237466371794478783431726503790518539608472463516807315244
14 6 -0.00042370988277618479535721006123658835089966596893193461090881053322027455324840407707056145736597470211862656143408217489094341251788587226523981166698155412767255420410858153876352123325627955306600351855769073969616896870941238836848703479893299278776658299922174644351709681478134287264076
14 7 0.00022791297539095063459252619877830692273151299514199271919887983144377045363639885451356296311895369060186743096785574855456698309181390690630256634341039469806874621427262751822170589025102257095620105169610637360553280100623517566933561452906665033872775334986903382967132971771237640827635
14 8 0.00041931816180525176935013429612547848544449380045192086291493664875543523868368052896466131184510578802473123892771819401074539804714421495628608003276420560994412792879493098523484712031589420942620058388681880566747705678078918962199918748253695154650261347271348647913001060007537156844194
14 9 0.00041403811959114948576749011315811641564477077575026513807409130605095945878674207947619919400886701940852698770547442660970733683493367094400519753726910341689696472963226822911883661990708544791565579050163454452633419866673377216583061011974412411150645853773294960314197283661761048182379
14 10 -0.00078873169631832181403448188530492192318146320202593238065986312196233844128830618127093205194533953407114250382380966374168977131535499623659057370141380592764224523933202874362002164341121998073564656457375976808494006655256626902482741559032093118496995477059117101175177847265297246791306
15 1 -0.012887651935696202495225300955686939730056455481509239078631550111753510207212647381983626196998410237585073886781085962304561210147759208198997158442688929853777616078275804087541791826193378309535354083551273552588133137216807154286175006849142815075455848833160158214432671810379052085298
15 2 -0.016022736806427119826665143547394283051481573669799616691649182175117844614678706084523132660264797796456761089112225050114886242514630369762077310812334322707212626401158206411256532026441787059225186931970389005480345194192174854703243551328537975869049019240068029265620426056469844984636
15 3 -0.044019777768914009723196341607689834476130297925188547832980243056526419399620980081599484578332484898265474308666242564923092025081069745327522846924719258144965714727765016773396940347084604920100879462862592786470880964125574053528146006681053418999435026293338476028058314356799734934432
15 4 -0.0012246026989622151447037589363662434548725647581269627573398341677793838258995238354485606159914934164946810779752372105745556954218801866401249056112064565532106246036380292429937838416452602153492138936988364083467011523992646561482708121149466645426342012169368790152903588371418283000751
15 5 -0.014762067153883778807879102608044473841676676183746477069076071684602012219204320198031330376650307458981582707330288078481040315940163559919159703053124490610502561069231712726548387312149738466977393605497385504085800158296490638717034961464339137498867423032963782400378262859274220636249
15 6 0.02264342276841334769741514590521061189339413514102511438868182856222068093321676012778201817850907758017256982133897441647935826150578422224854320811431766702623859504436571165702371744179736056066647180093581428648240128531680612191717102676836560351942860939057431267019257166278509328995
15 7 -0.035515816528765973862823519744931372991103421195465570961530105439133534857400874319388941252695191656990827703715631146138737070368990291642171200635201242576661816826314049342736437761549320773737832604201662410611086230837490839752267416248435732986229887770760647074626512403119649684675
15 8 -0.014759713027401868306792468242751473480568745650985582540493887498097849363985722263408308634735932218438110440354331320991238743236509227788587687592280935086700569142054079127340883965421419510820347606157157068104250000989632084882455844443207351997017208508084631842276410342313867576488
15 9 0.1125748111087019499804881121625575210780824943353367841100307635779572007087410495129754825074658591207522219600878823137449708563934682319631700663354019232507206584938840108472130877021831258891150164328129543526915520597125346370118928659774687489422611951655625152874056374104935860722
15 10 0.088760647281515644819980997549250799680883569874495231548057025175706239793356519626794655101886826536171830840974814206379350628535821321753237747466323177434218130999495044568781218434156146824325364591604908438070823628792066396280670529177292826159187736236191186353151281117426169501309
16 1 0.0031456286493827416861309714221564723352573425529085239193205828979332737418196154586988683888505319987076945526951059336941043324895478976577316656757073922756621123176211945386560390443459132605277821923552047281953176649887388980039385414784801616673071902405384377609999744407213377734359
16 2 0.0047145025882608501122145389336249055066268306568016205650917895538704587912888957762416623725997319429425922136214600554648004685722457091462454084557512712739110234060839186683394495418842238993631425553778904138780744748733987314663039146596231118356940394896387820960488507153338798554027
16 3 0.0097647722188809756418146362277857187072498688475211108977442639061507569302969181665186336990933567677628213113206527566556461262461971331573823999863067933783584373424997878681966935081842763084600986867436047163816591524149990230090836057128767341241143687701058587748853402042782123634155
16 4 -0.0014194067638140634343713201563610952063784748140363789023465443787805303911793006170062432282781430870089272667468330636721687837145911898481905156101299538438990016988439138743713113463034812168512182467548596384576946819158474214780352425418250468828354285853376628322635287825947778162739
16 5 0.0039453938002045021241344966247023811280921810935308664201864415304816135392371913954279880112624975392062696781163453274038387906627522893030508052567207105755962627613851691104757283623109731923354227992712411535620877850009459795119679879350096200300987713342771641785106713984789570856959
16 6 -0.0038072058623715041133680161074050611823334305217859222769667619594576239178739844918663214483053135594296495641662905351560510268518465534140693962124656189783613903967649522049920086349109489097518757446091817862235064527852760812540684185154489838942367756080847177684717501034557973512443
16 7 0.0065206180619651052298117621732676294796953225930078411224938935850298661148361347710095508114584123385859359142754176961081923102360634384416520302990807303583878739681006860812230383048722007425027895203275240382716761601413731133808685986464997102714727897454544049167584436333810609500251
16 8 0.0021780333311714777271389372806153415869930519547012039643691208343400450731324543445781821697979270570001007980000488105356509728520844868279529929952794676855226699640319814562404569991389870838497841024287042199516854991043527283288110446484866165270267046970583555022489490761795547275389
16 9 -0.021921345469179985307135943591520367035547626103180718495336546765518637157319347172861748193781377839960727589763546841712555386739554830067189770139950243671066592586776352980815212557121583522037231493033405568965122733345806504460840335103251011135519545304467808558262281130581440561398
16 10 -0.015721566196818763602554904059605130557227372373186454539003762430784907080624427455574470206342104986942421832032852014472582655139706503330154912294266311529117860294177264129408086417381613531261794422460178186529677930102197845225583404929895318122619003677294490970574596521458142539355
17 1 0.008999383438167155442298779939430717441570832542503316422737675672935596904521514737987861056478602378281900053256223810737191675031896435269029842087457797678553541337900079969693592691149849467421456114215224073687998748820398558296394377592815662650576900323338731190979828546134842617886
17 2 0.012209302430044476541174888806102261227389623197899982487944016928319663402544041184194566682354315946874654048131202601279778687187254211005257863432281002085331675296201158179266932449110226706670983993758456427155321337900401328002511488263797613825078143808591186787390289084771869959712
17 3 0.030379395103439165503675745262460289151347659813774263598881571087805664494635566844344983635384022047643639499820622242477686325823372079963948536230258837253457666888313674343687125508365163881589197429382756002722748136992695079703851266886218595830461531279838731725286793279754063134712
17 4 -0.00060475425171159039132762312563681735183636792714157512916714246808163003246648827465619265069198201193078526674939625633711252087463725035252251022562231018822286913497611329174690777436725552674526404486464244791801678149516677725054337166967001431670016774416137468572595641049749439930315
17 5 0.010778131986034260789624953479784194465047576054166466245360385967186288247694075874306293357233860531351236949376544238857520999419388299123402892531307019181580221532565027040509279376671974883886733734479093568067169863580775154999792367398159228573961709250805637307301333295700706441052
17 6 -0.01449883952336186857302696942205978392664276025132698841594657260028482984612629691971768477777463342209283127151378721503033402800790053941691439809659909697012114440474568685221030913458820103482433627076067193128886038897040028990703857453673529671880801167300031352347690433441220490509
17 7 0.02326287600418102067277907141718682888971908701762610582964432644911838564560946537914637023930748734582406968572213694907099547943984579091911443607415161984443410218808704402982400601293567257356229345111181010654999807047365671976314512678242313918900961032264106672758764638383367980776
17 8 0.0092575627770249211723849977048789371918713617384849288493119128576209303598949552206879475826894313231812006721698306183601009656836359760059233867688006060930002146507992811971907723823712156239392169832680703586815607667681807182756369565093046709113497602577998089685288457039445410942925
17 9 -0.075066463302322080034270030753214421127512821596854918698629025562460810010405646721004989601312316210151409205639031736998101007050370567879368022207111090796382548036577177847618518998282078351697447055142970397302435538042511041443731765199467878687365901463512948228236509656023706237037
17 10 -0.057823970054811058713469459480928677172329056057134799705680873762834466691828757928652488105410499938938699393081485568202629558496945848889150104267751392663161299119406834232159997863529208192673671795453494019526084287457487549259483964764763693410479937035193221453773841217480665605846
18 1 0.00079247818598697845263949774356592777576872105118019064366376969695879130798538200695879157089649229656247697839396868305162896917231338106295716107115617708766455502560757149021944426403006088571525293298860040681146027365897449527594676558481392320343171996430285511963420996014809947176522
18 2 0.00071875694426449433247345593091091933922528508871761351709553056170434379806400202377424864461155372815331634651381099224596682108607920940664225457081956841536132683623765689799146762985364093004278746114964931396612833611686909142897152489457455343108711490940913874464989593074070860407017
18 3 0.0024492363318563723201648486211811215275581698569513607608727739610054100648933086934035689510789212780041365846753671400039915694310522990410091149353537691284986774217742464184986968156422745776271989336569198237576058286592432540241517130581436528976977161320249753218177370347721462685155
18 4 0.00017219693055150440335808247950731976257127322263486283615064534422277881195038156340063040863134941517267821290579034764602768910374396896231141231019172314765454802585874024698456911100169393131052001425602445983614968453248007858799806898974228098513127753774699703986605797859535872013999
18 5 0.00076970953222613674082660356007445154141732101219182542150905037788939943970217921753056747665123412661381202788636255142091488848815287457413256576063712897549798624447910561449750389009905245743096381299958852957893960701671158582640210414343273224746041070985145350776515500245050792707906
18 6 -0.001398004086086878595274751519310015953755013029926957139565331982665091678551987294931230199407354775537823779570092878491626342893775988964917824274259954565524137795004885861276883630156586526135679361498144388955282306124206015227627536116158993835991940089826170856245672072161059290613
18 7 0.002119814295893780214006347283253471048713410616419469744406408129274272465615032374129101845637347859266169783121393352629500317415831180680707177808014034325644037458617881614239338413981643560166309821591936569707833228080861918321953645388477135333508520395400270171891287566954785942444
18 8 0.00088344154308688930240463516588816601739522808276557991025873908164873999662573287140190379716909521849259576963076320931263690450650620301442642815669315395431492967465888310873896275363946993511781032523119588345647617513435433037116089089016399022623935094574275855482140665962282206155813
18 9 -0.006461261752506921632387289239318389292304289911431532716144725061101072569668465499168530689282462011288885062954047434120011574659071909038769826182725091013609628216153110471116527026831568319771896371449457143694595366057038739516953143702439645414939451883253901262061625723806611461415
18 10 -0.0052107524287743585417090575556058747972134925373485748118355549544411956250403500835495446859214239488386896959716820329990649416421935215987163063829825672215959553282643858823631575133416725141814644790367670068823363104307549140611206233329391442046121682537742910044974447023347128558363
19 1 0.008747333636421631941885976212821362139622736820915928342544906376334290768673526276682260611434099394943782634973606199920869569106862657706688643557307535189834992498343516667469106902150868742045151338715708969847707174125033122337680594777723932084300980190638009594505055169049270440089
19 2 0.011951445043136859040348945526384278118745442850151589557982072040489844033748681563493572380808113052288313222144809303283165896970798375105474041630555021542666141070531771215853409937415662857127263797259436058848518427259209739800865630001507641179206121644121402770509939413879694756241
19 3 0.029445999282646562607648642538980231604424986866727361255641334839130888423157796279393283477778673897409325897561449734718746645767620603185977598520816805771500571645727103600837896294968019752713649085865411315284839506502986836174817192269259883746218414863375832839687591923687292930922
19 4 -0.00075245500732474430453489318421091244258217607997066996988953182899678305755816417506703485321149650119848545917500715562337332956784647563557868879343515449179859276369077461945422791912240994046178794692886687463567381521608475208695233536643085080883301768551853459463031391099072803100095
19 5 0.010513182341757428718484404660571766068607385464507083869615839484455650924017644922581019414435767665841731089876214359432231453273709377928018938454695966093268114950544710936220554845714611938029665288849298553303684428214243995061506678343810803580864705181284543117718869182370902253544
19 6 -0.013928598833456104862703376059877781801601558094106297647016262680686923812631460173272147407005603749683005494441281823658859308039474148192435321856542491786293100716678618568780454353614063973278406878895950499786519448740132159316036544333607840141342315995096464568189579698685900196842
19 7 0.022409893732953840863083039397144739933525640194803892486714861332290724244466670292867665518596606713868960743799810826577485191274317891376570729081120621188945344907431114811716266270940001965542837984870097007678522664478359044787705236769238297917154434884315117709156679539451175723664
19 8 0.0088645331024058211628601565048553582899500008626445507236592622019828543827479179677219114829316852456637021925192298471646238549997265761413747965178873146398942315931574385625052068530815358892062717114786035667824010228294756232967745016370676271175542210323726665447821388886456018590658
19 9 -0.072458275905430607996869957817479896164480437793226020426103169430800728192375650595619136072813556713184026717537632721765174239334401500830215483722002099416214279907864888695430204843798726719805219262487317504979320779910297146862272491785937682151474841182291906870397956370644581863574
19 10 -0.055652841412837452340720515767843395182629428344181979529854148958930315667844856311017000924985233819650233912264314426844732548300892432696687513743190336980788630153094073802201019271430165915743640197768323039178491157590351252807651987913840857915623434851878927818855944992036365565583
20 1 -0.011894791718644348012326414947700912256248810959342096284116730716261023519564114504489481135295036525766686488803150090165692970973409774639003959544042273886797560089156474456038400568727973620784709183703147954674916780799948224770062329200034506811173096970738332645257036580770670696633
20 2 -0.016810695012187597601087385917846837443451181360224903571777018103114530705369290037587366099424533357543259503860543787029833548631855725804803769452871686066494492260999142842262606344673413225153333004304703714713596343242781234661508309969325715090704707343083592641491462572022902684164
20 3 -0.03955748794553990521751545869141629471440321134895178113018389836140099667680573359599979720598339102415500292235875048832302281858214188427357345938537822690324565281786567478946082730967532384430103658282593125440067260946920580756927570872935138572469287442234226211025784101084357199014
20 4 0.0020520816985049843116189868045495892248219510520810144896957171968746252361288176309775101429654740671830573938089097341964845891015846382945792740207410568174570350812695340738272533984975291136293624687397281849442399768829868585147489789283770772692611027627270644391016074886534175703519
20 5 -0.014539903426156758986277640259907931707678089421831484377562670718950374000457361290492740410975812144179844742667302991129459194177283913537711443558876734309826781756552028520746447680988192039627651730630907341850073762658017603789935196584649078269461136982505633895292249475762340695899
20 6 0.017954926515914629993071882447773612053356421708672708996723975051298904341556800233596248836893966587795642031417698309014788495713180288639902933178703955610216252985237621933419043309644615632762363837903789800472112932067447602206600796299354078074416371863478191478603837327470932840487
20 7 -0.029259154445321087399125388202470969538491359642290305971237830546286706310441910317541744950776542560861163362420806230491238664518807008900605533560186637629540227220577340970473522689060959530858898638661211670098331509720581532456328252858479971200084262102892604393660152084461058685519
20 8 -0.011240464038695095187984653434792353753545540958044569019497962405414599864024728536237907844450722985566164795238075418947232408529237246865838698148355124465087514135750943107435621142057410440153087702140233364541703501396849687875093275170383462560659777750094884703300704075335482507146
20 9 0.095465959253572187207282764820031925438831584567607330122132044502920469767591448999116201139352738817546614719225032876006754397152735499778703396656091129778610301524596988149947325644044957396651720971564542509632750135869379766055203750378588005966865165291865934648302815963406753525732
20 10 0.072327553547100301202374196593918349316991096568585095654427688042761113846786142797044565575777179521429912017180547864224198015195956414863748068712438790845385622707357783714610289627996607705705496228309379134069270197841317935267280156920804873805183088734213743041143875086316627013956
21 1 -0.0033738799729362473030970116937823199572966517855484248066359507450689980795005122663134749550417640476216438264502477724889555606887046068713670784519770981593672312325269395798333569362527674428640156688469967973097413671081671871029343994689640394968939163205646034320168268980703934394871
21 2 -0.0036642572704687244511608771317519675931516982523162199380580083365185594188954638177935067781881641294435125498146318321187704026476096380899956333144797759602077814134071589423104386651440899987498970798904084664356170805862532875079604787722343191999807113301928315426262347202172744563179
21 3 -0.011666332911541393580015422923387035197935835556837786611457949693168043959236480784939849023715725429232114237933856828249265645791213231764136505619701729170539057228470933857352336221265787189704139065304024210930544744239360767773648055188037107288234410444990195589722288314080394620807
21 4 -0.0010448891281554489793806941890746518464653976642497503391041456754072177318275155976014535987647983320154922087064671703623405927916452094023332796892514713437843891563763267239261396687322027461728711777649768522184368338320065420613945077704447493985362504191171025158237103962831199571284
21 5 -0.003617876330894841884944942009033283306868677410654431014890993071021876856513892715565442045584735987710152972499835036494248762957970177501222123419917575136815380148581590876257178566332592275236858926954701941017356199630534110021468540489711843589297013200964242499099506075443701674377
21 6 0.0065730043059815814067440290890844926491677269138952966401235978633380096150704427470373656438076753216936582351756768323329202521520814971481614919509535073898573782775901917006978725279114713522807090593142164700999030046849725453460093216407195263288981940831299482557589789912840760885507
21 7 -0.010042734867803527564999057204828229476135600544452806330753510909323624937922473630060949087462547114734541217333119611173606145676437140120098151504122430306092460561901555175698604257062276142805042905764203042050705569255133464158031102211441285883805419697006410361536539998894022287037
21 8 -0.0043739534669746136638808607840437399377441067013418230803694137827783762224255699334900160958567628183979469253225115399593990691492333377205890094940706099698890553542665959121985865779740978233085067210151792705725027425885858521960727070697075777907797691731337641761223372381060252714145
21 9 0.031142737003710547943362417456226089231878375115720839489900060309924080762152410542341330401197764384458992490008551925624039992372658519339237683206351135640242897111041598696245079541434511250263004221983937653392696387063448176567813032544559887420518089586300857971380390873915408522274
21 10 0.025237410315811371917199346183195889170681023924916645137920841955510401544083232665607240698817039510896032622193469541809708476420919183236607304641549845524275751827438209037905810961745163636888307199196438588503565816827069515938761232579210215019730210075756927182530859904445078152458
22 1 0.015129966857542365492044941803942573918746314937046598749630016565034152254909521532658210653601228147106247577134434031877296897680387383247450272066327519741710823421959539555781594524448581630122198839367840020915872195652273905119622293752093789321917864910231903191793002409398934120241
22 2 0.019391693507813468959403467574477754331354987762416123836226509699770703106398072362930423174928129277481983870475626971619650628711049671738332819849635801307107290319175117619770905864289894056289484820020100486196692995266631389085010074293637880074625121767782992621669889074407013591115
22 3 0.052664557825479765517452894338588383502698005267646385168078651284417081994459024203920807596570220789052298747140779806874763769500289923068996940835682626649969393813957450746290328276149251368200034321273021678891739566679487266540315392318220819112422654400228522355496638797297343016122
22 4 0.0015818130446854624274614234704173719777852234655999531255632737259229175660634142542242528172079638973789402110852345405658617212426464968925299607549049035612085527334148006792433367876578013727811453358663302104955362928885184310279340731412099543255276956323846829863112759019931955104669
22 5 0.017643530305117896298833470068299982995686256947911145450890523498252267095735712683191426499253648467421843810472763009598653123386622612999211563199650126479986918665673415149073300371275996354890545918551270685009354674842282086007468025499109705056080124477513524600361938184197939086876
22 6 -0.02701833127409599494620632692199015042528727169488841611654990166007145937823057494645682796656346766508986064386132234640891870043352766697633907811816904875848030270486898767744620032305282651995060166100854568552911992586569041186106058326560486283608334432222615508138820544986066562242
22 7 0.042430412124562993960793893439094311177171715462468571230412417394349154478444741161485193328326186392909837323566448894730958564317895556929496704699604795931552551070177226812981867973939637038172241583631710188803994886991180320151356505259047901868508226592039020709086951175283811962778
22 8 0.017757890216180114869366012475607382821359746127351012973231260674642655399989738866582432402271902578378674596729966370612245674588947318865799479044680443506953368793810003591334808659936847279930654464227930979289941750794904798655628669450962793725490244889051650337264236826503605582207
22 9 -0.13488052749612547289848115203431911026812340665465621094147814891922784818995970286626601064179158213330620496152155285840291328501454578574429061429218159090669964802968968638373454482410882084380745405464888546455749394752851601050722847067683146159776060932733263104663590716002878989906
22 10 -0.10641712467051008325357766539487236097771867946660402913705819971042975622793509928483619354083039754398467130692232663875033240590805358810197572297004304695916634106458900532377116692304247789393513182306484605748884161559790532964175588619625243899362577437768052765781740754402862159568
23 1 -0.011037054285909063767745935862353815061458414206360874556872536579774492914880682433758552101864616696256113506513810033992639781918816403726950850428005851139203619066323981994695188563053107907889257444812536914863579482154003349263682689396104547392592224585371458175995458140601570328367
23 2 -0.013842007892906252817220210442072868377421399330982717744345435073272299688021857629910514950864402231082288455010832150938296504414633123617995512751837668517037093919105193258650272247571339259756356265958324023619775330124927505186665811384790594821377566978025180742581352922825810683153
23 3 -0.038751579452416938006753871045367617749083707537381872130217433928749757642980107192532404737253225723269203589393871269980419491162814791407390151980599245491340102110222923235425578547764154300508302801324027109652097045432250691307720775815147027513267882907580795625403197383745967567501
23 4 -0.0017753212298581371706068358220220378822459739272431034922858214422755000293094232137721537814115862670536700822204630628379827810592398097253180888253435946540135185467604689058359906505653946793118804762612954831515583179923013457940379565122559956455120631565861488500693815325984745642143
23 5 -0.012739079421445243305154315278174288545901339683834342295101488612770531140859874647616417020499941335427880295300804369247817503806635092805976116580839659107410986741844240533838764978654929578718350124223325108745556383213496139916981952001737898891425904726589971791978090532189356066484
23 6 0.020328998164059721821684174747833759196624189893265126738054788290027281368904017248283060184919075079461631653893756230892845379978755395351996841610952978701997641498964093832782380880332748224418655224518521842243222669743954950207891334117300782290982031343048243206815593339154396664105
23 7 -0.031719864012650843303936639085268752650031517581796898609828201500175181513766889067632684518161285743753859751468893076843299173221413135447584699714194951845179266281867617782642980487443426554353643458457163571059930578840195589720090560273486938033089343462459526480370452830061178504817
23 8 -0.013463681128870440073583461799108714450710996863949454048485733913163934036389812126186408253845641485454279600299809056665236989683280666465162282548249916582541191303524787965246713919522861489883210523466184135789062013972016010044580388873850664251898927891023537846181533949229204398724
23 9 0.10035346651988512330286329609820638216912704475118275435171490876377871052014351265876050474590068130653177638686838352536058868446620224402692696713614200664594181934683170052787118033726666808387780734519387795938547566846922170307886568566263071092062160225929110246447220888330864032052
23 10 0.079744911082209973069736473368805463653085312934376393423732993574308434844299239959284820363701046324479605947143991742596655740600412031618340527951598649708758837335110051056929747173406188989994367464553709082904206027407577271745592354678648571450834246982629584840479745235139426497773
24 1 0.0013115628983592231114177992612237748695561816063707052091284322177322128450375415402561070037898930551240349555145875143307546385240868987853788490376978997899240117092840112333151112259892355319322590549226741105785589199550478352442965156238309949418159153017393185995501335891773648586393
24 2 0.0024243677378518052526394941613520060308941908137850922238140168874506787912697841630025633835027187538734936350542267634019352157553198019301388502651129131917454000193520409103026030211398863682167487875377010080743371580932717848411446695654389751431864344969430424702317004338521885517224
24 3 0.003491585398953966481901166419157019735994858497261496969467222256362253938979116199529557441563640828699004048291927997951017563937487180262418516230315954150055806565796424556170389565391205048147490422364123535867957679644496720506383551160566803667837708343615262863579987757700493657481
24 4 -0.0015904612319512134697484319401154562382811017366403200899917455569695115742308091696982764335559023485231144888389320824795845524543526335910507216933782018990593994913438697280255613018677937874871202126304284228169726454624950479113461070875631379633647872527014066355587044888217107708095
24 5 0.001839945824922159261371966663682910545825918300493313188910115127268006154446442994801358689738614631791475044186685009126133992294036279713882184168467192008856905509226503353956191404485839920160656101017216947893554896699590853835564739033385988577522318578268697952706256063902625016807
24 6 -0.00058216376447964970522348087471335955267359934923271893990493491894718448698431497659221250372025446544840704110911696262404497034438193903773157689764172241478487873998446046017513594632796778999578393436117217974862800257921098926634354425576251421103127076597981773211596418681049936273596
24 7 0.0014619136658530962660156487969013276020154924932941309679276791492845765908632667573679549019621388107588335476890334067180643011535151724635380192271503407713541171621522139949377730293073035206427318517650452904342401510565015881217280066771839740470682908375046880904868395919341179608191
24 8 7.5739160449172351888646594340586827689761474148783052943799259670546382990547518727445543199156100550543625595534400767943166392964812419532205917526462302659741908996397361588763594718965689467302229925105303247009636969235229434843526170040785043361166831506523897063387552884895346014512e-05
24 9 -0.0058834722357088398425332172530302831693475967990349942304659665322812656526600386134120221704544199372648839598209967284408545992448329574521217261007725160210351607692501868819180796423910306225279612703232411586983768064277889119257976919374366124917888885811522478329944809738001765985175
24 10 -0.0030781465381561759547454857052892778895754586643197723077829869043582448964611785763685132263642274107510146486888842573129468229708891152463787427046722247166324263568852995021157247926410179070925645807151227195621069785542369486749874351884627280487501512226824833234202625611957592477559
25 1 0.0080702436566466919210962418690972704262396636906173831856325003987513401348562097151305484071855384650519738243799837046677266865427369711584601646986966935823323082784944564475168552524617168329954000642800743342003626249729297169704750932360770559480768915008545345660779266107388745723451
25 2 0.011183697134761887251950752336937872304363201079042040008950502420465804983399594287436494162490865107319684822298941943764786242572246708375764966962719816872361235306523378659490996581764471461211543491764261546455623063341248717589077112370840997524417539359625075250436387911745200874455
25 3 0.026784465834513893444875262769859326785919974069695025868793797117518528379594522903673093983619209108467882103097386665351438074354166493422159788829508270906632957925380664656246218502363171206457089483113159934051362410804669672547596690694336291784643917249568225849986498136416469144246
25 4 -0.001184382420865577492062913787903759747225540127613065872288369370968229721990459255157343516862103676354976547051811028811985119302512296885610745766042131782471550885972029980187603381334192987478113047789692573083201820920932794959453279500336801974588989887216738366302151171418120972042
25 5 0.0097584194002479401241896572615894736409876470050289636861860826382300322172633096499641690412014143406561738244631413817099578054535783609266798115461369189068457824712733904330022267814727008204297256070994805411693822313365131911911503157944361598069637589003486086351947001924374022361984
25 6 -0.012332330156576440233511713737974530988194796019895257163920864391574557737096173128982101407065894249409695158273078641548617518992398701733506539231599453094649734879556319886330893995530771127368789066048864532474001291425056503167381384313237365327681012094916860645473088957933083754654
25 7 0.020003982272587688620038007754480758623712654595758622117094728631748196713290476029346527641561922385777863776883407420689333422299326938113177694739800300315922650615104474262010436918648776168879165418028766384985965807536187372925888847565999082296026067992531574711217690042972211741983
25 8 0.0077387387945514874776766729930993891070758094106611576942044261847352763546349034432996331046786032921525332677160636072271823811485675711684786110242771287017878026619712593460519785532758106492698583128206245641944513687517992035068651937491301934692914338777879985513809696125759220201095
25 9 -0.065011391968068992807940589358943267646614291094509685821921282274099916576231770859591375007917930996089200590730611014036408529332339859343392176557929349992149194481294487496995795746714368608976165984522175135683027082790559611589122190582859270131987961075472461053747111998718577653066
25 10 -0.049461222494383237950139509115215366423497144828816308175287110342124776877688972743071414796943109539278506157447061245716465940162061760113142792846497456600821234185618985667456838504155152923711829027901912508085944066257825804621557410973558950367100109449153722614966552910389614073664
26 1 0.010572581292984051583788847752281292258235769315373544083534652626936498896164374041580757516316490313024412983481935674779116503292534123272886572587147246272654163082825473899072885112426743154120491052785765862250135000287714218185590881088416169335478175406858507148503919120748357972592
26 2 0.013090333387446899955828596333804200503704930597038386794263174032446851671970803914438227037051065034853970779096400007622718685640974805879406082155024253110167087042077969169625507436064222947088348438876360574516578261331566965638220531649028057469508477088853006477721428428985225308885
26 3 0.037694893575933739534894413517997436742761899670669804885727730511415514303199999095531748800475481174104493524758165333595533110309829114937873830646746856970774724294354350817076638423462966147058119281000925527577412843844865988786361745191529162763522166813402647743043103254400719004965
26 4 0.0023586688622323337426635181683769980084112985484600698519309033908074785712549472032453000136023108042866545122255263663016720487277483891478014025884517435426118012620826211218259356792201300066780879161309366162838012918890901471015813319042162262875971762453233809514880265986998189005304
26 5 0.01214721689967090192183387587999736714623274812575176923083500458590989758563826652561240070269482112536067499081140052146580913169973579424973913433190837655146493067201269742458559496790312970905644590242453759289334551790696612711233200248793150562282259221629590858660448105984814869119
26 6 -0.020184251031267960034681907519203023577092517965376975171198996949095852901176340175812709967787422235331017948662178027555301349710554845842632422663329162132603906234586546343211011842627080698397430371213159170123193880127587070294382267474618498976200571631252826124016600222720568540656
26 7 0.031320583355272094899403664034552560606427291333923035084931223931890715368426150287882210713503384531819457088677704915484624020822376912749658715363913055564280030763435494934606532487121485846160719606319061019195029559165271630575906862256157000369706834675284017740995551016555720319061
26 8 0.013506912817949487688140046530321815463387795172575134336143518578340435706255965701384421851605654599000648001073662334878762874899388949817862325084500649652534114116533241688740409395475086187280239862323515542378929054469993344277014622920158876776344178898295713955275400005175207979388
26 9 -0.098747266497289404523859212681740429049298116056636268411497405293897047905150400615742090084528122768912295241724333250371164125526216545222090355039659760105540461469516206985051865017478891074966527216124268173106694263518903149918880780932009734769603023882449609871588702100449386054954
26 10 -0.079028333779046391060489540932793565036049751942415742486009774468499717321784416617138110187063665615609174185080149884337109896843373963761343297969081326188051502149959949603894875555310970452637887269343680950925885921237385079465882332620875342077642563967410221352000013162108067219815
27 1 0.0061921922377939891107837450588315000715732775994387932339956808393855416162637150409502370215252168763148158298496485400207337676528362919944955563854998196616339695598551859897920365715579093378738862670317440388946906008340902558708767342190718732829746869563865816044194018697457728777393
27 2 0.0080930824864839213910965870885797146627427945630355119049559094044349046154799765827684064563995409076940845128546753770160526845456920008535879812024901548347957817901203170699524635870793964164073151137338733761371797658006365100987076485432668130937309432906021821910882064312594912380519
27 3 0.02144226810583629618407670184280131952910901606573634374633953656070066376400102407371881212867624588740910916908383542592429283060922952076260514278056623098566868026866736024910568662926029707802813893067724223597712219170375807550295011087710025084207744613540761221012423938674331058952
27 4 0.00037658462092841941050778585256193766661717349500571053888217304734423993051446922188419172908066695505117006369057255119016921543933734768906124387989784837092233678781488855288253250136182639964696944964810998098492155680759881214953673149267781137680302957501442969276186622639427741757453
27 5 0.0072911068059727616388023023074957684704730513956020054370167038317101426794668777414476762719702577942990057882195822434653690663877704033873019135868990492968460907144343617241602182541365882911516880126277980495767837553673188042547244417098524611994252596144337794731772177181061711647654
27 6 -0.010798575177711072448549126397274672084081555608785206000704976270722264310770481738961112029366695884042442012196020349497185003335708975681157537091113894742559869408396637962714475266566227052366362803918756855607562490908319468371179207429488039290815057497823078773681777093355553332294
27 7 0.017051691617083743197582238432218656085194873778266593177436668578643761083302437599689496963072061672195292095547086275538054324528643465007430600430803130733251511777970078652805163844237085161538138103777381155836098075777438072275151345848948631514997530497411490613177906719893532963922
27 8 0.0070572994983952232069798065308957343308419533675203512252713754967587788018951466244693216182251952884408909633464573016932231169168747541856964533921900861446521161467198369169163004738822621910486079024776280588352628287226982504532079017320196049376212703049992773525009435924343407649532
27 9 -0.054432119460981453181464691211047393982697300233498284683083671782552995308148930545153339411126580457924602056832122056946053900618771261327974191426017108028956514655157087931625583143875189626920065068990776180438165659282815756472500292088960468804278519237963328154879421837569705858736
27 10 -0.042695315765133937344124869364810812611019597514828080293677017535493196133871241397368762761212869274717536033730905974491925707199512429410357621259927440690282559708152343030996302555815820794629660111346321415636704609522360295569354182852842749403477833439857921915869910583857624159121
28 1 0.0090814615202646483880767102310700378423341693051630721881225628421765227979082500767890143005337014932758586540057038074621256340593598080355422738082419209662648209166726520544537667988143233583909464410889856550425749004753522164881752789793252578686108345529120607993972443166709793877697
28 2 0.010295050144096541168003084662523963857264946909766280877927870185680269332598303157708437296231867773765878121526810934729742946825428627291693181583316747125394817993558378551799502234235109243220927725627717419219572910863292043194705195992826233638541486324928963504242880055574772750804
28 3 0.033323584299320330100008574446037926858552178581294742301473649541352146954350596196713134872496487526744197828059315781539800718893755200355391504501373129071723704357909654818947405785151119005367479409364792407317538623193828620805673299251136985740486944677994856421664230782966828739726
28 4 0.0038824385978559049115187074533575287081487071337820934189922124725662734505705659263081034315974120726785854187035242700179971561119660288984832830382433592855580713070363224263572162826004105320810809357873074724332218038353256607730366743880336809881010930056433337062075805505582070796219
28 5 0.010021636857269531262834274168506764748507645751884376262236086833617944820803868340867928275423856989460819766645807575307966038558736688283748226529732318171016533991220814811746994805603904306727428252583341690652785627922367592739283924994172916322736041331863498765721911402026218585602
28 6 -0.019160375322940714816144079951814245320851810551928927103911381375065073480674948529655952230162103279374296125876494974193781972851687593612996007067698267645309426075392339333975356629394072654002224932618272082791726352629807960327709842472172805782630516027111351766147459516894544875998
28 7 0.029155860671182388461043561589030204049520427734158900178095523058318954017481012863509523465627615578869741934974857794248264176354007476194016536994347949861612276261436097466679191745782287429147951546250316887475563487457136947832922300011407271158860508648267902133451567310917095462559
28 8 0.013102677436292143858834429123984565387589190599733064467125337918796538096425736265535718786817008999759588380920602564772977754122417663329934261319508500529739132136239471210202270175613797847682674337192321394032054712224162463673946051196650041419295579055156619146133132378165984537643
28 9 -0.090541209517807832458777505042064161047084041422582278432769616018044559319591817400033670068860143287104547144089191253504259508003352506829852644938903797535235559354607163557011334739198486183828711359222697450196911624787556484369681195902372187826888918126790505227381698730403782691123
28 10 -0.074090245271611607932480083253728393122458740751930040173818975930191424265447998331160553445874302598302389701364175986442701374007106741221122296525250544604155818388123628214755804727828975808699154691554160700654952710274913579810849716360552577052692505241698325807950684016770607279215
29 1 -0.0035893470242936086208080916724151812211966391877595742877845772311025923733246766696146042299239275063226395579872512224756531565954983684206770110067230925970353109185228038732021124182636031279155539003114475595154064688610637525948143298115607796814045916485877958087069141289416323894636
29 2 -0.006781586864904261732975953618109602343708221504270992783175553541997472528484057740425282135586992546534321389560007277007502695649670816070088345909895707364445632885920793524605211482252826792235098948768334283094230077093496957889761180169936243486893724853480231472253418228944605787969
29 3 -0.0096836975518402193224831755913235980452089045720677149175146078491196125889473945461651485240076379931232045264181259886856293555627352024800093444016808099648532592030384402257121038206619407696823859382242812606389928937635771631713663452203467441736888343376310233149738907266786208920781
29 4 0.0044126117283152372718258028517921148173123085785633567763644169303012776163882049167160520910435972889650308027818199786038670872173428753244142201547302398100256114419146361142986093144597364409425758694691155382980126190652267298379992624685413850031077032161198290934068160451484741323244
29 5 -0.0051090001344177786023111610059657749490192856230784190946082619832935182817237850742604684737392126323705398312539001401778015005317254557032820558188275340664992109222900960713093497114551843101756999606186708943041461168458687279179084663153872788337390563178060976051733329560427264117438
29 6 0.0015915107672428585973803916310329665114157525540811201264300594337355365547422758500204528305220535573468394780960906016240422682516879619096994638520545177449820241231585724780601265217265163160574018138101027624164557804613807111229800687908961281165867499803256778304665857328232512045716
29 7 -0.0040306264167163230425163056216160385252130561626808876304697429708827637654302597205269129404730897171246300737174333422493953635784080132277226066059113667778419651243332950601592366121902197055716553581150038046708922222573682338011944535356482055671876457011618498786416471094300618047953
29 8 -0.00021563497949701308733957182853196743990902062586368368280630007101360812302749169940294651579573141540420686631610302867956559617523151639179843461105874277533136903164690977520861790605133778250578139954114217730790545838755265002076053477707942492517271779035818702314599281000815038246064
29 9 0.016315782193172749597563307126195522463733891449047534564820225500098216949171307429586919091607544799462196677718959216437913511381926452399313179531987123133034089395907144653865427482881765894882941627965434296694451871912796781866872034039429837907926071621153882422151514720704483468816
29 10 0.0085320514498199063894779894596837621407018012091078125510654316212194364960558292603677043852911902267974007671607973505156455819893603485920282480692933795817107739870337038515202300176573320789393602223752758667330399986338690232349929806006665866928219238349888266312519024752225880379619
30 1 -0.0032220321881921967734700949314968438204351385102118721429021411631555592784322166669025555085618740364806795050206560527801867107280629521735094300667641141353215410746748044703780502224812929377847617033733750122938965281125456629443977185570209870240009306467933045691575758623112378788855
30 2 -0.0053854897534792733921465226553276982122484867590140724785585028107856208924449390255031069630167985948520057476302484527073129560741563276237934135262588990472062545753715768113637650852563663767519410564375710371773219188632816835193378419856999458126272733771423835686068168783795005208456
30 3 -0.008921124085573461557963991474018142182168412711220797647005360923520291127155925840591382701891591016948279850261280316559461069477202689549991497648392277969565913310793372997073216229420890852038584727646420065504749170592701125605594269775744497136968268312456968527686967438151665138074
30 4 0.0029710206264785939148031885359280245177087093833534042573973445450718361033887066471335634092291693535895502772476767568697248002434007552656122362874704508074639471233163577562778327571608064956587205249396418288159340363709771845528418373391899429851062783516953536638019045490965073152307
30 5 -0.0042618118028150247234140886628390363979469388208628057893458219382148771970476671359573411319129006422502532101610433672896130077851246045432647348813054968848424531713532413330296604646276094066515052006624255570484929695491333165359923269152047491947088591928711117136164283770939692053815
30 6 0.0023172336338665788209810545029938992826687842250960171170682294292234127568659700612380578489236959626127260990479779436471810867739613545910560814811872241910331043523729270821897806389734760637476224820205904130398700064918171988719777408883628005705310348848261332232685589253029540022918
30 7 -0.0046540551841093045186204822174842903684286882189297715043305196874285598275898292226153003297978353393203143959796742115849760726056439442433713402054496242974079145093196946160068677573251851358466873946678240675581035037233379170455435946264612333180870107159901719629775518687658859324788
30 8 -0.00090086920951657007905937519159310795518846551542366306057111516011179284268783569853477727098473950092260799290662674271945646253584189823434573982906503976549914576792308117526350328376883013350871079416420651021428624915925209337902780473568979102979337800554678682069483572113862584463575
30 9 0.017013009193511346414108143890361468803346861501590206688717968673671245006647199103958740376362051083498775353716180977718379292031086468061528649423512413287196208948960597932857850725917843710263582402255262936766547322144139867358592775159670039733679487624187760477472325970913205593317
30 10 0.010452805968677322870117209465789570011815262919850287025126931181522948366805976531719725339245314715078803085773654413702058263953967621501039601394730228042729055713062968804212199944994406326657787063918938410715203181429088067893251379918458790828803364540402389679879323261936555921487
31 1 -0.0016582941389078262334197977643010946009034060107379898239966091759448965462483633046775025413112161465644322327242861471270489921664396224219414287660201805957118163139390304071721944207843287578892473669280343173988784604538625510413388501304107158084415098481223837070618386435025317135877
31 2 -0.0016030606713363380832037867251494887004631075368076838468313267918856354437093124318733288343413297772065379907656439728747217848581784945897873806677962971639713773108524492347851249471690394730837258121455749534089524594994842888902342660537519685948591312058778614747653115916194502489124
31 3 -0.007670235875648700718415914557374220148202829076299465306526573252860455119161567927596094833347470819532253727858224550451711067106045264244975887152611364785628629671783144911288566320852485682008198294270537027741934395650338416630026039806183411189772064627301832455203104691185988275248
31 4 -0.0023181208347874826903906507285926556439656649498870168832731533072445265472889769717002253796996827192255170272179730006806099762662094143689851973888455832441528697536003755268619927114191642382736292949054281214501347585827518272836387794447878191632739759511739812259233638324298247432889
31 5 -0.0017624328256726849840878218159530915809856440111224046589653493841669955110843129956774347285250990578349704752383339075984317014176314986035589607716089607116668129601756442182096746915996806810098443621872166438561964198013198715265740409174895062302596609746205642137166824680404884870215
31 6 0.0053140709886941464548052221056391703140115978833271599554979847557059943165498692769487111573971394637636623252646678420996660880070816406832741835146938212936300758518548719251364718133072872855815778511007368317539348272755200545977138479838210770638516279768226682868338463091212308201242
31 7 -0.0077383289726651456439385782976616355325420501048364971175308427341392924065760731681410984441906209578011661021720699714085124681218493232128722699573492031398438626074303254120368988959457790705891200556682457785509989208375122045475887658383025402166741974914575179134226111546832808168335
31 8 -0.0039529127562678632950110780987684416713591973567406238235310463440329087055410583632992674630536740773504500121187751170956433414661664910493203708568323719338966650919229545747635032884756162917087113514435276485297950479106437462056909726800876300746952018894127436453626510415947336076164
31 9 0.023395349346157050613775705786796543097172422971719426116954067416818342025522422766407364619738519368976191352373404588625458244526009971531332973028963318566345808365684386391527465014232885715991591345105241973824755046022467029725419782705110828105823449004636286851948046835435413908729
31 10 0.020349984328665441930463008633234599812626065737740829384114405983705150625571928044185262414204995337219970121686852329622215454530882662911075136967276129885468396844415624535275226668791678920373579323444286329204639512692061784448135323003067286808179797923867269619433390267599919065181
32 1 0.001834758949394684660074187215270515568045731436953644571368310427572589527074320556544283145762447502912876468017281067262762041651849500558909287480361767311421859284339224045163528110200955985970199614826944930935947391501535146629766125632929684554711794545157825420807319509540996543413
32 2 0.003172798295487212854220453653397632980941860909497109655573723492266232763527426186858415119278462361029610639033815887744804054957962548144474366942776039137847567125058913367951276767671378814566328288931884847263660132182961293631753018078063153567566603077819818522453830377623047076149
32 3 0.0049532213586332449658601664508513391176009571452029434608831511934072268338297415983742762154711647924358099258343081945911414038728824274872240194247466208997724043888132236616806696743185849149349364094377310833728831930284913967482967744980774426891549959006866808334542187755604570271846
32 4 -0.0019180734532461184312988101151356849775128190224822409656563672074204667332591698817727372741532035482942498178273751710105894385834133903208698781298762066991972321204693919435517755512505494973857640574282510964283515977090742193584842859784505945373286057538520277714132172495943874766517
32 5 0.0024726434484283024963191056224148644805555269491499125453670437067326560863976013155253414525884457034492084565220289435372346811966735505448722082291435930111980642054343292227126613147158652489723539677318001134807267870805794327344337155128736310585437556692344044104463728812476195270881
32 6 -0.0010901170615351567084925633105720875987204526716341452313785649145837709151667710951761891732041441350024959600814767891324708592026663546785335820755356064604183043514055501612799748824562629966362668245899012124806917071427285377450779108581908965435108764540975685170976966267312460395965
32 7 0.0023656845124941460509204551346582266406849407104181685247685800886147014963410567126051129291061690647598259621142598804368559455166793045235635403703812158784846844553205401100779336439758371151352465870306841426044741785673345594569741796115546850588445755367655665068199657306569281075032
32 8 0.00032482344632069622699159949586590412260903510282567971646944049919672445963843605226843398434123799883880587411040925937846026744403984602237932729950864554736863280994998077277331097605518791036702941694277645916930536773414101278061062556555086616901116092549088933979568076569225038111538
32 9 -0.0089596473273715015992460308823428975953836139568246541242463107329428968736901350800832531587547422781768773447138994568187886683442314799496164309582512700633571589880864419776606795609843317386532512265841833891101299621801627678336673974711418356681987851929216434106973113399946019686625
32 10 -0.0051693622952845923557474826393051056099640970956792818761390307200199505028040764659377313997045224169254727568525219114953633731194112555047134346697894374844961524149488556109834673837384325307220182145799927239542152885621975849015225113795495552989675525773654258228631053778605498660842
33 1 0.010737779770850514321995252928332945747274287937541268217172820862984085175286838394978519522018046532593512395804882117170954138632173261227612139895155327226245635995878126927532693327083406998657937457764633267644001693631046518343094250102338150500161418616877837157632881008359682805571
33 2 0.013939449476331863179185034829517334120583850635641014972175422263301580902886515722715086593952834684319448343073615656603727702233148653318452535715575701220402178729714087458671968061903759556131083343286143932521672750958176797881028561909523930013910705185473585502365281278002523427873
33 3 0.036343248551091263085994702115056600482047236124607217402635398212682047215745576819460414340271697588544242241180014249120921613406091209180022920192205928953515351120270240791799187945652429014175504496791513595661073339198853076243669450839715535994449394404534895181582735481380079653042
33 4 7.2259721638714875482115190580193305591300149479488306740170636374507807568273289016096166535578103524156015822579417560997811447809635141531415807985210268898173584600827669719175434370205639170822984084459128770565464343423368740726394988841159895542292245480069410402892805592262646934464e-05
33 5 0.012566920061535577251705131328144730806777602844405628148495307437885632654532830062888978884882305611916499185545329389091257287557896424982916535478615243967168215752586707248965117435579820215955512498610407349981410895055492586439535505064101898441684403952118597608354773097763317055502
33 6 -0.017976836530127139258220091759348345310643821106432239364301501589317141435442161573532526171868081022335821879120868908751215165890233769502134551202134196818008943855391580561362735769249239749719896807294168878828819960317510955484418137553172419585125942849735447871089208134584030596951
33 7 0.028527812249484856698658760586629953889446447123769107977451207056400634803514488960053188480982268570205552332158103460182890066849567124045152203005795755992054769733136008533558160025421418246099019580010763113861676184859917244743597811766519031909975243009989707603749654351707696508029
33 8 0.011580394963447576500414945880442219398310662030264416291356123697451515603676372464110371413102102765633302559396092035614396329374741765829889048668699651859612554875417345505182925955853853668788360524235606574803499205283042433057627557984346262381288435728999961230911322693789908855764
33 9 -0.091242369942466234395559226914376894066468106277473624077183854841491515209052694201702263925508299032230837078675523871938915456271859745200447314526779860400863971979067244565972258127080088059132905557188897818843520049377142645877809566878602447701545709376367334064816761265223180322037
33 10 -0.071059323264196874912857742737709426444935800386726896846756736751491517316379244126463806642708048827134266516093907372080592074113586491492400058838681868864577680276829921423650542710511079446243254682489049607491955370926729008992396437301242424977919335339359911853214402877537058112023
34 1 0.0030143273040550361203783013258119198052798974347932429931863269425596171953890327842688176841492279156075789449355621037796114856859004675926307259377272650620607940473506160012879131768911874291381761040440979525739358142189535543071638295624603542868577646844494415923488913030616999358389
34 2 0.0040057020331821240199824015939216090236599049608546084888112683477873966455646272946343497395089581785367386719483756620097577516597846680678302647010073336208031579241279712547191865665392854260487217750563302571875729211593775763024614630917632057140230776407358005924766442400975088723258
34 3 0.01001002658703119569321340247880289474970868854626899418090743720876967905348615440703495956953114726459291379517425486488658565178151235565524455269269315023660015176460479267329653742700411225301032208087828778225696322317596341916944428716940692237388642501017520269158331591917038151931
34 4 -0.00024081699363124013737498325067262057182097910883047011764400994940119873907755102924398302854000140913062626789315442791568639508385621194017456788394196923534728413246247889721744149302835208221733685970069699204069350324881817268874238046719603975873317957358786155722382135693242478184731
34 5 0.0035630704727191034584987446001787474751083282384850315347692173910011662148840483126397227717458906775295299906588589987595402974042483368084745872706613506174646050261054285481603103449952162624788298168957176881098282531223875937420779941082957149552539097942198868130924365464087410048195
34 6 -0.0047758260192768703042982124960371888219586990621711021827198375143952964967867936874694581549088821310372691377351136939053586449609103388008426542668023803087240471531788646471853407770319305425833974806192781089072211382310543520001532632945658926669915152445087217580616074642898058239946
34 7 0.0076585698763656847563860495438607064506045595784872651958522205154675674570325701493339856882154954299824837939429264683320476506568409475555713552670449635059979758792424499219365132991284151471023563586828068011867043389151542821674944102166417179625038143161619998197378177254155730406419
34 8 0.0030209249710639050825119698772271402405025671640405750890091257257365426638102442637225863184634315988535712110368763057762628662622648287263794934480009089032370680344035011259453335837559633307944763823629488709021884103483546566253283810655884848138731936491220752558700818745641999256877
34 9 -0.024663883274505015478187563950145213666044142781524038429727297204610396149945183357157381261707813008120656060544775007004658118630240667604686230446361918507246033217034678508490813706254969825855468801208052635338640789274622721979102449910206505368327655902925691255946523057346599463625
34 10 -0.018967847999946765871082305073415129541216531143532209848717284754033105091537160081342840342327414473124929626917147755344619868444591285775949803516534784122862123663418206602699565808356662458652455989160704834094817011165195431136098087550772251697411198135645004582859247021751053203531
35 1 0.0072693510740918351699513146553590066188850881977796992968970551310507516438179241881327300344034978536824714493762561994405760757384660229708854225917359820576213729966269541122984681800750639312547919757996249486725731268891771600539662354640853526068199690016817490830605675353843635370871
35 2 0.0092414291661555615269751896361639149452419255100111421921848402878520047077401924766535080724160673205103324507466863431393959824795387096523165631270833144052553037736377813370023371390529251945526401386504330942256095231164094185610660288459491155992572793995769772915367765519277994398753
35 3 0.024774098535528695182526747832078128120890301257236352728899084544529136874000219223559889017646261882227542631444225738288075376327043544571242479139713808119995873125199972183210376277322034848374735665737136900972958610617707944783456054159243516169586817740459069460841789138552906910845
35 4 0.00041131513577435188934752558465864427752322158586470133008858520052037698760156284810780802733494976059979504815271110788558433423869934001043144569063654628791339402618818897498963432619556826413141134991252119760098462108102891979900381733213699188336167314412006636246484096410640500188757
35 5 0.008421609214027329526952503068575705395147799948671636214610048444460034628040378521400488419663620932819867824708371750632286458888719420928563694779727183763210741159657321653924042359454819420237206936037666157124597416326766108104784068984819999795849705755195558098628931813350091597135
35 6 -0.01252175323164420204477437198831929111125391605315230166113317829252290507660296858576365916353573709264100242755677810420118623373992571511878143288021510679439781383657756410666197217667790517170970210576216205524604786080660133316019402294602513699657137549002370257273603992923142888921
35 7 0.01974411550828962816699228464832378148134621841801695252913343633832285223847131510803191057168940040722258975311805116754780486611282411715663760179013468254546915889607858060766873112911260027069408961576653735288415945981565581289054428195397764801346763499620963370435000114973192919808
35 8 0.0081279012642900319345941834860391237677817216005432973152902765063862417879613257322013195840893611416136230429809749290265677642597404140746583904016407250465093835355552058299003255391737473123979303530149794816008477041199959130149542663337828641982276289866935621608114796949944211105155
35 9 -0.062851314488618723640209594558301347558841821180925219323256202307864271775559123965103948315769922656181222799577376533387196578084215840673037747310958953085783262036337161632789240700938582910349347868107658013586920145902052333824449972522508214080241975836103945558317881301392888975819
35 10 -0.04929141586539672190503612822459018291931838986402702236921946883400172724534047464446302377807448830392621120004864704065415100491555466070452988981420600612028349791155591519544802586327309805294454108049760272256802327793742763558413912773320128322658433840772506176759334675500004324522
36 1 0.00058356229099563343277047259032035843369190529565471970924854104609135436927217739484496290308434351875156613476737377252247496589397907357612861447679784360451410193246070824848421749154082519285623074751575984351195560698056290251428540667914942210274679091303555945371174944083787341386914
36 2 0.0026963775800808314723723378679020127746929137476733574950531482374111617183208388450200046034507328790184543754184788772158266190536849132928547799951126153461256401550192711633303595262696041101842372808340469417975494486091177415549150651812455032695134677755413865039047198382141192330663
36 3 -6.9099631086871650887462079886740666905423084537929376535015386626918714086738541439202482417456008985190885481701245948282888783190811915221846260766078696613280106901086749194246608474704360452496679796250150924843726194816753322121714211063239919683758981618665447671187472285827514209605e-06
36 4 -0.0038330228202037872789338426292006038236735069916645765258559230843797112901445444235981514927659851468336113356126930518503340607814125587959743564128535258752483059261420415807521151283333481019928373249867637785157371039382486395847966000851301263504182599833527160039256874914917182587177
36 5 0.0015253142955196049787003528422442725164827796906650596335772811427262832190030183396198341327320641135865468890701414203238839144351702482705302649490635279679446674248578514764433618390472435204301773666500275776007389531545159535001522308649875149629746185799476423458802525927239496077819
36 6 0.0028056479522026197114286891611157516645095892807732592444224448113016815451527469282741685369849719784466894339605763466758927382590023241793576597719272369602552139759053696897051143284032042531772279219998107234885442489224431483413114683186932687957209681880834560755722497296007507801791
36 7 -0.0031266729501067180626290800606839920008615969728271918071410047169148007910594981311740276230202308496818147000433281650441306377401123105150795073323980302596150539035583732610224507553427671956067091691022558245681662326434626446882165446605790493492068438249316156819314502524783544749385
36 8 -0.002483871516685029087858389813423575828596417395313047168490945444414726983450150346587112070985965188338422836260387219034775009277696404516782698734950890627563219764229326522685202810103910318570140510989517551139190130637784672572480967031220586665800917753189096938872708625268490760025
36 9 0.0069408579335505709894634118054759176790197502979198360703557669121658424306867459409392453734226103283826474198516168740200182588915787077002746794339480037979673536421916338737254436067404086185823242324187985027313306487488654917530021639306065446408960372406475867759102037600664174637271
36 10 0.0090300648253445242639991477061060696105415831862584800501891014118920998867522660915568923907504513602954258464592518168517283913540935018982842938384162932795275303765609667049162325304704689669569685017534655839090742592990337439779493433981737386632447797898323742426887707720298847808256
37 1 0.0018716378399330453246370200428381006870844284722508388783824233845833922977063411483725496296943989100475003590420471082902663878440632575573015343710180623001737142314079321795674239096176440965465521457413038589483183347089549751086653861973843723237790444851667121149537074574755171421633
37 2 0.0027102696389942449830849486484862250052554752313796389659813860779788388988753076505658737308638312355893081837532930900873387700142868575504806089413891634908671588887545715810512575962917786964723735987875886603483645046913282463899672934865040908326320656349136856735695350971925774056805
37 3 0.0060586648870764912079485066089039102391497731562694259340133787800479883800216780782022349505411072232045124669841231447798094862400111983588118034837763324193956690522312797437055038821161460834753960767557423133512754059603459203586373714304418133904049266478895193157264451153627457825951
37 4 -0.000531517102929267955255030644080912659222884545882481781193670801960137890437205657051480188144624751039431080689655108057631898916055890867201381478667085130725153087692893908041842347255732874399276983470358658234529402656903028152391862321345206549943526291688490009892034572465467728182
37 5 0.002311652292726224637160751468320175429281934711159188959072263944198254028524617405888946643777537131429935718769674113075353822418033808152530733801428780926735157795340329344400680231236533842296489855484055115091369971095928668782077443502888997902145573494793894430682761121457026121323
37 6 -0.0026044987128487688816531496961618796255024084693598899622897989789369621565894608492521848673039665867305051151923195754904755976453545891444014210178479660468811564882551174311269903028477493677349167325073709674103420354178475014588722199931861538684375522745207265455144895076562825828145
37 7 0.004316785700772079846829820584874185074833519501358840490322679382484017484407571714151400202184515294610391763461834233779545308723686572493856814103844690424818785505763219526850106418138452887030435066727973231918683628925712635004702161558593720932984575875558085674973219252284810545933
37 8 0.0015807157769534973382792222532036771133849597616601197674214135768994289136976556204457197657123932649616311043031331403029683459648674268165101716878878854251911432674143808281188611606210715386853883579718549603709842200890141586854486453085594333104725119979816114794249163514859268035108
37 9 -0.014232186849549498160860754505946118905840716103518234515594692378259811206539391505492710770833765723683956284479159757999403242646100860708576669483715494906308364917939771750028921046075404359913915958381708688916203856007891876905261453824392375004755003821765464278698777240247900780739
37 10 -0.010574151112354874440478772641599885222284323516386446776502244776525821003124058232834590953337629932607074469037204376857532515120606309514712107300226767548257421907631662066706139605762822207377511926117835252274114953186165207159459628053986392043975396046884476209489254035470739502629
38 1 -0.00041539062838845786881177885641274479943504748791845787047227376848359351332409798848871005800098227441142940331291311010436167084102214146012937098844306557820635831814375485172106049744891574665673467175031075282600969314757228192618063012437926920324033995637131642800937546994338941681061
38 2 -0.00056750118720226063932435844914617142134413981934305011777992517210299188434224972509948549576071849109246904369646537624659029585628546719437952005968288143665317460747424895885013280139909090012252439292141996687834251180890311278302439860808807597827195405833312816273007875760663475953204
38 3 -0.0013394558849847632491903013782625067646193751063464634849475826262545471584282431311435741011085898547222101906233573838879856317189693408084349777103871955393693101019263886655740156938741801561559193874821879344915308602787817753508327245315126120106086327571307034762730080866415944988909
38 4 8.226861476122275015713021294157453484827060905037270377232202470571768978177168710753652503012220428532540948326116650141602210250308040952267840376921071310104857568969139945527879678981025742533670695647996756196522509802974636348266715200551600531819268330927689820310738878447326053085e-05
38 5 -0.00049606573899906195467154945029686904412629720790962257215833269037568866509114942631680787563161406300229636926508886005074917692168116907413024565629062010604786308752466425489734726156573109274712190288414479613509300040430126065959169360867196179831141087036425870881222386964984114256515
38 6 0.00060833561706629737091105978725301440286755078473576279445389324228074249216390093448763840412559626147010505805340538159699324354389855778422138623843970542226065053104685588781525977802610016012513961495695492246632398428955811328763288824950380185080741917559546714711231760341363138276183
38 7 -0.00098896402788678662353831386317198247204954493482134655843555146893181273643841303934580744047010904702590721544467429130895976691866210746296992035981109045894644290109536494981127881576201092119847365173132417827637211660301005961834539140440542611910490744212265580624469218388521145954973
38 8 -0.00037250270210867763537788959759056642125111245300801484685232323783740094495924177676953481477295053093516919213720906923493406544199606554198502123001991133689667948355919963907056504576934760925141605163876094697760401755063584681794524830693134551088944254438042276257931723849238332005911
38 9 0.0032120981636716113203493816908294816254657847346422786692085800255732399226404657885752466090788029406411477331464348525251636024627460047807708970327978330583585150043939998379650875749791572176970971114753221109724276300061073039778363026316522642362562683886037647988657012460040228049631
38 10 0.0024251335041898205849167187034380803726527552854240673604119957821956228342059841605797759969784443553945582064443125056926467886640858430340694954124790804849596477856778478737375493652578794228469893388927780933417612477060099364328902026160056416913503183355618953404504920959691238419841
39 1 0.015476535627765657900218493054827811398403205478899654465854937945149304044885330533872455672877520012337042559729984200065336035194117037845426619506084855744797534144915207671794933796255595817619221289103963464537044874095656280031887994315215925090746002402335320967607498040856820819724
39 2 0.020370141763243648089635044671555315380510733528453813187836739936941838035812834901961921162076832162096234273863633684436957838569927460066367724998403479245696314552690178039836044972929006212951883318023185872110370792031450802202384400994862270595099358779946219969070661491102836742251
39 3 0.052473995524556934971247051468562230975664682651718711401761534455637174759427037377476557267475897475032365029636846030927332406055548087202707140195008995594873460524999419994047376701328818382662161149976888150289646010053192074674437135556550860017904362958300887950067462597903806187578
39 4 -0.00013412080893341147709680741357594989978201958783850942406505398913804881266349094847491759032669425278464327669584739336880567101020629938079599236851985559936665742933711616921937650312023442001408098448011727416636800329691270247009398239517917244694820737476830916822876578581818985382865
39 5 0.01824578255282757677511330058617314303970637337746848109523360720226516912650096964560817594486567874996410945438252777422254033385760680785012782159229820853807567595891041317176637058207266978704064647774013269141882934332344421109829814138904699371417041352711598050874271596005698075805
39 6 -0.025756570085600137929443942364623405726608310991601485206035568866595217601479500383570016529682421167855640930669312977078904685874328972656432859277934372037998662440451202737798107104666169096077507352870261984263250899755186922802371095174688008608077709674898892004277755893562784793085
39 7 0.040967783503981054498541364425653937907808577790882628158391043556824766709251397295171870899317942895625205939960778349239690777071210004052925047252909609103406145051537408487603911880692670882696407571212007335909041611365386880202585506346767996943734306129956557722098568600246641469401
39 8 0.016575381754140408168562550505467742601110569198243086950841518112989337055972920578193533226149495097643373601562861769823099420117837088560590651699500291405010363285072913083966080600924323713678021094797072963750576743089071198090477097103925615840736229809645210208844167618873725099396
39 9 -0.13131318037173850709769130473191296179710117142523325932657575688396446645198610414422125451907292804460393669569917548523896141808382027474955303147541612202636202056772596065670779942779010770644068111883023071049533561277326079654700426395547752461746430557250838176214609644550442387322
39 10 -0.10204043859008811965069012977214790398420043062942825307725524703332652413301176746599419869342921368500471851240177746332142124419961113281812649589019741906045486587437702789911801403208278584976012393563686806403781410003305779375955598637704441660187952381876347808983313980621174812475
40 1 0.014355717630089669433653546248734069093263251665353424041575136431646667609774539085460904272329865480945771096366406642938053772255334043020353812797184969529147055407605310355790135484460444615020709327174380386479843207320120452881927946958367515816775887733446565544405606766107461134787
40 2 0.019268733761641483362001881957514940636018646249519139824333000086752082687379631555908785682701334960125316623946340660466936027092337095207137850392105089745287561436679739192692562037074518151639347316803224947289098347464108433360691928952071620682279534132612088253831192428060612600915
40 3 0.048452812791132245541126434847146387534136448880266695472437746950027020610507600531164996562766194672435415161838083403069883148275677824930122770436700962384648052325533953772903055875636487863131581982227162937929474886531800126044205976530258355896072862091281605386548805598540416721581
40 4 -0.00073606174519331191595402516173816964781003551402708031102227750442956128328965141804929824534835891388012282649673737297422265565718813812060436060337643939136775241525677686126575054306832216106519919002987363394208594599153571907417130912423359290216031031289002644201674861232701232095298
40 5 0.01709529705775558617234732490221392000183247336417871061629381613884742865795596951924098427383025473424810045802976932964184797644662559440547381438788498890289985462556736491910489756567654206600520074388068759015945588987256980161453809258073452187396568529447599488709210924133818627155
40 6 -0.023309364079267062397175551892221989252986222120318767108461436817722626499257498190604207901279146750463823668280971698692048989481216391658009919020926597779710883432034960901681640352217445312298973664546445894989149139136882380501637824149802085707979217545087771501550378046128410705872
40 7 0.037306940196636508524477476943346436075500810379054539571821406630377343044428312310145606757307780509555784461014187367633571418818563636935434442180076300307267883353425520320056732237304356709178748687148795568185409705894682272295175804264378527476930694589154178449729333650469138329134
40 8 0.014908393287551148018086217575335782885982103643821096296218029371376903413498378539677215769429634865195080818611773419614838397596310764841641769309834291417733194404882204438097990188919776919291974526636352030368427097514234952940673717048410622499298937499969919470347464215119596846096
40 9 -0.12013756994860181620516328280902967526381958312681132763674250694210976426832181979142274294287680956246853804939021480714684592879959758229585414195092623118562748463456577964359537691940516813140602799500725397217776877048685316905702342413173715830753933724216094876977549403666820258715
40 10 -0.092764449869762912653236581987605692451585737557538493680517501017187345524330322518136559260468193488923070358793319629370082243018628204463954433139996914913686798314111632782278723306919738107870074813663540436324633535226317015316357998976872850176115971309283252237776110649309630024857
41 1 0.01634670694697257651295982512219281448198146849402429058001965334548505161064434573596487888024739212734056245765492955981829678830181094532195986145497021593208413564216241927705934613673293122997891225634393220807498257223760405923497598039870052920668981944204794586907597638774717806508
41 2 0.021675014201959862899258038870573500728610838905875466201477536564335360016396552042075850942014558797341333281941255965487371056889255062745580308074841702914986868915491238146481215088937490558748360652593158658791468990710818121344346735073238712574122141324123244648532971298100081714316
41 3 0.055324682537859518601340179945171215667032485995354600617607413218807515772761989868166679806790083726344918741466840253271960084754818889984172949490758665278057892808334790182813669236722283297422854004367819689476100977785743106285526568144431745306443300288739625393720714338936347729381
41 4 -0.00040381604722195310421364298312525761955730900911734723814386408100655702287763839088938640242004123029070773004844258853894816760204813095794590707903949142400284723720409677511273231389430571746935179781781186332389601489364563462600416178541019609407205200891044598427619399761031634491853
41 5 0.019343181530673839063054173062669245612738807045373815575596333612351324774780671444508876985694889915217882049939496327330058598301634511138154021892178384386956104274805170007029384638150732202576734135256821129442090541715671168536898798946689431000280154598084918794773277980959942181024
41 6 -0.02696214052258992507697742028342680120975750394059620050009789720556299188655050354845548279493958626082515365012543110688653943326578166877725208717556415263202655848584798770312037657863271242193627777176781997222686800225339918586984372195932564406550443747370348844404019048924514614017
41 7 0.042977553628671396394510895213742593910104665265813760955475550215140083775540072358279542099899716231254720637115000670471497588058423537085920833900791326158596410375711425162927306593514975137666767346443903753142326504917479203458238803009349156979589239409789767483682064676910595374699
41 8 0.017308682175595120355989059385395202731075998568620937646844736514537279816366139624361479670642486204857147110808511315392526633925323255405214151698198188036990877078468163460732356424142020020042803675258629358421872294354223234926209605339489788665858948783123197553234921251981262040484
41 9 -0.13797460905065577633490815402795752864485371076603032258151940912079749399004781432888797983614914871597617101219334807475526425389657836381815538949118935007831686982245895882141182274217734996778810020685695713831240005887190607554172547725250034576686197970608989576941836842127279524259
41 10 -0.10696992838900718430290730407908123879491649504578846163443028837672555224536551247634583583278104405284050405165048031886919538205649124717829854117856186648940789759580362706815626103123145460414036716440367990495301504109897086682362295584505859507093982358037881348465977715782583850979
42 1 0.0015631935777477658295395774878672586610924291317685760532366654105267895236000913098706496622973918690919255886113932513618235066252985423074189846010235989515893810556936413129732589659691341884168504435261290245405776801442407474331204788201934661590042039202046370968034801847162229628157
42 2 0.0025273953558589759805568865424795345133541402771576639702480704271591971852371422640286848351152175767950043999730104893685123647620702489658631989444726810646648866952733507016542731226349140532374417905340625988844120496648887751818049482588538787890386632568796385026018233049630671589144
42 3 0.0053313244776412917652487467807895301868479783540172384384407839926406150009041101213164150609011472726761592454797678501789422163109250977862368783196712504304979715227813879230926411482108034611114262779521049964175167471131144254832753917732695445605977751019078929601344553106474232079497
42 4 -0.00052573621817743311887820140588219146307670098195705126315393027215950600561024884559890651929141196175760333445852217917381923589720754942591784226592677637041633305061904397827642362907820226459737090221964358435479680362840007493316868232971048740107373877751890166209590610629674662081133
42 5 0.0020675026819097165498305148753964758656919075479355552273265178322531554182697567109500795216074528955009366062132404780716274444652418116762104757143835636455025719165656071831155840978281539083676212080595965825386035751629255044031645285279591149640912939094650324565025439481393835300254
42 6 -0.0021885289121433444974989922347882621883434150048952357545964223320166728346486187351989660535102150346556545766865181387760660801617042868535161495317033290024977991914483712891644791227497111172245220899090473423657443416526213416813143229216004585842192220556267690531885324592251782630048
42 7 0.0036930079565189412507545959331378538814387091813919668813204330564418084463758181259692408772247481841529678048309821683639640505064575294595699197844095777528589955744501258053570870374482365129615977874028030678326699283580595770539256016319954593482823558558749972650600028348766138342377
42 8 0.0013592949356619227502108102200359722379298820445350200275677307004926395856156862958192977012609714935363336518910275366087070633569390578354444528057093241417875631037177637496690998213463542453209737384204501492833692728327990127067473266164251505343929608438463832204208206438783853804584
42 9 -0.012410192249799233655757846257592915680850590651526565660043014215130922592131366338647522725895899514255049243296117765030060970258859402880660550981485359342862788191253959228125756607869941094720446594066823799127110459812786841004590601223255956585076615698720599705618381139545160968103
42 10 -0.0091429414129367153306833178851161902528139927229050535401765344785519999533731761242771426620078591005401202043212792530194239798517843855921573420379495426330655584463770990633856946923375550104890819088537521375667302238774537169875700177212531325624765434113424532829641332081492064500507
43 1 -0.0036781001885586315338479824419336083188977289603274912534729275288476971280154760679714962017744191624368011184254967743493977980045228293340564025510978047532160589599803439811798758161451249975651823764195151933913976051104604102450625849661450111952702570946018305925713992753763051689367
43 2 -0.0045764538322733355369676469257298908265716430345409253056570888561896395368126735118510916412914004058422019532497391244711061505424221694944042566920119486396213845504274510106844824899103712726042986993440532690832253468877396312454510079463457684642240590140312559150832255513701196593099
43 3 -0.012640445734797158352624902677480313807423366199676969187797531915396477598706075739673074525933313084275321373819697108030645386973528944886066866436086809908718616060884743481216113997547585451057582119455592294621639079154860630466782827492003865343421073324250604155884920245389510472764
43 4 -0.00041352490217776999952506902569565239934248532011039013793074905957264173760461080655479738656237569303990159497518549361002811221593247316912273701840780029828787112572890015265080535011123506921272897126940180683490158811916477835485954599813525740374285089660737458027032144781948405141758
43 5 -0.0042153635736491261423371772107208187474281358705437916360342480097035008058012677840299820085365978516120424034182564600035848642345897892895601877912460877462746844743149246092649268350405140342135434172407983020704675761431456342036702469208832527104786046665939723638673950956747192530414
43 6 0.0065515437744048162202116772872010180966615090276056615242910293039460535832628453948168799930918416436142048885827749608186591043643749100683399089732353721837639116622560884411710699085659407880132985038335105347623544424608942599563327746999523833610044997158440709936214640120236116528086
43 7 -0.010250231676254203502089006541921414365831076127312544733754957870015957196609012693527240887640283599595023193883589125250704882630872983758827082145237622503469928331233991439558061792514211312827408935718734692623232872564245170570241363445912548858017225181166816808445538446586727711857
43 8 -0.0042834866611308427812934698756627833556317654944744884631081470999979430068579745577901283921063177290603443373618501805712950373492098355931638943058834736392288022007518234496834322787523657042488321219135317058939587962894361091483501996097512521489803986272058885860970293248759212589724
43 9 0.032444295946647893669419094505341517234936851950940480095935353509192628710876521718352601291821671107969024456140096448160400282233003829626166436460035150652519326135987592762922437719424875156334356741192719365658678441554204567531788827462052645434302737488332989640829060392973812087152
43 10 0.025645213896071645014312917743385647267286275262284567059872098403715606579942197882741816878261818666082920083902387080108788968709146789510808820857190218384897529071168852884365884690038687904284201814299572468823488276765767184162527573343799713025467833541372894009517330037911563571968
44 1 0.0093103142831160704486816879516445436644828318042749518239700218836423243875448672756712414073181472373969111712677005363465469913415802001153939493963721236338663677939413758189981096452192108391562993465799461971845164089541926530800672773391363350558503181125850096362403630400364827043334
44 2 0.010932558262881618175320201519132139849948517914245529036712779293272343387810847237438247051953480212332752581361131463135558524991245287748389860248755249762490133323620616308771016357712030951281528698054562579251467136273179773520971966175014517441094743174147132699292228841283752028398
44 3 0.033770452389547759257919870720827538163823647798631885376243506580377111431528688124490379257421872937804263613512774774693138588436265815359863224431376870775033799626189281648719925813252617128078098386531303214250806213629622754010403944239614872005220215575256088156221668442011306555466
44 4 0.0032282736275315223731274521611707688157973787362347262514878502811901792581986818997661452970336350639502634423974910781706873836182770884909333233606041748113055920838223401562203884606789488284669885424779253725111528898522393556720203616621665717956127343706259469998634500828112922445793
44 5 0.010437485990566451043189626449378307435950985479171775966365220652561349999359770333076263472912882567110496517906531487064869669024153399259447447409290178154121537293516465385533262319989855555369885686398372721068687739765473448016787692198911268630182725236628579433417593955823388509144
44 6 -0.018904000946540587931008096951369277337247140362564443358229832897984764296020565757160479776333289629496567178706331993651697214554642351046521151915441039583178700817360368669728329993229885108244360451293844683803215796747071873156771080488116570017399466521834495105792734548607185166219
44 7 0.028973896002727995763274892812468028946484749613614563435128978434006742110616146723769639525491162351678977279857023583744821688094268557565976232313755158750336962907228127214970711416003354862293492180421422083906583401365566042024581496600295185794711668892381176343858867134585217587263
44 8 0.012822371655911272490670383109866211473795786521224011548371747095785338348937459190141291066910623343462560453565552414247531342155342311112140099790566078553393686810847870871199874050498985418654418590175650692146418249409080138906411664550470434682654547444790865987631269296572831598275
44 9 -0.090481683073686981819715452377977246684553426213845223499483335255531790121600793236700358953476416563512051983605378416974792250288420766362657493870479173169015117924906070755253091086717629076615169067022076024800177683105747445151175748616426166324603541717124102927086294533195835474697
44 10 -0.073426486754841238256274987013899712844138460824297277625102748018930882352674609274837816092181496387488755679532260075024529518965328530623497013331688711880565571356177948982858436915622793063402849839173148856348680004740165154859637840740800489275887847199622460124400458042708071384575
45 1 -0.011086803530177786894398857834807329821267690861492756166815833051815114728199982693136575857322118710115068618453889242352427217793882070179862578112264999880529109869516897289376092531252796412815177259328869362189486732469132205580231245716525643666141044284185337874764467097300931303313
45 2 -0.014178621024303627250062811655806134510599612241632685714851397209336630591834212405272409678800630696938400142453306444645673760258868273232601851667586975087182273199328186681664074654873147863435321286830683906196666836382449878490690709978770038864475118933250564347777764255073540065021
45 3 -0.037727589621471505419155028557185790199384512762303751407557993900887669064554959181916573212403841108762595081064527678877629786337572563255512204823084121934950916255224337856221942337166622783823851857162429613509548827060857195967845996569877100755536479903164952513001729933482505877613
45 4 -0.00048790058339141904476366875777413719296251250630829664139486623874616595693465256798756015702233484456533390243758947618756156024439134248449940645535175317550714520823720025443422036130511053173439833252093618133675109556543391829684910525460432905804009011710284723976636219492066028557371
45 5 -0.012880677092538983169604703166672710465144372848974807465299264604568341253573635063768140116708422793909234223065549215627185887540438911578982404964528304853367781896781192516291073754966224506503047423506569508161574335300327724917778177587829425380224283496096346957863034853149414009181
45 6 0.018972178322322338268343265196254365076311389870290232291594208885311455482441329696512666356059007608459191630870954593373068474855906475833565126921769054967837678024282745259454925791095599992028882384088752172444813717690983333335186541672154370493892844126637068912446081100770663455153
45 7 -0.029957887097678393156462126460259358829178634558480646217766145442023996402750886579202907682225421850266486633752342732927732311093360919124648411421660797870471310052130132820041555954844047750061830677935732497416631881274467127215917650822095099643034718010634471550860350230349486396312
45 8 -0.012290963953045462363010127761105039398607719789714372908262718589628424106051581476294469359783081609949590964270242942605865747071697387959382492177498282022186330303450479967862319310610750350702755937800694364919983842568163543274410911035451114454434289364958668438212373689329340269845
45 9 0.095467728486092093045421958603899726419296264512200082025408521165588390557692299029343354187254016387432129011597234423033118447197446797024360641544639490257501460492147235856524976034449176861966757411857050652336197071868020343556311052882513452788380437150207582970770717603299235703794
45 10 0.074746131867887615227354608590834359023030043504997416063824979195252133568319023943235856095280673747064859009845950024853781312977419806144613293355514501158962157084518135205885800400804791506467480047839816715746893827747979294374184733803095265472172603273545777894333066270804631644361
46 1 0.00086408462425618955230690896795543826145414511028329325451003817807698533699285716828208840839732951111059295362429942966148093022299205448303972150531165698606623885102658284133283226440897966513599523777233041827654840357366140914545352525075199892458363747061101778654984680748321767843551
46 2 0.001830563705442476347728288323373769471781690190842447144330032284480857140589852787682778979133897631058378623293684462886518925993540406869047127098103291918991792957461366096511686777246296062802274930700053842066920534840604226936035910671325144457384424504443993734381440051047487411363
46 3 0.0030770838455203183114652931392435251244651992721066694890585331094117142268499941838756386391014356949646107761956806057065333017135350049425427611876233251925373492136398273536413700038070700463349518370302925431206834681074038611327043264074680305243706888191696368632067288608234712945141
46 4 -0.00067928845581070899213355056361903947969793365281578349399352174102067544389162827760040638852687732725475886998085620550871266303513631954260394228457873910574781889565091168883813802696846517294144043997104465073978530718127388629749733509358187767777141524401781141051845203458519207545724
46 5 0.0013534419199641290437175828385524483756110054243082390852924975877800770085006909360621388909875993931300142772310606677925753003335678484834936405803290501104725985389329389963363965604426971303974146404597825098542010626250901812417601058920956202687606149398533011671528493847999112129504
46 6 -0.00093206635297903529680895615766162412814463738325950405326697309814230283736096887739956585869111518224615881447367482129035681457325775659533886885855154224428025586899524927978376744975947352633355218794578396934238100366265015720518943775216893994432043253190774070772648871074313372694565
46 7 0.0017701619337398483461351163306907416240890475101345084705296826627471079413270994731381981466734954260406817268765627889138641564708178236261775178697848641322175487266618830688100895231730298976920933896030810386784556593100184225301019881853520550990917564110938460980030854707305915380803
46 8 0.00054946409392326204304895768728546734700756486366827591426899455391873052551975032419431456807824481886178335006832721718862618416042194542494219075362418136198252057787000880658266902375431619802911852170714517592708964112424441021785168762833900162165949059465656135358093334764471998907353
46 9 -0.0064787942987386387659366054026181119621206593421999867763657164071503118420898378094522513754219437676318519491733271957188351255828814250849816945296411981616029069066414848527268532628900629821639457607054866961224148451533364039884449054554844375986586344367536176361392615116553722068169
46 10 -0.0043745606856491324524295318874964454027273745068918527689128125841131785603681507322116510204374076439477781987332376935292530801472057969880601272946143577813448692440494799035988322803437822818744407087544227333430212454050365660756020673883922535750369686852743760295254384624128301823553
47 1 -0.0045681510522966220591617023783925533870572125727903439016104262442823427343743139728029922041385038194773926184648157178079416396377490230469939487308739356797874641507001941572125558523073575814631727765128738139109254576090232412029184157979531409643855754730666048418077074786862361246775
47 2 -0.0054454213337765391124253357765661603204492151740881149329470816781408146662934290289804382552267278941545028161661503918670168369340249339514962319676239087062027769068708934974493670904023516177208719538524454425776475087160765933999290867823777165752981208654597065478834194107414480667537
47 3 -0.015471648282772814111094621463491002430867201989891283582221812064030018979473976694560426924993668989942793103283697571195807082217198636692766536468620505872590849600362644437850666587135072583347892540030128986329388795737124385721837755765888722851906313046918061819597938570222134911967
47 4 -0.00059415436332834388980339240734300056887379549625125634996459946682860495209631444633151480063179185590324000173063452004355185809351995642541489802705877832186309017794058483162721571435006159682381005583558740878254316549152467444080443290170350354844304345093700065528007040997072832357697
47 5 -0.0051163099837581678864614762873195220675613486383655759721618104421339972857835541589565568874811402636427750590657846907337372851826451481367054996876633733700350181071601927779486982030053934400515212953628964388826035987526000152533881126934651989212961113271009707360158541940499113841777
47 6 0.0081169878448564876209310222967662019338969499726619111015473954313909454716574269377139293654959344963722892793306152247469391295339652394214333157633641550996228465997113996058880450584298631739761129553384612819221712162154506094663652034557793368846557571358489396906120969144770301268998
47 7 -0.012653929617235962539301949884091201344212979019453038734818111951636719706114336459042643271237404695224064074913854542051650938943936120844156594398274573094476224110115024370692007444078199972233144138918519792372557543085313922282958622574793603159876031184388907947842698146839078939716
47 8 -0.0052886049633033804031380207750921413590183489243080126439825195592555746349086119951834978960528511549580491705103872969447701783614519325995108224750657264748778683103732747356190778379630422770242491342417070010922467324622081597090352044633467908812494779045409809319667501972023158821014
47 9 0.039866616021181458467026109347056086757979992907969428584081589561712622349204512049287605494693228286748840818822328114688974416631349907838467991955565266101267894661071807330565029048253442103042962874147929103292397842247893934785660099506494908878418173131552542049661202509703854273626
47 10 0.031595721627189151699974659159435501303139019893898011676446194859613081692055189083830609231444690826701813790569989398347579012625883178692763810470930849694886504217429907946453512076295321122465117744098443159053715556236702151910685414523229425184336303424029708502462118703917717338287
48 1 0.0032770059449232630096827133944003862682278387271256151883943876220026943125926654388593464913342648076350480943598320877972374857230378585007173183356353514114681388188683287387933833112280406558699643611050224237793094890836223481778014296702924298579531982614924830773102015960098867245752
48 2 0.0041689065136218686062733114107073274995735711951036558177319904738749914743182350391576530132146139811820565044067792108827525170585664088164951625659015174041024427784416714794529230387696756365947258558741577558353103903424590176811216033052006320254669506153665567638446823343542670236277
48 3 0.01083677940269591131303841921811846890105999143405359347129816861194968972653728741144298960487771004490219464192860621223785347565449162246890663245941926923503318856014084941146026529404747141114651076578475073032830559838505873484214999071365362595153291662605946224570953305662231653269
48 4 -8.6030009889256467096917393490248272312201503100253535681483220341134330454386774926631600728046349866901650722293882085230192098648450443654893107420961422002122346417693386433467467953291701192412074941442102356010230803812983842632195077772885163897587768932954001969263917046233988512677e-05
48 5 0.0037835569305040988692635126364188367346621767474596406603768633986221819385948992843857505371017527036404842138373131596523792034917737753204472786506527249469940196439707547181994015924234609451519518830667432180659240437518422680995238895245840700545308407264932496696913560475629147754122
48 6 -0.0053238108698055668525792626522427025609767632092486002941627031479351275923842190207570366357456598036123045339395975147753083842252383569950861404650619698037975840307296946779581318749840122228505203379683369381322674863855578661118273653054847518096156643927090142229208143783196070994888
48 7 0.0084585453502429283878083640592115471737197827076994761019119162874666473061442750592046179001271040729747447973782225373669688124605433123562497892122054137016215547297609447279964201273392912686168980255713172610738823461183432504764232533631170622119636459695330206993530465127047305292898
48 8 0.0033808469715679967704647096344111525457136811565903333865495337361029002177345171659261521384447528446163194676286718233882652358249627438594402932432928932443387356853193142763008194341844624858452716067959654299880441748338127219403128637394769596381803294571857247518960131543752763632644
48 9 -0.027019660573160594180482891244548233155979028786285443374033469802079017843235375011793881377483064456556630911705258954824412115494626088387349205722223784311689570431359040504228091838462666408212696517817123524527525702825113296840545766659940632527261165545779690195614077903730582357863
48 10 -0.02095555644337939613564621663980142622649737288076437234149721926858664174076459046847361795892773578921753501404293383091269776345198850685645819658670571241169431640286795711582051047275040602726036543717904550307969497412014226539710945194203047515046406926672910153672268724043235018223
49 1 0.0035732786212588099219230109505946277394718971851423867709671236302378079332998397952140054740383809562738739234422062470695503351506427049019334428399334112635969490652305899957304051830207887403306203612361826577146932504038125531491932156338670510047239716347566945555666161654996697350765
49 2 0.0036839907383495895868733128370195499694585515939129747975513646153698447499447703290676505212725908912268506509620483773320152417330241718275323588088418137946451402564051414930746689392706575345377699604809532987517850242878755915452647200711115587299212991607633165148434808188849542319425
49 3 0.013681692011196295309506573119204632703809922539519901174756432351202657290660867809363467469841144339563854976105147289265011469170018228304250236609665112901579766724525990184317268683323473449528446821732776936437757169377350287624138201450149537332070368272234788715701574101743428013864
49 4 0.0024135215979458101316408411321954976938338206488456262377681947040326804680205798718642740367077957549792616782748690830642831800185705241668575034951908179818596633334003923570790413112668655871616900588627845384619137050501664380927916734108807554556528667886751850506643257607879254764186
49 5 0.0037912752959699503767042924052672595725606995674540669115611140457728370843262660758751712088995207310161069587804506396613666112255349966069117946040421259915481632313122850193342590851837846374105399003615221117462440730194267062429402252558766701773413571736810248478114428569137782708881
49 6 -0.0084493557030900343342416770083090100086284037890376847454321950202355478089533908296482019184790879103914060002796431167927482958696434217706923025990317721789833176828376621277991585570462337573548827572243123635301367799514339900881174088134377393459165014754020831895326228903234374932929
49 7 0.012621534596667188159525091010952518212047806464092547338476242661047314244990238307682207234623352038822516794954780365853039876519109218023166406961896145691015890302158906202849559474301184977611508166023930738012169801502351706676268381822470682810820496507709425768723876828387186467642
49 8 0.0059132431124737063946340275777237215918198970266624285042208621849868515076818559356352477945176871461953346602461959434302633495573947041080904294895841618574485418609760295856256601618491137681328034726206576973593114536414648981687938693514657958181152391141576754693378796760775955439774
49 9 -0.038652940583128087699125819461876712477760654416112495071983480214562202816298287173681912212640673149053081484452454393477149049866000934624300953797008239857478783423106433762120124673313393428836649940894680360742362170804265636787118483525872643040667536035129234345194232304124053788829
49 10 -0.032342818283267015780036466619133271567685767302561521578181630048926284425953011425087698418777924311054625812781949258887227331432480830655533809170857935466546481979305306868856324476067467130363074320135517266936519581171584588953585735522650538070320581917735770373132947676813751219202
50 1 0.010215057432512183893903962361332267030570296681519970984542978544931170497825831500793215435870797815724044705406915674980572109277755121925865844988032767557224201458730706498542083939846344736876712247371562651030925661539026875864033501292594951738105136679722883652130649027694553102546
50 2 0.012945334047071719250445416120684851289304288185563111930284022441116794928428385648147887094445421876542439811396460601303264546032002942342519030735274855209318595675851002806150257188645910896591100449007066687867528471535416191123354271068576578950644482552996928048875169776894124364979
50 3 0.036338387100640600252311208601308622084920880216929458165247213796208435278409883885307740206108027369020476765861957809938989028309285477593288980569345391113102566492338540845676413384399170370129318906239496938683956018978960694819088155768054707467276124241816548885288761730736660103888
50 4 0.0018722815885426683846095347238693287084775014812267335573948073335566420342360341315218031206832264792329054685716049771136347536412040906009274572430245461478503136080241512101135898218713549822323236931785164090492271678950407733680970137240808294669039075263497582375279505816277588224637
50 5 0.011874292497311862948676761233414717294864663369370726874576406917317918821439067194485768379342038304939846376479172167375841195933854380662625703849767719592544345739467547548721093222008024517469250213376631501658392749022991496677426512977639059407916165141130626750064143374348432543676
50 6 -0.019142513527303819628883916354378956083949539957132147807639196130120092669492076120402871631455231174789140015231173480915565455085575509330393893228887668245727459942598158247153583060700993157535232018918605147089283916140046559971596619834555349759150071366689315583589802147851288800227
50 7 0.029844956082495635665208957274490253312222910918716368105230823324032450811530682940116002977571609239324806159586504901582947449439624128593419795270763152039481515779644729197210787220039740124444821338878677967230518446622616860547502646252430176680134416859017502506561086663214604430682
50 8 0.012764503274119697430471643935420944108117290051241511018724753466068156331751216795319422289668427174077305929193954959539770101272268046391957660819581449422732204334225587638092849461955234918033231119587199080909166230487269430390713517817035296939117021162851679881911051465605616422293
50 9 -0.094466882098181689062817533596572227771831603898414534853985792013495070212577496705986095112787189777905220351403698908043367041136138654079273141622644378290321185142752618479324941739496867056125942409239575263426595113959335057413081752654307231219896983541176876740616732029900222820475
50 10 -0.075233496626442538186595084848959168484415067748354303370661223725650060411497545039013852108503540682359692680521443507573472214791477652255506356654462254282945933234654746220602021767368871075436281866208482718701918658709853257535401314825922246061870236367864349640647845753762677929548
51 1 0.0056538024539430438378406714863060275316641700115233799075997582853790778935481147876465593232674324389455851018403144404334879478078573505902502412560397753295237441149340653284434333156744098437032446487386448462272179556536771374407837187017946438862943266724489147973924351251335189641245
51 2 0.0081327302567483227884429299373725847143880452446876863949830306646439538885604637538302874659472803379577290978648467069247995257835156871939227177510265738616885143202581607535227613454559558809617660089612402632973790537047054774120129875158910424868536050478142884877656522003734392984669
51 3 0.018160844095522743899885680319862730011191933226062172333036494547266182521367157059610740802768353909485275465370043729949407242956264228381403779328753351810728800946840244967661297072480157182744481259341272443477757039119435215483323244052105949072164942320056923908310956708396836481034
51 4 -0.001663095479498567074829353077530904849150107800849367565081421095000961277020812059629454531681611802367063939159258791423760122480106247860487552196867123569515749445628282757888443184644537676074900215015377283669158530528760144149902306887530861714901560730919508028856775112741384823575
51 5 0.0069536982700150278489345663396337794678957399455423032133506302514611691889431416587338027666185517679082405494343244276955227564604050805004347876796295391923807165614316192879895872523864294318036311870348439880656587338980360511916753931624476463497957831057437732523805270738740866517339
51 6 -0.0077649481006840613464199402093320256295448618001232040889673968928587697482347318229911547448570452441012412110480696175960788982316232442665760369124751078366709412768470387429210759874216745707872149319982086889193615885593544990876978672231728582337689006405123674479301612055383744311409
51 7 0.012893804644824439659468829485526501932530494080371303583416897764130348068011360117428989725705981618935405610861778180757454670503106358660447233822049911613647356810315534694020441757081720893994928399789227924131285258377099792612175334194510683220309357411525753721921647310261339692392
51 8 0.0046866182959320110871360859365688864155820942661041775553629511735088163611059698925159936953151216324639007450636988474623438404694850823520239338328898198581013689042271594791700345592421489636175124773487095953357180900812041691632486689600761634293797774436799276408549990029511076941821
51 9 -0.042530633014448076795557861237347127483909870773906032083195050716108093110518903300940209537102783986154967613420782265569350730910415150723576764404975866148500549238180098597198295893032908989207217273890331500835180555665481356942013121414246902897469971625009362639026996035389728691269
51 10 -0.031525679115364742467085389036117192667887972642413545152316096771664197139972558442694843544766233209735351933012053492243832999872054228672909122448934201185455019613121816424414344874200580087177047564103634047321836521327203527273680101782710795333657389569379727834226019661665686248101
52 1 0.002568470978554618591108710352927801115307934416960923633414275906569327908167744957241608350985832564809352667424682854686302879111884238374217575686038775666914916377885989373643988044276476468928908413825922763981541291622866006950841439229050179488432656653769573041748362291416472680744
52 2 0.0040493265573712893027020208089953467664527337841539484173641843227953918801496374950436745748898414338718492182890322084674889916439971305918368766627636085595809402240297879478289073443455302916228143997302082216260698234951534998703485501206182896603289209271636752834664732248818730080795
52 3 0.007785582385627956497235063933649969417297851098516766069703750092971375356141853015135575124579555403139871971239273221716378420324197606198686307461649287579127362787045638791399707565240046047562568633601912350543116879463700556622604058829843863067668934309720009191087836933672337223327
52 4 -0.0015401030234943507790464988226651064387556640834371025236236363047400895186260556849966058292161768274964257358887900872272654834929662663289269471392517575342368713401944908772788056700564306851482769849803414505880317127152089668921624403210179611522020840931883757754695500661928550720375
52 5 0.0033087836211197872736045456928326528882276683461477172724002630324304828929428427189674437978493226746542530865603746351023814550159482411735652573353352554657451697568715645805073791884920558728180297717968228666855609385133017897910942526927861624526607598273355061258093672172356739914128
52 6 -0.0027375896977719676126382276141337246081957136292732099238137786058330736077729989435689006548757991649502067103707188222221385215515041139207600254065571121006173516645247906360083115225259023294560377493014873998855363556893096681331167958542884278750120500256158578286577422859402848210232
52 7 0.0048667815271431650899798635157279231193969128002449866638370398265556543550352862065345697444691462745913990719997683675950015453635041327966331615481635207191988782248133690588942798656201445072542308039922323712075277979518878458188422239594257693809210994184919079800193774173996392017328
52 8 0.0014730041693525795964639667195984474559886457459516391228855664052874664122109876836942957210373025379600577029607583902507359202915882872232191069031029438295646422674640728167108487891687432636913722477515739234484381796803826755973198740599321547519505896060247921905039518846311389871146
52 9 -0.016741365927846522508833386836241880971536452031644607124376678285698986382340461850703765648997658083220030759231346002785666830743808114328157429321409698687708868044299236748720795324974777819080126511219959595490066781348995876874674610314784045270213151163572844977443359031602139324076
52 10 -0.011576099532649150391923044722662906332770726207913958235036194783909233260266894484583471502056922257159149810070987766368474381755942984359798644086200491115731274879090077783353561382412491081703673288075636243016228721400656902975679924422176927207589412198177791773746437940605914332716
53 1 -0.011569806205077864003441525910210331619063020950277781448011619936109503105066510452586470375328452597051449877215301626969393706600800958385462050181044219203629070593339186017947480934555273947949971988469463812650509274631535701414736974586565193288525834367136381768362155035559151469294
53 2 -0.014822057096391361146454893638026310377949750951754996270985259753011286999010140665187757348095844925486614214304647091077648059911744278448805180267913054130444892610901000740570147964467316061633587501627516511931448870928949389293895953213262481689309588765857823822120050976335105335985
53 3 -0.039508209228409846656885602313420277322134717932246899092956363233838031771014110226712372362334575781915583760647602183380787564523765665243891008731782285004785739003567297631686116801065884634244346161896791756955389908537183746189138370241523178147089215295917986382496101715972226054275
53 4 -0.0005955387155505239249680614187358595178871590382328638857707592387223060351951308752420370259733749634132441943558366884927956266805577110692193409277818276507764347133709555137908682393364297074141160439442246696565983201372676765961208511691094123734884373241561978847201180342215056774171
53 5 -0.013457590175309673617456727016285617065071063589095725408699874103228565139027647070639750542688070103647683370980429022197920504174137240437338260889307494548782890963366781023987585684515024220276928476524903743016522997476189847027344345726965621731992577993695517232879985748686729233902
53 6 0.019922304243349845941869340246591453992200685985157789921097194391626750243952908722689289396808682470344774431230460654376299336923702362564811161511278903437568189946158236985273981084974051329315199864497373131617543487682909913941141497361807419283757636017371590431041892761397154317264
53 7 -0.031431668467289096647587904975166236494110382019798687422482504124222321687999051977200457658680315182234956048158508443014038904264932620379038191203088213006813538156501225887216594961595202694377855023729252115583247644965559116866357188511391597777972550691813500018315507613550128422684
53 8 -0.012931207560409524046037931288999241691807505244094471365434819356516269728316922267950560879310640057196603868246961794391777835844028674793861442545139721783242140530008941717114679722474624413345627356078234714002034607052938036877695939624057356878660368538469699621115063646375416582892
53 9 0.10013006061681668997961714912494872128892590197090264643942836854048919642054097404371994088696424201738474321990773754619619419133862212162292078397252610172713040891392741064408848834036641431564941061530305339973604241287738548540561320178941956932045011235574773859409082901117599223756
53 10 0.078478376863072720148371528958097024579500182455939021945479144995658122595132820308874612840187184458076630534552367329777096854436915894644116787423273971030007805872554944417878696798264490301085776469732894472867830419997344328421224846700009825795903626382488843040799602908177913970465
54 1 0.00058150865598635806126461511576144589546846602136873369735663109172111681356703134926286787949526058289029693553716644041713503547371431723911881153342041856624244214356757173165134558595978982177589901643087754377760001579403047621553416431928773361229952564817538870707543252929628664529095
54 2 -0.00028315664975342446729751396803789860603479156090220835857302899895861170680041166692521234889072759753139921035578421674705840663811025305349320504977083011978201377858222899181158943015811833096725096935368013647921548923334039410615924750455911109346979192953525898019424941931105164239973
54 3 0.0035235811644626610374424010536758298134809785958190085319191051529033095284122503467567788858748005708444322804511441808530817040605352302763078863660144367101994219770070890125977508174366821040280602042801958338389880354262239178690559696450497530824205910676013016910611673817945461106823
54 4 0.0024617584769046988919361188702458616104171769817239445733725846184601895276046715174740970383071870543657500647259663915367123445631865228050405443634754142668709106540477597445118575088756715101977565768778199660765688764360492250561922113732547380568560710609133092164074167064663385526451
54 5 0.00024923054119491109808676234261999559740152777847602581737728621869040091792138735138857799582397284490157767043567523358417310223474026095876824701424800903275569021969328301070568598589642182485458152171136401942772274952356950654576276818518440158939517995912726635244906725196013790276639
54 6 -0.0034852461385259821529064604572465231265840274076698125484377036756392468175927370840527292830332007698198845225841165299322831206180791761136618321415615279863807840226801939155217374476495501173818651167302448389172238780484730622828726943458664295048268306206466346336219835873387175643555
54 7 0.0047140151004163865981536360100680379476318154128729878560137993106542605891548886385871164406151702087672315601574992158429201864136513621805155982914125542682214091102061403802503232741028749563153340775978450284093438143159611418246882152668121041972048296683448757775580176723868299755967
54 8 0.0027185469591310929651943133352654291664400238195424697319920280381639555222015041577572940752379218488509036095011107478572167055337226914213360142454176642381555381569362993467473763615698966823244534636037107450088583236000183640279563062017631253673082939093796342521336080444744702528642
54 9 -0.013274233675384159157683874571749807508822411595132195133706229789466586787439445613099946088234300532060472298066384485163634619101950409419719708249675904879448803610937902592106984487109075237986748108638698267008037190839680320358299925965914123141126849671083934706843344870973932209638
54 10 -0.012644640462147076274518080944030037968383311574240639900292579977140829829886616756472981503031405134592564790710534953392368428514597084121862751815006805149623251361165080495603424305020427833979250131590437163250514077235212313253930057912286489137911419422354992836960778792379674451709
55 1 0.013400077125100163587250962305224226675974804751211278859890025814898863000579327078647737760857899303101276889240358560047320814381015625502793517482825181427785996598585775106937861285368005034078167553561298340131186306782294449490121121615158668217671760256472528100672985151759737797384
55 2 0.018016164662839745681090746995552824309615796240301623806949248784157656651303359627885844951133128170237460685124054239039611044698376800720352764973016192313576810439260892384026198839692505622032845201584126839284501862559743792363013766325000591650868293406985280860250540233742303792943
55 3 0.04565517742144369165737735290153950859826431676987276081195808963913561791330022037657241258372528506926965607914516139478293532181978891463160367593756019018170447755465887433268942811942196143879121837877350377971893550072102206652930124824359533668824293886579903385678644985320802299032
55 4 -0.00036805236304833019232663014424239316378300053342006153376368905166923853588444637454346609263781068840151144414599666922193476018522085256272904095751589965098876932611755972351530336343442193595711637065142555556437767617408652742889414375714850975194698891714502019854625777296541213663133
55 5 0.015986506569060639866009706675810333445362672598545130340777335778579966262481008984509693209368684169053189559389040363348074682679191926449124634490116310170413661418989134875409700231958910105230147688321980906476686307109146419850157435175901140746538121173090498909510540564771192790348
55 6 -0.022164091242616990705620470051196621366225835588073936672608060014988750999497700016650750271122848509946846283377075916912177203216020670192239731832234697241017018152424800124904087755735440416402155006370891523811133709868447771003404451103710681221180333025083825611996388805590628442812
55 7 0.035379330019134170758509427217085554220837752510735585803855648167041814709015376079810121096737478388403113224350205257147966696190806752516260291029186057243846092250169996354911826764567518005028355882477817977328087939171237800581772792179655657271411175187040459864324241553730392132802
55 8 0.014267635229288432077397521640134029125464430952476407480243913151276319069097215735958041997426149432708887775700365912539621367944665732094513522644122227886050581589413395542029898208563020538779143244848111174669997001206803182265040136454451286522827043380563053873502527530050753497292
55 9 -0.11378938882615615161258638786739986637218198200952089050701237652741882309414721332959927473332928751217094712683535741294139425669647028637136231412401188030651718986519915334875509196825094019508770862321739046727186973837464786046019696707608099440299170171688858576969240861674224568212
55 10 -0.088168719912824366359584536794795232015154249820860277955364942105268878917505976985432432386036329646795174639462749011488688601411960137040123697808640455079603355936138950196617321703431460002332344844776490617941233449730190803445870610591407317337435569708874635635577897821820037451518
56 1 0.010064552555938726763119653646617651652870483116819535808285243908179600264325599801544167385559688223243626171166546029256383470932626995570991067623095480267459413281054204085568668199982856832923135590386057223171865549590490936012120630964975978150868597490028518935422551367065397760355
56 2 0.014333030813500579780617287872169889831350268207665505578278343531309271793440649692095669375250469499309266477321818390696724662467797485868304790894207740613715122770940928223170051104091431165115773440785276939361566605241552043137687198524744455567471336249893370746855242412867246099942
56 3 0.032770459115152156161691549850167526629714918234599777330901673080036983508288880161515479523041556777509326449061022254449601090648242799273163876036116313491298341404289677050170518938288415226294864007845233199465847245049550956301057889516435021101729307110678679036527654882764610433187
56 4 -0.0024333969616888666934641019600316007710120037857726048337868845175123179762146115044459878084462829325103967091898960437693961991283183881282389347997918894445972951977231965931958408194974155460421493743628738794348058628732800445146912729686058417017559256049696115403357185576174698469632
56 5 0.012326724975064342739849796712752085424086105989254783200834943388708856164020593044304842641817853376083531982369686219582647520116904192529159103783850571910803751368258156150530051163323398003842512820628658361006976543992004994369443281526798894808082969422393903245443742669655653785599
56 6 -0.014398220057907621303109457864396506934053547235018305336071065797658455990298932389584317938255046105802272283275851323935371979832417060139652609444170380263458633279995561355332212231737311348469584546546574133730975321118922582778085995802976601715831555243663766267208897162368384251906
56 7 0.023700230982677727768490814756235932600360801016860714735862210925690250313262075873463279512300508460970394806808703238618407952351502432292591856544859576030136834114561897797170791074378613630809896456684326454644768085270287521340235833515281700620565399037811241184869241045656107342722
56 8 0.0088291514855221183268297574847645545999242481226452870570659780111041487551707390710526828207706719742571693438654346989484617838833490303295795663907676789626326938397612961001603874883431325922685175618172821509187492832960246936838896105293405348852161230040342616450894104936075502580715
56 9 -0.077768206784859779437241612816632313700402475794073623512693369288371737016371110729688124570637835830155491534874939386727976564643260073713762086159107055555231971845139880430381326060865026637657565302908357665509604988234568492306557897042227473614854763576029812671469273548389529616864
56 10 -0.058214089823187168287995441677062512720993191442215785339100271339989791417740806053197748791850495776021636936505269943403333537873418405458672899446000143105472493643949069966993405279953131310138460989317379482714910187698379917558163929528013797145477872762614390357950989602569401790138
57 1 0.012423744242620808680137316075772330422672089247475041269560313436808363306697511867530153034557942411695377357657317381293255906404486026468640492292523510397265921501598145357353845267267985781688331404499192867533545918332397571596117047451185781004048655515037099545133333906125010366006
57 2 0.017310420572173477986327378739373383596460377804700323498224253311323365094988241019432224945471613453445608095287280685155956111522781712501900131375774728210306998917253151949959086226085904894287609431207144041326000413268174390676653544321473656739027978975239344049623995183298789927335
57 3 0.040570430279462695993540506883032077261584788838039246005416416714950802927921947496101059301895393345218345232623179464850138938638921226394448326320273491032919022452095874538742991826523277272288767984568880053086141038711191178848064327302737262580297660237330940943664051759611704742525
57 4 -0.0024725360548376879412419067377574908191481384423132491477395440761447932974270458091080478230517517162060536823474001967573989146797684107724745316072539789713375354096912788111419461356459543403429176884438965577796688820013867766328518496903689570753530717172830193049951246726864725155487
57 5 0.015040921022656027686830053040510893259470969797771988786904775951197870590898179840965275418374966525001906548464008964537750678313669047146231330848063905328969135182531725122339315473222572561316559213182598687534273181361111380803814648906664817361410300987530892707177363158064690517437
57 6 -0.018241435168829859909023166492598741153765044887055097259024813169979558280797605210000352384552425069588462030602825489384065941474300116173442805494941388343364708806148989447804739184765979863286895034187319910207063310663855401056621890399196235767388578845904674747290918629058811277765
57 7 0.029803694033920015360418432160627454692396453747141791725299134135021554010033071652011405776612250737944953960212009730093230028848912711950309041582411239177994866816548356048156093401718218178044568464857101482607806179105114498055236037482356743054289238593085487945547710768483199804397
57 8 0.011274513526125941176688762586164749247882321904013699018902563704165588771495718693459311200047269811481609955738113551314261105517692856084686408914170858825567905102110494303438729879223093301112036962065255591171166581292427273888738828097044917776833630853768451326418089518817054376395
57 9 -0.097252946487427263533103106361065273564261928940024575240962025798225118258389728425807684546653925526246382373585877695800141812778150841214315667291238671477909253356683542594629814765938440790851036982706537122187756327788854924248388979495862671070938605030529116309871171126374991581281
57 10 -0.073342465085393465988393896811933477433849345830008988782019446050382701748974467953658898596744091543934965066148406213844356181953567494208353408506700998699999259746131474922620988878113875969080256645451553178151728738212681627334776223154804681808901559870185358808128908813350906198998
58 1 0.0087609205397563901277017553071075058025207698433379892076958603383258479374281800870690135966031341848256690482275163272279734774920939456622686479666933713342925028951531024835409335528081150679439918887408152954728834157968408247113713878353791612122918399810286332759258149028307881282699
58 2 0.01109365928718234285148091788364305569178855183449564226048737463344785532844866108175135038841760914477734876702016724250478185524122085105065875244961396234697678710423642340321759225950687919804803818371659499443973722804862617959767477156088371093003245782469401562412957578875433737973
58 3 0.031197946113223595271942519864357741213834482843494703053326309631453601411825827605595775114501010802741068248921328089059882247448738946649440582728078866411918258472626609152834697207010905664461140273891979601532288489357544953915409816233025624525672477417646527773187787838616251890643
58 4 0.0016416558695075121375275928349010694446031961266438464671340492513893935190799857738952730089146517080390208907732510227687958628025283158845649620038223657912024715492883569921164467621439760244005369709190991908012211634286981029383791624258813731943071546765733476187141368920770835374388
58 5 0.010181527099146513031976283096736696737873192557878018761057234366367732292378742621514461077618333284773769270960956354107116738902233820533623617770030981079486782336215359175712869917183305520293547294199811683794841407320537572702482783637611994084179190275692370760806937084575796657754
58 6 -0.016455557393200482747940951794226457956092950665749274350241430201582035865037882072895381416950010529621291812309036988251996386955628709633626973141180220435544616910075691923983616607508253639246256807866485277526298391118094882470428729359103656513580994328046598554830997011875917972081
58 7 0.025647525101535683929394096280757933368488235181961446452387551493962193257432818649281652930868170586989072551763821918612409511014661947719630944700008867235002649410249690750403700740421241753801191842916228652312340707121528797593789340901590509606554682223334551833872897198101483079904
58 8 0.010980807306417517995635733333217499262488185966865194625508969816692924910737266388608093757094807131812094023220635583484982875473902988794096196689404404715912085454482900420511136166848747949265271707727661818999521572236960061963888620669913069597050870779733974605142329662639716972089
58 9 -0.081164046864187917666603847098638409015578866350287910161072994473495734779259606439471012122498805109903339675434281818860013422834065715924890527759773534370173798484212468687947614461139354888547056454301283186547235410064057688205656792256825770705553038146854741553919029764071966963413
58 10 -0.06466858096102906507420628063985770295685385624145367249296350100653445292042430513694805666471061054531450894213807473047536408589680916115408604242062278717181494906686745685596730504657840014776091881190276394543775193042514787100152178399073828582742185421899656619408750853015503091774
59 1 -0.00030703486003657220719303393513240581126737673461291360001940370702002385957686458514002245180846348001969207921194869403998024626486577795487446914068191015219087491856833485852690568950766897750119381184414814088611065986933303210099498497423674225524397243482921178287360837930772772738235
59 2 -0.00061095675322166576808837503333651033791159519411207701866922985207500326042579059875219192309520838139062991410488437395853011961288049719448020816112252009451055747034643775510982396560801950471337259487091485776203112144253136502685175226766914000259917791825228623145892669248714144262562
59 3 -0.0009894676536426504600671683909016161255230982070156101641304361548817372067589422613410094960142261599318544624623076350643661129778847655083619390247031802387812663950929334854065107055099710227567263047869216619903955471852015520257788965500003708545245316002928206227340003372146847203431
59 4 0.00027872464162666448716580168015318335585317120681135405713818994531910803237423831872985740641507507713491179655257476631352474130311971508224099239174588488416908461337047443836146197111746961989877927731108825257949552680238518757618236304494284426760282288665532335763599724646946526872676
59 5 -0.0004567345046575747692699204164116954839462843737018467808509806354627055781227492565229774505231242700438891239546092931793171096145077353525255447687193368417261361373616658046062954139219592570352742040361338157931105114369547827531438420774630744879920685128405539982585025775591435377649
59 6 0.000273713465804911138414183849726042803242714754888440888427103087009203083430852532077119384442968771474809517587057363627146403637569062267157890880335383837838508682671814253174738067405860991360179857546418458149323149267368602450686948983576501830639051593503057783461473937385504378534
59 7 -0.00053624431981793309548339216130935543237813744288356282816676349653803435121028287206829953562461196645675319731275217699440808300397003866875131719004534437551103291041320104323825105970350314306396897925671788012179621177536673854594303028590477806289281232289475282948437833044456706172142
59 8 -0.00013794812083951320256256731201417029490520828241678929558115533003902521225471568317025809301690818335340942044255066629693889128103617064270777872868186525036548665479913485897485599542892605652241278826570556694387665733176674614516397300168048548832217164760083392135850934400691193877762
59 9 0.0019792088293763706144871442316949109837330787993894621045097230301043828425449217462001196085556715275717045653341255035940111602318898425638015310455289784192456932511025494043000749237449003523804104296254681779818651029705804848597148422128559691859170297002633917438851910108654139330123
59 10 0.0012761829168699860149753906050339123196740453134829603121584577324425256917588361769544871022960651533590433891132682830278649091865011416445735329882186865679196043542950085634798993153639441182142605706782557941672742424305128479509443611382785508842515367407414917906677562712441029985571
60 1 -0.016795379379786334188243912051139144535101288897258954084873788173162725539969849130960516078588913609931174802463437244476335112796505986766415316003595547962063139308144366402426406095956546612436896009056763159066349995967389898219512311180133353771021441495388546218601375778963950520121
60 2 -0.021524223998196930273922672874347417498637404106484425508777855228935142291545578462622299984389647755522694298399994981361484743898891218373255302121067017085805930023461997506668131033121727594265598011723377427597417778375976126987316689343371732185988705633835619716435172939319425588572
60 3 -0.05749897756578252922156673506826526886265400980973362997174095994460572573066452512734564539858255290126100386629461115135965463669777649011954956904967616974957117501568180852142827379781045396707078524354911993584931169774315026600646491688142407151386334561726640076455337697747360980606
60 4 -0.00097110578584826822661737562460968595171859885709691660389047230796788296681260160133765809892979444168821396057843132915690213941848478028578727048724963787827993906924148378357308986723876779217271799383717311896984662011717357002120104311964966016266741612545253370287269947799169495163038
60 5 -0.019547056812583871390803907536729399452184092481399621060312555208430875767204369471762161199689860353311382541386773781147840448483211466345614411783594804509685139426758750324404072641022847249162153219672687031408898237644932604931450182512394006922587098771799515703792704444126730982002
60 6 0.029042992977200411402622914237219148909337409749609128396661251671112123623121101316473535272315765240690278746193691619720928097756671157545455412979540996693861099644735060225507837290414600266068116506992977031707887490874505692325291877107151117843346678107505650061126796030942642714306
60 7 -0.045804789340275389249407357564213589268387352064887361537157532573740063721274279765946393220854226092335363345749705660771521469305027738982316596116601298826544409255741056293244690552762064179265876312068287802542969860933401932130390425338440170149080452579889778094652480459807639097735
60 8 -0.01888547284067463445229634273490759307073671078164329942844590820598092494416394742975118606158909345430191747013477572873486783353420059121069467996426822744757957328074771550554115976020031127495918453471900951170291872964873781991815148468928064344225585895584155243226581076680432582341
60 9 0.14590653207214775845909366962170390035882812690610761635375754006710498350099978019075142418703795187095940016730886708490971007368029545125410143191349677204481794075956776308493055821118479741444123441175371528555723531410547408135632534006936066178482739663015778853174451975663140441204
60 10 0.11444125269540550404211987806353606585760207359642989556692911782670429000226363791274918950731068847195346231526361154890301363143825774067790913889891313525126836998035080449667064421394903282902661398260488152995498797435510834576849292865947174234683421077236981458932111538822545135949
61 1 0.007723660959678798288714075775035349519333417979267200729245624140765364164858640392804411754011853635493535925293304206958766956011951553601932114195152367873404055182260050079108282712128591719395244950925735899773924655424524655452401396667977323395132651020299299662097411283084729641512
61 2 0.0099348890865416067514713729471482286063039352848115975503872447656081734644688704336277064523782656304544960269300275661208774489477622313925507123976151981252183384586886806826717307731212017735186340478230898044575207972662701386543176557081791493291674749121900150188438300363565893848508
61 3 0.027429490628464752503205316935680746763106612519689473160647922720234722832391854721666344630449996784498642127910864440030233525947922245058010863881053724147383276551351567661515756264938383440411415251537472307901768810953249001706973534216427881922756963563108946749264760752831318335806
61 4 0.0012163274520707504184095616180387007045136589910240431429359032720721586580093423416528775827750317147394221637045118975613367066580817942882100746407823752611784067622589835210968887972644543864684703329729143538225146405602969935300609631719878678858680627109175147300346970908912515494543
61 5 0.0090432605627156386959461254773908418556867228557578677770561944534546375560419761888003594446900737628252313633433580575418881677179535732817594864888203024893195984794080984555396802214612295338529451657888964299436079529800910289236371061796978630496621569911891709935439390548307452566593
61 6 -0.014310847691225674472272859177200018882257325141275168292268062937491254545825482065930069393555958659487204000364909955032918878687932297892174849183473212287481891542884529921247529295351704351901583046272875150045834141880449813351184404096502124129207521273768980496065973201507027115314
61 7 0.022369709086749686402939620994450477000453498909120296603651822971572783208955660542818345158376239627501245837732352523495873088266497522709136005707495583032668721033148097426465413404603034823782049327631636243151270698910174514071696896753502543869864249428812657521141435653317011294497
61 8 0.0095143732560060105786221218375053072943088436469769119782785280461822538871490680877134845622564564356002390955634039310908158203618092775474063277644148330354936884841914143088844310798328390086658607066822620392192504264006915241705255179871070196534225652024481688054412834355502393953973
61 9 -0.070959111862496438720312847398318482721252863841773304424117157105604119358053251655640039933035189466571340012495944106836292846868329695117935301398056387078339520292735672829761378908230729973024688701918074871237827727943262000451234008860669218239046047872564012666251580723664956159647
61 10 -0.056340796055620394297069902193687603108201282941181052029530357174924008363358999934094991188803883544126124846852866998135337564604007295444417641562818576463402998596874621120700899076512160644286459410635781266653185392850928524393964847156666099303833677613055723293955254470881891316552
62 1 -0.0094904428143449416802110919280882194938600481923381905346581339187296587647772320452644651669442714402268682781182003189395286917222800342359329334619605345053251818367989502342920018098188614712760416034121368519909244505059620211595920018281469539660279849881541716880024293781142680323082
62 2 -0.011466885242637179261802028739108039025055426185404359536257132480484954190582071175675594058043929455763314664646790257557276967462493093757527868085427598438090468994189220059456854475177719018436074626016991562871501262235670787886819231609663695072802712453167891090273421122139780999218
62 3 -0.032717715126746098233667252114744613809062791293216679418881774289281216951818049364429871962915286738654741376120225467728855288830874793847607415876293150192236402821361626054455601530128319891174304216430107145360304930980614594016805506033274053845850114756730426906371533001155913488719
62 4 -0.0015279845962400280260695200343595432846223916923465560547486299172378076704017149559295835313446205875267964927063421169312731499541713635224968027510068434440217300362275710515287210302710522591824662728682193581852772692908129028292417816780338942396094927057827641149550696563680670493453
62 5 -0.010725106165700873043661958726641065234629883882109990805314433934611436801251749709116817340238539823688246870308619904431035220264599461151049638452690567167649149472390809522547517478928384126891474473838977443720908875516228582697206210832168143557321181319250515576714713728154774783027
62 6 0.017284488048672712253511364182535877318216052123778836547006484646294192399259583734424576444022467892691087552122148888025337391081534055542933593634780432792280041990222912514264740398408801257964589177549539112709360306542955031063045437871877637838239089587281822273841050934998853032405
62 7 -0.026903452758322198251508599473179353149653061578890746006833107616948956030041916665032219912540684790001348950820824478535741754634182750572606989735923384881547079034286701210403725112395903625234257062422945028206381961948899229095686879861799278052381833873320802250878404361737262619834
62 8 -0.011369504827874009769953654607765909167135060275681884184183201732152941552413475651845311530785098328578860497840810165987076536050416216101067202386042615264696115291213377723639720057258242386850774438595076423907994786404632228521285121756511885488940077880530699772801006581754164074198
62 9 0.084787207189811391728152556571358639422311938243361257471596787553878153695898751722477524054466216969704931511559247149021403665214787350933576463324937827842143264707910621243914362364435656234063777139144227020428993261639527164786729305455407439919060433483988303740777909939649985775285
62 10 0.067425262068467209351744621392497996401672111209154057061553619515479519053806093738307565166672888556720712935857368913511743337787609927328709777043834757451923219722489840876458142112371045253020438860392973165715756224275846212624247469811270468395404278641048619621921296329787668967259
63 1 -0.0047343442862187058956094109371686898220912190773881521309398944451503192430997987290115268757720623493670541222079456673458169298979079713389679997283086869357332230204603246348231509562290192148263982121934200148964112274652120552050966023636185611404185920667426407323117578598959482446363
63 2 -0.0059817287020837146127921154385726494349822796099589017762233927870392259120281152037741768820329189927129418449649671647522256789084600557668946744945969202437753630388491556480680459937299493475323241338386498719255907132436650005041785446435086175542193276846585473108749131316954775213592
63 3 -0.016678514080042998292754908864427676696978254009897662554023662984077152347301136789452988187422879051552901168615597104765906473143489582488571375055390665825719035221393267321973105954368137182620820021823043865534877224238522406420896232460013386425263864505388373503252350287496077029596
63 4 -0.00075485065285690752683029091987163146584392604228668556701441282230124282109844903946311833001045994978775437450178940407947655178430051906741232890254739930639822554164505586393946152069288456990357132594334424776856225295101229861295642818556408142727030319595389428797848639046342233538155
63 5 -0.0054884985259949385906607769699156141483030866392798130393126396815863120326968918357370013513090029736013727310791006084426844715268591439548211816963213874945374490435608331972449321551063143128535149443015656215116143976558061458312034128706112382963207529796920615382108342082646888019384
63 6 0.0087274697282828006923752006544517863756404303373364322867726700041305860910765998394063597948279749471423157215008762240289740702159153181803804042894155335021841195490102069644025786007889130547430849656043742348676700680750267835228205573194586569839660991769523669947746780901112859069599
63 7 -0.013630640784868394762542407834768260220467131806389290434470182687397037354068319635180034828367667369066197518313143651262727669951606571929323606834653201421475716200264288626313787773530509057216731309730141398557022981289585259742736209557565419265428141266727170951107354281968486360802
63 8 -0.005788505027111363004186344460226235105800807052349674914501251524624608251921393904238808826103605934634713357565649187074237062233530696793137705069125982431501402647244033800771119762624812430958641818958503949396984264462557703158870860940896657787968033550147505665854289176306606865062
63 9 0.04317115827769248266289212385673928200506870308463630243052139062531611069635269111198172458176117817232633169642087140710213267916806252386118333452783709238520182217033676565669780169147599272431358427416120872193972089068332354302030803386814887873648014578004234202398316813489555630786
63 10 0.034290747073600949905625322680722003996064799915795201018963222558372569052194923497340056976222110851845327356416823623152740039177068158110770971719562338831196145039423293166440425913612393682792606140253443979198208150823913025388760970311080136682905994305888666274347918950800036399047
64 1 -0.010907334824393626729432028138443926523273604520871939424612317269508395734174129697842559937495793608280842013266290136951013217441796188751839042369667495116762128974829995315000622256803892414336942592546034689464140078322262318729294366036224249376716181950105752364320313998773052323794
64 2 -0.015188217965940836883780673824001845376129572576237880530746909597205953799918497001509393810730467004201822853170813927532930152429124804965072235313256235118115534986292236575864490808603505560128365777109003416536256159498580427171923007798670653311463880261949366343629453598880231355157
64 3 -0.036151835386725083623070128609420984372299000927601252320409685895313802728045847466067004278093299408856297354483591850850055839244508525434297960646974472093320081626092613324712461616008502230291480834294816811783623810094271480932451797267040816628529575773971637166298948350431328155808
64 4 0.0017203509262559181571610311118777393499979739040806273560025164636189513555442844286320386731247271181924884135860461469512283435768293922237136922173914357160340011659019008817838007918980944764948470676712710547495283736331979376936745445309307055858680013937477739427857269096934881884847
64 5 -0.013219603417742008021728538111592353475224230393340867946781626872820623919779451085452496664027383046714811859368752669891910320599311876524675442661395549708167350274930561554665845558661508243803012847016276684224453934190965883488232378720080056470320878071378500432729682831652655524501
64 6 0.016562599539848058122356452135801795705346492147067205487713287585490909690542940322968609839532939023043898329725225583697269787468911416963955709581285804894173568656617634513215230382377949438752250976206224863584791110564551234227878279128831404449832885249360856988737313317190386457655
64 7 -0.026904681722761530964598380380181795439298549930485625726025889397591279917924643580217789202570500150954674291104818729268959078177384952557237495539890979157602925147912149857748622347059216623511266959814333061198060584008701237129458974888047722892362796746471245277518506374798725130993
64 8 -0.010369421954393263545131426896420549549782786810593591791476717962171331785224328589363290111150319741033468406514942583810650684303836377386514851741145751162775946429826591302053837420504775751399580603289628941685023527545361634865358019458414513909151262488006316308321001398345829208692
64 9 0.087532911930986834477355861270722507230297011026087103312515210927301883592674549535198389952187091925754372565237358639883964739273326202023591142207494733855603876873592411464286232224018568069389402203924563345514031977634555084965453326711661522371551538835896093860217482447886821218783
64 10 0.066482389550196691397073313785243262969805121517710767662480419037599575652305694305155836744315126255734065325550848368957420356735656849413826402149011295084623207173332510825538417538814947567268117233496780159673974627461645589733369546076004364166078835561215455531371813393044201945347
65 1 0.0064475427730613837080971805889553459588137355678795076352240550140058554903749859573422399500692500669711442251778070701980905909331361089852844089989575500483211301110746338990472193645108774806111447106150665547024571282118319217553717833723773011718354576624638496305289643069310962567887
65 2 0.0081640933617570975421885082550321829589513539214639531312152332781519508476879999763854678492196092486619883568347812077326036118675837017514323090519747026129706140342908827676708353390562887817328212506628155791119543378545908309147584698623815914736665144521161906578976730879798294592305
65 3 0.022625387266205815997455791457376892721272258159837595965764024038648202092745052385768506698267736517012220065396749374848562530957226953920140510698969131598347424724678862169186262775122513601903137356285793935437082411720138196901988696340099324863626565248683609804527382855524380617847
65 4 0.00093691816371011629764573522155038119227001407282929632819004383361505752777998397184693580195834169723469549111932637772729416758944365743073957046907548714137790510238484432551606298292431164311332993599835346246026788705331122117827874939693441856003705386463614719687092696958741957759167
65 5 0.0074788682304427668531292609723853300947433951211510071476031792081831801957318191765276223625526300153414997875517426754094755683217484520232547153988987996318727412053464306884294596996813827397089743314584297462128592973860656482538446805652502040648399147289768111351517301387845234044829
65 6 -0.011786761322380674014049107794138271951659836613686721899131142153240177254339373885812694659581710786242583582425284388691191095263787800556446051434189164696814455260679841914865187764077826943045954774210020918905915399789128321108226016884451012559974325902764541946028875161039861100192
65 7 0.018429917589672072701829537034506536968387037149764066969126577432355750186251031750615319688779849010995839968651484860807294433453624168893069462118008905803996436661053400858225234607307818578681528668656501961388044950319064886956202499193658762119415710630539280871920150379952530709078
65 8 0.0077964792234162066207870386143678029461714269634881172862004629520095786413187953637434635504047953472953898690880774344839463185599617216811082851078075380738245018969112562903703135940987160263584646336640220067538612078457815302808403739586385629791140199577318794966834526768900423102305
65 9 -0.058409936437299412964881935565132106887894040913617965478684653373950406452426314916451956782695842196642918371666081756512863208579518065028199010228951366351681689708459071158840669266780234886093721164455208462901291259801163249834145751910809344253448831391450197736071908983070475718546
65 10 -0.046319801181572443791514208841398878607205614677886099442333525594664084259684084867615374665889037749162900728287807973744888658983487902359406147834194802978399435248710386800413945550456510330356510728113169964470872290995581010736147240046298655212705754746211418507926760018569287362201
66 1 0.0048131520392116607321034117128843371456533309012811142894118378331131547986241841687049050459886276716551356146850273986086600656907135429145248572609575441179899638933420023729826508772691060233376728649341198147983187367399029245163683723182131488882385476693799127473916271471802606174399
66 2 0.0068619169507552341945280459543277445851825760922694346081295388464624363435919493089838710498059472423573479786331426382374676561846930511556174723328303501238611316414664829402861322528698289766033973977596399115462592059887858241984479139442774750903102009917206301235306373320385509704952
66 3 0.015883626944425129434054356856227291610949029170175079191541467295384638361558928373826206029753740305280553638188129953291448653095397473025416060432758329596836164739501309170388134587163626784399992362665219198455778452474279217028365134243956628857987353798350556948363236777227210950635
66 4 -0.00099694936271276892411629282403286637774926875767502633205593407238499963784180090424761404141257054023808732849293799732606504067041788253531626099772555768931943242049173213105131452838803497610599768956121390854461009897477860837146749059677358319476540229154227798092335339902325440059735
66 5 0.005905867033991846914937330463033892076037452972189143956936025705558243970265026620257644986250695228129027402249865659467383425794882522725182517377479933241468439615352921642261552480833739240506480553493392568391265402490221529266926770273837506540488256367408018654746788249076919717956
66 6 -0.0070947096109476458536053647998965855597325175043346167112851885866175480296895897975124800162351295740137741307470135453767439919081839218100157730702909733649989535017868119305278439017236919873580039967307727150931838077168994298168900221126180314565084909527282972811741628567685316223032
66 7 0.011617865322840687511545419591621867219781225306776100219079971335233794907120482934414223317773659495247727612103121117299452289091487163244129203658548373895782690961617795984300505548648353932680226792527539982713789206244543211141562273981257612754378781033419050691473459984181507080407
66 8 0.0044023241524691426934147891624446925811316485533922822524106219933320275672529765454936048551733573276813356962152273666490303316530886314420709426347334719559752424080323035772103862995301535367192567865287996274402003396905155444217756431628854444641789217855675555372153813686512133410631
66 9 -0.038024007076518595003407952322045126291810019385054887783650094774824976632790377880350451092628222232035262330609544865542878016968244502870510383296412215872003245920497473894118343356421003614591904366215324584541943085575055096821676478896688611883303930695717409899136654472264322314438
66 10 -0.028643514660280445489261200183977090483658143482130187766582230356107251910367463455532646432480796939444833486241426079706487402799105234478424176427359345203639999502819180693581070674189442714785403589762000364177236960737308188854405201995896094436660451056219252383142560643135583294785
67 1 0.0084901417915523803267048941506013769321179508834603379158201646639161032768265397567982348836631494776259877932630451173608132144668056279606261663292201587076880642386757506523079019248327676426383519967941932130341465517947985599881468428777183353729450309020254581885210206713203653317774
67 2 0.01065151030143845671343429933398700540143718555563964619480796874976958750329084993114883128275233419441963493811145975700595006603604685632674658132573214424051295711194116581763026600308813734943897672271660680921193991966199601356545195347280959928219841993816613697890724360781414330265
67 3 0.030287630990503955543342474952091446166476743699230529787913700000595323198648383581567512514902417187088686145043717818951091196360007378872553711067821057576844697932837398237154205169638260986905751993620122065488998123119165153190542727292904242954408413519438335434452984879083586760131
67 4 0.0017479280490279748082388598127670135459811437444923270015955564640760728701214807527032069183027546898510163270984584964531451438877279436075165340662876163816535413814840941352367731587502625344318717269611007646572284276474962448320153756553842415478608260215847669589062207700586449785557
67 5 0.009821946725675317654104189486728321865254919791408759948563544101008489941033450719283322380291571098530352865173530866476133571234471324970141009802705069986590699588874729953123624089239498036604365417392574367421728260710713831847754812543123679211065465857715713402334912509834707352372
67 6 -0.016091652598578941006466213982092006032681490300993765519437125304533950513546599222576134119626365164347366672906343990755124036843193267181578294715548215504917341211035670943221792288652346633529001906790016153349112666143386243472983478237330628329321947247994545536048766205930413107705
67 7 0.025028290324337427649682566210695545957135025043698861540107663747730724124250277159936578627673216284602038091349686090160522875197077742009066650399699732180069226800320618549351380587488169474117755707345799820463021540814488756672078065841692726655891001358898348593712233731142548643923
67 8 0.010758922472464400210840095165970122932799257783647514533884351016898025798801941258291152948663017080622073496375331098135975559335887371202099759559492394302685361658087705402962163257477093005857433642251834076574355265758598854555202236228398623764729588529488892572136205534143999149663
67 9 -0.079074003765660903048800820701798400645249997007409546327843260213850207284818734101648865661585951519064175191806730122826328458349130879859412261684924709406948050323876770146644179300581889608014753272671133876691155485101332008539684671971386637150120805860553210090785948553669214694726
67 10 -0.063144216752290983009866378044326444408511692650725883511082345082903844555324553888057302293780110605223962749973170359217695984826949282127107949121770736238655554143264226919872240934984851651341129669316096877810103178703368703782282279620249051506563140955524356128683343289740411313533
68 1 -0.0073442352516772149331494995698453477619721653823214137645132497209953724714829111472689463265642747198369405536660776105499423989322831161212705650639345948188627292855258692656177758994054764215313070560367291848671036930056650153177144501675675657408481113959887709503605717851478508559242
68 2 -0.011465457170290185867865462080018835072441957923142970363400742786541870632838549089721414761796694183162889657044826074749309890027372126463253996729542295257030356824707311639045772706407781137237517886027119493747155260798167644650654377324177819632923063229898562440428224101039625734337
68 3 -0.02250093904589497315628665664456803658761916336946200977341234837211144344945833973401036269305533940822396341125793333560760828368583878658758758602028389831313874332813289532549084247561594036176632744281082000287134572144958018176735377222477232447299116592676439787534542939908351020599
68 4 0.004079560682591815032420281800352909026834038163529001337454313044183376566646320276473058376236748971457954829544511809773133669714590051872015928317356292020655821888384468833003704326655244932620635277385052384833443357757741213694381034402082967183779835069073063243610163104858161275281
68 5 -0.0094165475496268781581404593085766487645762350509570933333967897898991927257346427855539545147433675522283357429539246660134258242233771422426619750732174315551442465876271343428015589341623780331144726966958151273544598827404856869477984378440314312631711538072024263834082386796337786688577
68 6 0.0081683795214736146021902001751008480653422270518089411205272415429485450564648776290887983745539696194613389168866827069188603295744824042324220966100694383697312650737567566971378865273655933089334811406461635666712864190003579995711860373147521622989685853003478764568895880347251079293009
68 7 -0.014352989237720466481343730780440614278386187380720362674154557136775884253796169138241457947541350823064841683375817142305404508832401827693479591837788040085927827394543313016705492396134039568107633136333733454684223021107029971904930860338857183484072429567243574211632059019704152618287
68 8 -0.0044985669847933667544889637025399382001747942560356616185762405159444268372731777695715883179537263778224450956955428041285948410681540965407771867103671049137239493936398606189082829379597951637092882270485264186991106869937891508443504549438349352203325729480931297301007854087350456051134
68 9 0.049052705445691350132813899395682649944233123059074785522584228393063725401094624691285762055773914879136624241141319946497426123294641098353142424269763983556568600247868941799418415496471749694641659635138582899082193515809050542972973190170867191368276419060194059709420913907839499875257
68 10 0.034322919287556225454614512216067059739739109768698698216663273288971260768665932131299510442189829194926029692372149305707925128203516202070698036691579858588095660413908686654135742339967226726954248138037633347993918070179779330208332922503776874286192136710652088526557703915740737135538
69 1 0.0033417400228689692973981113279747198071776727388111539378261674337092275151939824669846437043941937536735987286587938101032258795183729532838841454329395946552722901786189599192888263269490377468133965656356046388295212473417358769368924383616363279850940663080674292071806442127134573280731
69 2 0.0046408589824615121468227949493284490247869215389664845073697349172523865638491443864385721948183066806278413204612866417343661656059564430562031079986052494509131511485108572984072675599766612167975522117498859374043523940415467893146688134164782379137360515388166865408745997897923187418977
69 3 0.011957555950427708714529774583934908853487126153546261388304343363258084588345554172159252391880729506979099310129592490706773998876306330002488841384888137739040357119577665546137028133649348033047571773893459598113958555342530191689061594534026513000901344219200027623764624588807823618039
69 4 0.00020179396397196192344901462772179374901192027431203158285770268535999331791280040785966614470575911920519706733666784173895808019671888114749497640064427748716726770124216180911372914202350640778897914340494519506314697769951079661636053279194699439368503821835822337826347517326633613043394
69 5 0.0040817041406521864359641051347269579069105305278881225520781082480879788806756488060729422678283881860301523569166444882046695670547984364335500200487178368855542824338278620446960074863110810221140254385816937692102420011886624652226272212593688652735229994636565535272270263328036749340097
69 6 -0.0059368787890115436722839411461726793498964586172133519472811042057764824577658677387468703654736643265721462990720499347221017816209992915957843821752616053623474970903837948167399191117518161648892278568668437870300318314307028554546416847500325745431482387317306344163618752545659781557328
69 7 0.0094275253619814658802857283539919447422235804994989147703689351567086996638706383538137508319489716682768043811915185187374656015665884007323965703627057314784298634148905375038007727657515813588074737653373348194490518128638176690813459247044536804292668946199114961734677102740347532762154
69 8 0.0039357059724092693354085960928490671850888392976324264456388051179632449153777149085496542697500278565836942863968199668439775490803840713335100696643682681818099373385455643730734005099315267058148870122157724488756862167117720731332058598740206887863225488325951334217421191443339813997814
69 9 -0.030326595488826695281529606765726215339203930070509728359154730645634854043888244932811649303165832861612100548533465472487023529673711685111889714636042379355045248854439252029558735703578247198054274072223231126200564608122263838835666876010583101509274691625978377887530107692846202063043
69 10 -0.023753483543442833858881882243999092772618500476275347011078675270714225234969785993931872139031831995665913447687882589413330970631945544889020999503983297904299605030519703743492081540099284227606074338408246488674294277469025328743826800148188395689060460196331529947866934349125554287062
70 1 -0.010316897593383809083519192125360613374191402215079628548430717826033522083898913073110391725310740630461312803037119471621514384044873482755093112978679378481998610820068743195632665307262794163269208666188126859240442584894241423150693201502516364411729885877389964810579238924301858157028
70 2 -0.013356960416968514666722321119261918682448959213949135280034915066312650789484583775339603467592922023757959786989674536445995915299198237997497705097307863290488832241060360937811380966294924628022518391357702777770857624450826540132613026078742434627022614274272026221138364212910834564684
70 3 -0.035811511350270054260514916938000673723414607881318048516842696588896479700423124479158153845007005830367201311534275028822665784423558245292194111800676234965053298223230177728242785196107703744454275701579045684261663633085470673369484882237083582827595276898892100824293356309501429792107
70 4 -0.00084371867611592116664234190194643517372070752398656457532072473264410598557830694926590818572043861310040152350841080696679166039935325798752371878928091918092955237593267624788260226188446308506412563816986874663103119695687719983486257110128351519485123281524113641100393130401922511842776
70 5 -0.012090557664107713825811519577336343956730785513255744958397788486396863300396042812010063869539516968240045234582848873708032689787541451870455731181270939895827091472567727075462714882857960122113157673353578346415742428593866736890631494687136696252391421122499137739310178262831751086263
70 6 0.018198144260794469177615933021085089393338357393730958212656269778149510022070905334851263604767119435783445908973350911219199289681797306945058975992180636638118307037646488211653203345230952592306451750677163317494878987750044970698285745420618938662518204873383861122284449071566523254363
70 7 -0.028659051374626034963054184812185122303704114649297009734160786497245089760321149756765459122285608117601941301026471437763468683419265631237929468203236387595152730746195890118596808089624229862124232859520588212520818488654640552097620259562329761066075353151593094418681465360866404625904
70 8 -0.011925436481270015582029734836137199424038476973517919589105170470303475418384877489633740912821055557763262289253208573968905083664114111159901058594863941489941883132272670524899944154135512412831171828092424053748518059257227399544924401553665729236690853765272027853929005712382516664451
70 9 0.091298267669603168984169432803282658490416124036718457316012134268150614211619976594789999808522597442604097293981017199396391136359769607062463073509441829097915882736574432473729070490080141563638952521248758077393707328691556986165094506977225839256823111842294778277581500008646134603634
70 10 0.071815366790629656544293056358518493234893976247863925304975595810098977703792087816188921489731225977328369972277732454528794317792588439433898124761446183021778274594824442684867839413867364366278020530575270843128920051245245343881756028056939666969033678827322315363016677777271016456456
71 1 -0.00059565797586653675858685144011505457022064717071946994708187589026087742661443735263366774595912333959284802423330081327951919135433025771047638663766862853239007066009588304984341092312437543091888173981042871217970848518888496541461508594884644251772588436450153308497344628151359345874907
71 2 -0.00091000467861011338325611093023935016536108707915999850371329716300608123160589177213694132854389762145512020199607626639189602056682638739599893864911905782926914371498688114186042541615339060934961026109828176063778148215963472552211614280114164112543512172841505618631229982281862424488816
71 3 -0.0022863861802258905661634941319024998193738658517096164700197067251521750411818102889710402663528817074891425916046634110327756792262750399458206898432389584701036703843273102001514490822104962974131217999032077671654014457643701923277238869448774261125601891161851772287635988983467020323999
71 4 -6.7903281905493970160792850966373070997863234189206165476886727892480852347554139344128168378681411623111789797570724952581475163525781438090629797494619872420277900157405402469231392156021860196405544427010972309352954018097197843283673863338460192663688860320448274221403920431554543227132e-05
71 5 -0.00077287438571125420828047973100628298119768661384992631116285729773549540171853417277835560854543983219704314129604879176479690980467903361502320043292518873296523765390242713863570467964845983963228723074772983470961923065388909432042263554007100208555119604386207811277792865492792482647934
71 6 0.0011329385472760029516109705449939913274247049457466763469323627219124867345371688495732959788323130023440365175296949435272043602053187434156543516173829749893227208691787220783198951843140466842349713311004372250778762876711531222402497851289539950358642451013249524454370136163317962579331
71 7 -0.0018032960271692173276475977958254894056065955583333629407894026901061467460518160264424216155454231913655432241124362452745405986135974392048618813860641697709410099137171006175839098820272744113413886927142340326452053761209063677018364280821769582813086236083267408822977126970512178703186
71 8 -0.00077454715235566907456923506199556799229559317658914685210488134669427968839358850142623675999753705388552648676321678862098968749204575466820580647861364749647247904490481546141779273103821497512623270449033825233130093681601859675223605865702108686919827246159820549859348026670058747848118
71 9 0.0058491676115734793140528493963792590362639866843411713163224244636376773132172848625982277367190158294149705499595197750082400353908462649907422174468895111291646850385692143458672220857492209193130127551482356227645544390674734672799039603220574809033433354509891522154664623006149532337265
71 10 0.0046024049302374171339741762109544936984766274759887793786416365495251064682263789538598468943269429965413563361439068778794725766771691810279924981919699253422032795986618452065132178295843936721952384651352903503026212819329000973621289494888955325145298784292224849239390554638303935694581
72 1 0.0022816910765551001145973948679527366779348827000177518208565386483375779961373664637669025874819608234171543293318435839464868541106123554807503115600448440755105411177548966492422892567929274645037271357569706631695179386125077227003177934852930374347646540009331498448952961917856412116237
72 2 0.0024593668040969312740808478992087378280428345225946290496144298270407539282738216884928431503334774094670943831003240294686851029183436472847023055103746944083010865889180273920469239764748163867295736031073798571288582405423510683044982034237901293510625521861674539101544245364449511685351
72 3 0.0081399877659492391224830403736296920780092875876756849340549111054184384164875379367008556511735772693921081286578659660697587543371835956928329889092371376726553367559289556410610120526971185058007871220053709796684672905254944478266862353703694727821320056216399239252141495501519014904609
72 4 0.00093056905976285333435775144205827337853175750211450825627253927267698973033695464634155361295610532567346486753318039985053294028453096628049888132824004726219499909784741085489433686032900556752117925054942757955273518165501220139362781723390210170297751360556015035976861601075120572957933
72 5 0.0024486590838235083171265125284156942528598963479746767726065952574111808845633072317889491936113828760946209420868856919597536095839155983206977857864358542377841538346490314211464062430321012721419267115784014633077151260250843034138564919254433747908195715752891674475961426500056068662951
72 6 -0.0047032722354115249694904727832892799520853342509217972244717107632076036313688892207393794142613390669529510579679943057087870402957084439139995393651141493600875163864522237166824419742240135778109071715620681973379019024677199294754158221405873432251156681952601137196912348598890238298903
72 7 0.0071428427826861056286972678562635218084012358599009623969437327094681498729620814801982879121225226706867365188633309581262882133338931887826593055790464338754187247666697242334313215584413498959001998386879870705093141637101194316428547660129459221230113599111763581761332366765313991440651
72 8 0.0031839894573335402214749879176928187898325271358146838475823574259697513218538758028621390914202999752729356379456572831533431124091683838167702984501691465276826152233757145384754301331465534015354779911773004739384038013976471400166597918644477513434465179485147885298171831342310592815027
72 9 -0.022087741056912390259282618745285627679744498772138833529871722685559459253754143479203707839505260620974768272460007834134597306379944654875267328291453940235551988374915143152576204775703147048686031160270971215938931021223556203627087690406994276742183211967734316147577652715448215358795
72 10 -0.018068157866134979066815624745439076510567048766897459882082963199068247333334516492177253820408135461092463268860171736969916388308118383579805509869298090380423690865724558633830063930297302639791523852242190256618180485805827324958205160532815299306662653586036456868784279043451150642162
73 1 -0.0076938954773054686737443521338682770561530138720503006837996558795623933814964287969484000122415355221934161041456434039854719268712331504533078635867793901199346712200783041853750343982519096959252844174292560132320636289179956007771493670470973993687950377856158673236202705904157317756465
73 2 -0.0091940114537860698939872969251032458050842772563702348103833120909042091752781701000845776634540758618612567290567300075309802066869300081089601908101901610130080429312135544554126653557268750262996872790123530684209535721760225202970646562081635653687613957847739675392937839335864902406977
73 3 -0.02816100556365563279458639724984483962385337476147277040564552956033763591363638020459324196565171477997648864964700154856673916789495395951077798726413303427494395624349437857547223926043230520536705249442864843725581566223253192465958466853875913240506682061460347935121405426129124439861
73 4 -0.0026936192086060747497448243036350320408211701539821231382664989007948386764575102520462582870645935195910753708097048076083452155580797942527630026039229343118223409215855504413142625048377888139497330678617567024132543513033574217772099342729312042987007958773806369081037748527077240025943
73 5 -0.0087104468880399773952897858414751320181702537325181263120222509782207985166494648090418519395160951692140373840567974631804938098093135264751169987835684865394002882945719860391858893837053233697473855732198001574296710236286417133461453179815296106458085808814824020778001259351367235435351
73 6 0.01572504317874879024569744458342876972450286484084119821138376025159972367688497891773444330944226142383281038224024943357142297176671876198604376148284256268813746878404425946516897524070255668577754117179259551900178494435922433816207788482569787636581812196347366935358355637018360511972
73 7 -0.024122688094637081694233615429556517539950396310407151982084392767717574985360497706671376379758428274529205904216840594757027689277005927401771871164684780400326783111664702388753572838758955061684741895849289059588894224272820007882625111022791477340201148264151175162493184063643799837995
73 8 -0.010699782371324931517375961337344945977958271649684279445497229351263736556410098540956203914468694536173368995585735501666133291783379754036559398027828333876625016410986476031920878730081937556873465611387983302629762083984187270685744365674346734667237727915323396924815670712570915160073
73 9 0.075451977657444095781307767531878948683906466008122698893868760486757810249504942492164205314918095750363702013345715350849576952963931902498003554982846330097372064236783765801427782256631373809928472873024576720531644494625401153265386663149984614054095280770910212926395067680360816712962
73 10 0.061221447501775261786214869604623841770998182672996884295816939159140375024227082943598079875758308737721900082636487453470873023071609580928775902846945235309938892706871067203351043128411135267776180620163716102163814817385223001184488221911012388594834237579120779662655421483030666640132
74 1 0.009275719530353093498755468727263476433594291349235217824093932005649661448797879105924446648845411694803194781117961851276228251932981493899002389024172463846077162604730243442429016277562398567141491864237239990690510915259790115660266094589496636285738459405545819927497334896652989529784
74 2 0.012590081326003122482482392134947786915343180937474543614027967643262574378605676505513037110424372355114874093971072832152872678033471582037523277703015769059831033488103362537556196125800760946662853823006101402035233771037983081376905069159630705434622356195592110588152625825353958063355
74 3 0.031053522593026848738633312401979791330374001595637761641713699345224111562768907104288132505166348365991763916855681155368971698336256561493281144979428988285541235736096623203934556440991620679735225492162732986868268100163793210989581234825433251497494216869943755447569823771787477920272
74 4 -0.00084210312000463304511738209341685925710402376688617164644827883769814442778759977297173051197614556088110839471326218620824812725296747553885152864530467820776399708929676052230146234544567832459987034798971040738153071570949839581268132829311236983385693196877964901222702390015997260329814
74 5 0.011102004085512800958850585088335438009253601657248918408149996761004674947800232833100043957574197214709087584027461862600059456547604798120358337632845911065471650886587617258148261501232121614457528892928718336733899936436499383578993497298805836069534368702308552965290392526550883606827
74 6 -0.014681113326340838292401440225667785010535595372105504279736147441587994489800649725162274440380078082559019098838169301367675152343413169197276449178832505458180297069742043696231018728644727700976964359166694672409858678673401717153960553158466554521085226111944400740431631522418551646339
74 7 0.023620735565130773452761336533356110711710252078220112708686263670227814477059722104759928278062809271841861108662039721632127501160862580213807366721891584751443482502992011825452585738593461870472452090644653796350940365803106619947695278474805467167324375415908382203851684671198882035429
74 8 0.0093141029713273567289261462493256590385894531817509246307914997294083311864598667819387184917085568949070794088531872575194375262835617604592722538518418053221573027683469873191298825062457598701426728277779811041723581018108837195963665417643711393029434976065713508595619379598691243424106
74 9 -0.076329584060825423908321664169708599858226034867112879314518277104419666938789735540690088809564157141226204070194073043489118151433237882765179738060597282675473644597664006515226998089955072872964198062663960494308130481413856766970923829876438734701340811989473946999784027581078850259544
74 10 -0.058587618428926073583643508043050970455297846506639453186858685607838960993075827594383106587669536750288265830246096443122226006893550582953642345798472414677301819175958535860228917277439489024958653307695361499164550519723661028464871166632161442542553960162246777590588451088178593782154
75 1 0.0042354464297559258679310793936095961472031737085330355341407749467435623680150985374711394883138492031029231678700369197350980367446100333801028209667515326115082938061866544927691193350188085335088937688190398917414247452050968069785841528003610969222042906032608455421606805347518997209906
75 2 0.0055396056140916928543568731407705579576884669550860986492706609478154418575132582731887673687371545280712661334319653255783994817026312762303613459977482776522307619141668147205192439055744689751152958577519115675233497835339730815571331227744554842773805300386023069964826294204889639148205
75 3 0.013935157992186355052251262525867552335567654471575693532560744950557650306156720065442148468345774747232393422161285790598913099971129451899259091305166470190486871042549635958567684346409930268311351525607953749485121907151257829332369409752247292754994298368961210591229136558671909565409
75 4 -0.00034334241185342582787023121790538071789847481632424063920906908873360437653154838780675856717695194825064535206580305151620153761722810241342568835592014110489594637551645134527185171256740881386979539978784605977905012150282011556918977364462930131017714719440298951054767218570781595930318
75 5 0.0049595643813747118501614814954522559996283643624478346604055834158908684652871638942181233305533360993442114842201069782749065128783780951712868646601357702023219147863778918815328248344372020411325426525731313767392079212162517333453984625313231335709426974895434704413535465929666017875252
75 6 -0.0066650048901953070444562186959573443644709386279944239957807958004920419619819492391316234832893454509144559282870697110302155735446906941230349671599199462085641739551549137002610629849712650122801161323343090156090845059463138429297729465515189455472352326000450564629681935703019567217232
75 7 0.010677281006499394751696203530334129271599842669078142611552179896343439593213000596080704647474995452119396006236864603174297174907602425477647352309669827859048534588442350892267241869474682663202149746627405240967717995098417304018797099524834841215388369584862116433599141008492788079785
75 8 0.0041971115522522536829972897327043232080236368098851697139694105591646008191676423827112701781695470891446477345343174375472433562907686107112971130524197058176902863290254803267054192119118459928204168734924608374516088681055468717480900049079171743223689044369471825017436552899603257170211
75 9 -0.034322432551987561901700670403719328674362183351219073726857859577526719346515479491691063601468969758046641800156640254355944313033786966389950829066989282177131449961648211784550260424025310520858676242543447034190464841462283876346074305149969640307142185257998190124507532968541169951456
75 10 -0.026393869528060315494610433330749726736783079369781049629107008788801544595927255943571213723429274359176989780314818569794774728961526585812436624834263278956226248599249860736344894321021371222368508279198277060895106925152642888639834503352479039096069086876907359296438122283463621158064
76 1 -0.00031800610346592582020360823516070225133757885350956535837014939943569181347387527098983421182120784390742675007451019068898114999944358498143951959417789100942029997821377996485998523366848807070284716600938386920825775442826336699104439026988140842067983733164230981067603567984440307309714
76 2 0.00060517979873708537247040490790239492799428581059514308910589413023506779884510896737353813703391206049547099050192484975788667425067993829537770460092905045976613843356973808484671307713834791677669242772573540263921117386526806235668916106943303648339851883017843632555590333822768359857419
76 3 -0.0023785414314845611894465280476635224244023406987463785442871265110553549176448986283559360858197018368623067001648577666518656261960675275121367196724736630627323686702270171933444480734477288231229451402669831620097480987495359445162113899769387063857142791349333993668482713884072344533291
76 4 -0.0022300710981995576993362138116982721210680815194290770270263105436887245967198458764121792041154870008128999574828115826912347503734746083316859474190839506309719215175733869005745708567141862407328220294251442183078810620342739269219507196487957079304187139155963648161935517107341039688565
76 5 5.9576867584550288046614792603189618476282899406901012262060750762443802054733342900944307991646560712252064726214866145115751773596190503676063682509484057603285241568080904139643193409729656630364098893356724535674486548308179834395429577168637282087710197535390872715557090084889365143805e-05
76 6 0.0027751092150128932891596178998861965650187009067678572144085332198081740623077707533295339262249715234436565450258889916549018850687693692062105247216900542983344283952939924077359743257999715060970439978492046867966512374924133232682160310787368205593829778494560858519228477071348251470975
76 7 -0.0036518129385745036817819260433331948905261357291914636265747223182765402360596970663079127796879168570377251107660119539146170321436882791604982852512701447185151501739517986485981066793462832531128958451553548864140961753014615079411097042705036924296684369152605172391096953626095786910517
76 8 -0.0022019110735628208154653888097841590808607004631586799608081506919197923055597523394228839146718373239516318049266974454056913004749170419770340147189836381468928705652281235160116059901100215441183174520384163227310310028161830522486052873149187752945295383061865124672228006218999946044116
76 9 0.0099875974457258860898854685248120456645593978330860529544633805204227163853789568868445454959671140621430309198446102564939214283917258979405588011799420432460477416906910448471615370612159823774374512267679898933422830844933683586406787343684758507078797771247638420741065494800577481496465
76 10 0.0098744623348043854930280102886885669261790600069684338970878968150442423152682471103658767705050660614654922277702097510853268627923751379148077029869156149851191253350840461349571485513257179795759985268738448544670195432649149690024330066278051516902896410228537549897372408119361690754121
77 1 0.0027407516807682900795273492841485029356609408734868597207804490255753349240145664971415529966774970719752543654734676012275289669436909131324655132462849809633067487875038751966895246737757445261165709833280826557724953432870909160779908421393225256709294495539496441699632813899580512167159
77 2 0.0037704234263106927000671257131193531462626244326479266688738129536321975352813849951974974358777206357892664896739064028949419616870507831288991897450683106021123192216035992749469699004564327899059992519560568905890218632394033488400386647749491799246551950931475547991576557794000647324232
77 3 0.0094668472304811042210543112037624076693480531626832203388908408052921545495933346554719323304755049347906186542764460174142275530075686289165064436095795919693276845755322589667607208264159024227274371870403290118763384590254316571407777370811953188251682436784999183255184479546866702194368
77 4 -6.8906448174611666186920006789813264735867780053554236203659326239091973932669993115572709542301994234028909665940385752482027969920957603316131457986498892095289597644295701634134414286726773302213650715984184779700428896159950308125999452004223989690136174163210509113402440974011747368899e-05
77 5 0.0033158738190094626497159037441422868950672891942328229542145173570576909275848410834895081666701684543892530697238396765458692938432291188789700289773009471551013682970827127500788948668224017050144726073141011399429344007759272544522134676197204913069377216393416274522431899222514816524134
77 6 -0.0045760770912983393799582223028480744786777422079720276086803476412789304319326351193369039106908320927384898661652872704232518961050147006682092608984876052863397740862510881503221488132231084858396696132110464058815186062125342047117930406262762478167312153649178679439760853222812966482795
77 7 0.0073180598781459943313803248647945293146416074458009481932418275310683450387258448877790018984711091419050937416953586395344192718171375839661847450843693761067575526450936794322708737728266776018500972428913665107057161953711432336738589496608061568817472489605803174267825013318511405954068
77 8 0.0029651745230150003421406892783319305610652375815982909182706595536894668206979278480518621719014721466611852497789745782540405145406046150787609144926939721713897832964587458096801213443090983126566198419091853424665109871786266300833159557400631781133572667112324245714970835863934516361796
77 9 -0.023604240236309567211067958520500242622024180692708545224438136428284591151435540717879694217475676085487790037776591144834130480977883060344627285672504478292072345784796663095909167192775980111538342332082087453891379794236985337227047100664401633814123715771950763123065767649129901571528
77 10 -0.018288362376898045809312765728820650040611680847380884895002308177093780541990387987121762247590102755000719055777402588233636900470304248170713907392415236454692436580474227549160117241315182815254311061958278622176552376072020252348186312017657404749302853420916823172544734646927823964434
78 1 -0.020399950147100224102343501741266842153402612582422380750790482680088709276316858069563407385196720931996712985238226474125921194671313943498630322675854939950439543802601051015579821474540629461052475091184064257440769724101487586808622438695529671009164657111961907670351023903291653291356
78 2 -0.026317249809753214694553575388765152439851585562243305780616042230786519523647558929025511593557775284056123505679866113996421838429313681776380542586108039429649979546890501037821554630588051332145295787707235443567061818081126457067539715329923040774930993082977454799265881685655310370614
78 3 -0.0699027173811680723662832915870106413284533647202343596994602011778205926719621925572415272017950140939276592791910297962186455912731052666531089651924827274844713294344004865872182068039738226179706941182592693074100371683649551956953590295950621481768285525556206452300828143496166797888
78 4 -0.0010329169010365246199790996800185319051868980490305978828606409322173191524017473906044683530647056731747448052907133024004762820720714178528705248788495728405274624070980427063203800433082013932266638433110105009975713535081583975969529928382184165611306199268327354060114498372778439210995
78 5 -0.0238270384674627083326792805337738195777679716736387763103759601241703158813180535716481291593163411502673064220995725093855961185604953360123701710227810390110120772029512968647763194360513611117722249072471888086456024438229553203813611752471814865017814135839994958582772084573731662025
78 6 0.03517523402797410420774782968239770491107202475260001237494557833605862952344838734554637028085750693251750830514301693405286226708633347977677129591536232987187808837945712319537066668861648801454701576208758031853216388881449705390537925444315321082100145193063289238419080838439298300163
78 7 -0.055541175749218064105950542443283520924066250001789533884279400914701984690654407340573153565801108057400320671250659936588785931874268896511948176064941227586673982959854761264664532353161500058068745622371405878798178045762513273570348057921175676633089363539889797721492446681519312833809
78 8 -0.022867119195298766715517734529002021300304630929399610391719646278968321730039909446694460305467698776292054133622997162581879072921155207752132235826339117962960017067769005631879286258936677603638635629062992460807250621726158885105865751224109237083942553477858350913758801190590646481802
78 9 0.17711223332746832016711465166151022165541086817586517867780884470683972302818297119974935501233422479032035730280990373815225266930589847660212067938377415328135426816389112457127773696139727653846174417877997865466304012546039669618840985337296252592649664735126656408289651615182055675596
78 10 0.1387724118674258281303652620971601887653987725251740975766349739231355918861385703338519797140168118777013590446028289630358166093946088558051574785279689498619116709647275747460641014868473310744570254550097568052033205105211724323908105809578900963773989712339605091265570265345280520571
79 1 -0.0082308862149990644304067862245105496452301960653922691023623015204721467219032076626779568180479205363195895787483430722505529571827953463505357973238434412712995693314092505688562031940676562214438866960270425428353102926796140262752991229099036536904943633866198206238024522066893712873205
79 2 -0.0094459845541453121861874324545791396641234330713013341487610083770737958991056085448434828574519619886845504584724036231927031330649781855756236660349115550084063893712619994048841023157443666614396769633212120686031798047511064458032361218893724579421439856066938307892559274759071371876618
79 3 -0.029710701619133087838832153100146385868623735714209655639677333474591581002327814553622331310893955842927261704831098868831803916688889883236405060710562233668710492206484205507837149951995343023409193707906437729655942101532156676837089728790422395495976314641267955436229043790796145083023
79 4 -0.0029851010738900243978053783654971476599099563599683707195517124666531773279231259406346251995986116226405562390263614546124080723078843054178676860707181386653572560903150881705331435461745304080059378415704227835188711746620005405361342064259021971763133251830389599832737495748175705229446
79 5 -0.0091182760382355514389681230814376297973109442449465379670137617802124787090908541754808639418739246148807761974750250992850395106502062530661634122647695311835993359742372558991418809549765904292868100468601982191970362785148665356798426892043145922047389379686609536117816399098939387036155
79 6 0.016771715175343647076682553816919466175691793073465706038008324102816848770375010404923042801745873731896536885597631032302702275832530914459458043322803055246167453178418705504694028058194437460896964299053105157258736510819490334754640200577099753874281407510927361975561843051038634141689
79 7 -0.025642904630273534378971217952122028539981821108330705820307853005846358087677100035485688247605752035817807549830510925108319741933753939290505694373365691350845756004440357781112355646242678251158458515317067573166397076022648975159054655245070548421730545894940255812774083337242871032799
79 8 -0.011368625481342628004020606093743294647268247718847002571169366790431180903530288053577915763455369937367129256099481260351163467371968225215211492421077669081934308962278299319516702515418719916994472328920661800547561496542433610180497772316518639478308693985676121074524085570870684985286
79 9 0.079868153238384972716347806589937092465422736454785764128702532804439897526463893055658929972573561154119991668262259611605126514837935688896271668551221261778665316307553977225186029244512642590589828617192221267842195537540387577958112402201908572599626991018158409847395574245228100540982
79 10 0.06494961750511603255643252499313854266921711881340357643538241515382792604870092954991264949065418087428673440699111776659128850894870134424160077308233417918120496436942082639016201855810307677544636121915697187472182639609129577595172147787305245352911146062612526683304176130384108898325
80 1 -0.0039619732004850757901990706110925399019571698281549922785413845837327598459129720382492731197102369890965088187233338475077801251204106289485527877170282167344583706569851281994052279473966906821422557494004791533412184513006972888708655266538157146948515791975430750941195716828974788871947
80 2 -0.0056917030961631846686944754045900190076985009446921402172533754054407404715667988984627684480103408026058740484510129942966836592891079489741581568809714311808493971765031996225249198311382541259523741179819897624189590521509497736025506329464407945746539360780830404015117116810616109118857
80 3 -0.01289699128079096645705476390245441905750094879842786855147786866700834819440442707216564624515395835813434209916831169426642662303437260252502036699026978317177576665618796445062319244131719679304194437628833099851377770942560254706434796216285477062229290454679477112797161742143199044784
80 4 0.0010184134514913398799989949783992019720583416541532147303406472352952544643616668228078498959621477456742211800187956498669838413418835084698497948053741160157507380424543693494356481736477954651437998389974734639025535358842607807140883785450666912970372725336779386138283849158714006336634
80 5 -0.0048762932055361774250842578680167507030163898684064877394910556474261701482420245658071812489871882503381796958935601029612002494940460186966231459845514965735947179157776719892372138632412587241791061358642689621519132619006480269680607331123784633396056520035650110447785218037628309605103
80 6 0.0056138007940939469290552241014923788082813960885057063791907352977485570531234575766541346678727091893780596018856720194619642638074588618232354505560273646973906411782815186150313655317190557734689600734156299695674959621842539387672221334917882784785178092359907232643030080626008832624376
80 7 -0.0092703473324139042011688670704203855588764909422680299520760629640304640268815727092426486960859352419128444845129584371589127119914451226800290810895750092417472725611262662280711365398485096054448895184214827269054523573802951308669451502189285392204534177834865011110939725806173235010496
80 8 -0.0034349208873673992503628457998897382965078256542321870844506472248182403508580975633256978329758122531010044538313170604879347320686480520321683934692673412256072057362303232316628825950835503192367525553397255769499774027684840449019076269210119486987507176413294600592262455310760794879856
80 9 0.030494060022558422686359527712273871018208694592474737625486803263988303136224535438136257300299413484944216515561070289910277695461708775779799654601520684423354671378706549979151993620526503099510810907657692193291760105473909300982224927621614206182218678720709527307523843718689360816192
80 10 0.02276191966679700863034136005740195500806850812713260241645850720886573320205270924395718450180293870806393180880019618265545235020650515591761557023319559290368653683587689730349520287882582894366561808615450894320246168044925861904105837850268469382468929877758657718143424336144000521829
81 1 -0.00093852943989888650453673375751721452122141971556669769037176305808808597382578318717690642078804737036738036006595967218689122582607474512066105478072320778757278028351821924120073381349020686206842325228711177335818833712812858839106596660993921275578852619695206369751831975227138954745477
81 2 -0.0013334621960425488422629874430674141992099915506072053517170441984860948626048432885220729862711731572675114565081698627584862931542212042172625661902179544786228612249041444518028961780937992894525851639974590827885872442299675555438165546174436065633906738409013811149358212815590610106223
81 3 -0.0028779787969470396099065075967624659390435029419277825497107341597150205115328229786514145635840332274275084192493147821039151798595599616029739098029019516060673613151843996755335461213695824119999683482169592597727217036911396481463701694605025719881953919112691280201915748044885684145311
81 4 0.00036748378361857227731994193611692181864895194937558276589618703855862617869337227002892729736249270435023002441178855898084397985315468941370311283788320062611158401429206868583663134945466271424778161582947883772818827471668025760841581870227934050236612166940919553549312795393116157992052
81 5 -0.0011404828777212318805042626559824453025632924888833577266998197925865684897775027742723612760270165681541481736324360432852348370293470334290224906334539737860935984976646265302272286070793970963337305207353824880137910770590576489558954750993098877044792320438031472621916081214589682130545
81 6 0.0011742659594260774153922161970662644145541342561338429280481044279472707906801043913381431159558343580324430294801027793788817401089503105543396157864280553211949830256645290901891522352710105400225493842728027765304883430492711224437873429731651670397850830661565390164109076898171470741078
81 7 -0.0019772412748227552437637797622174608193523564025929252258001946253112066005316122335333053357424567802910872534499998920834048206060134408968295555217664451902686780693957562325283796778441182104764153423769379817751906631302574996712074136709594445940821284006064224298634453878345843611105
81 8 -0.0006744925480043576848039783147846489800985278141621811306080156193516210880326185020218648037355798167077516885811580369711799380634521582425491066666048318325891664109631351490900056501501755915989966758404433196101005408877406005957780905137087623213652189767847893684870946348526028938158
81 9 0.0065558589305950275526824556049763998737401931739318828522069934711374485020196760606541526893311958643269196294146920846159518862993756699056931972564762001714864323872474990505398500742304194107617380547347468865153264868191665407679820681498498763390811341473623272012654863747960054323064
81 10 0.004761345555082046758460048616301461854659765306525295235179285443394949803226379217049384927755323307781324302918806386621030939238261867603111844448265259492839824372130920516654054563851696465649786007640516788734456104787786532086709914964379745935581586731247468298573216801264405738927
82 1 0.00099453535248623858084040637106366110830699199962284389891719910850682978658328015410158517091731973758569810775460733846973638789861424863355780240144375974660743541534685054681745531978608038579897441537767122509609295285838418205322279073731919949939672287270176145893678721241897168411198
82 2 0.0016588787852211523412271790424133644051098082588601528074366840295978002485886722442761832486744117685889388587459283711897024889953204156555091087220178390129793952194046186290301237093558699229027493536582271130309381856418652550727593687466934546341242048043154141865137202545885491895186
82 3 0.0036192233797101120706825645081960410287872910848315172576772223220926518708249093964705019867988517581213492551058060205420704160842272891751563599224681474903634433129747115315213918103517135006196011770463127069728321601683706932002682834448282911080536676864570405991029365986891927638603
82 4 -0.00020923026950955093993223051795824316738166359678856774742910231850691609315837570377874152165749275269815514098019425937342746301886319554042803508566540316873624371797884550087975799102909024845107151047902442041034095800930135317016400646417766756090230336978130401953503714291447683452511
82 5 0.0013495988471342690081334670609793750348974671435348845575724694586629304745999743174162006311076446559531409326679347181853728175822720643241008332122790857134131288697863389760677232955813610202050035204776224347239164115760729426981329031552323853562749452120203951807194284981535722877661
82 6 -0.0015610536849515077642239421201859863341031546207913472595136991702404193226415023769183980581809919870686181188365475163893905776377342550966510265316841436047814578987263996709941179478050615153266931961004425341109645583780538891755450296172930987946720867839418573028307047146218823471743
82 7 0.0025967122642163628198206211711113281168586355862683985102415895156135776995613477584933968608511760646779673739075765032230254273359594844351922865272314197755027838118056697328089513441475238605927438827788378925230500388179145147485934087742847469213973770239757650451136550155198569350058
82 8 0.0010199436685836779324146103739441658693590028998676236605585553286740356324917233709368422260128911453130262805775450562478608620946196517817535123103515868427791980294309190247500762153108862042680290772724612486756286031432724015589263485035234415958433974925623670199060776439903498530719
82 9 -0.0086853598801667060520232604406548962380338881256668922704368252290651678566102033172550475198152413479886900370204917015086169398533700972264560138423653708537488748341731526635430596162528838952296718930793701658419102985412647725729953780590468009103725453294514600429314874137241283783261
82 10 -0.0065377835530144957754313426249509955540194555246381260168506791661525607249174826409144834751666426981186556383527804317514525575476176882386305640733071604539564958169918758697756319379098139368224509170901467732170787733562201798237352984885936481062675866971648046403172226746081999833034
83 1 0.0069784926755984733127592143326265096269979999715520861641785245796274584450773278773109942339422864754945437742913563594013076642938219741361222599362743848523246770543196659257758465981754103250550140124517777469687566184698757924283887670345812541257923383416250562967276449052508156940603
83 2 0.010777248770937565828663604502580794870181565909532303636039334109507363054546886918443190302826882533934294189355868531724156966802790399248681403359580154514026607217693012869388372406336596126477744312598692147335851032072611499299718100187682791169915052980036335209322876371689363749955
83 3 0.022359519804465362446897710431275900391688863150834230867733652222483942215373368115077493168526138015303314793558902307392006194790411261412525910859208279048910135847276030437133956901623564698016987030096012282429613424550563339664568841503990615833403066071289900589184003445970461078996
83 4 -0.0029438131874497523054051688383192115214296199347518012997195499299823928637746095067654811701298931015525409380141844680007605989773581713017730579699662722539940886663288136181632792623473387488336574933117455083672388970973492000485709175764727183139208432347763311030495536207247029193608
83 5 0.0089315104686904887533730040904031695118770419896279638095337963865391886361970035759576015877181973616111637710967870036670958760082056903157995136095678048383949401570665429361387311293353872332465348635197040856682259303130312350293732464052441046407157898524890955795749442895436985521042
83 6 -0.0088328683855384177535669773967136821829901033360218398545951363344472575306157176663793858168472120856061776217625790216881951158531580144328779357108067208153473309412136954193080952902453588658104010331888833860272974628841840518896543109099118997775022932346470393235833580083843458154657
83 7 0.015074606566981788065221868100320418598067279680477118417664209638793899282857215351375450214668515409569386165597734149271389885223942899434690254314782072309933929952548476280154236054701792900086705639688621665445793196651358832425850717221240143134437760065723001874881473692422639527894
83 8 0.0051996056314862371940452018506517778480847017795785138331875549011163159368961429033980537408550748050014330681227895824006578393492578733944460308499406925544189556749364520249582865131987013552978628912487761283418221711213847260286660871095444013142996261212848646508066626141588432471714
83 9 -0.050737180833295651531995768985105634152603851789085238248680492421603027302151733276720114458986907187237274252636700457601374091801001303941989613780538280439340629481476421737961734447792003156705461176684391435989473250141085672131915577250767927646717462169167105445824922162249003979469
83 10 -0.036680966011810242276678012879994916040913243264503281414924214817389073643165697152094494272734807393281093714548801503544355944270915382390989166623696359699494671127603776298772703902636623096333361024095878186059069389992183588240221719349437013828234442414900382794700489359851806222243
84 1 -0.00063516627310923319532699641597830036444623027709479499402815586514796912907939745488200674818189061440503174567855341661435367247823848831879778724548656281388714888827998253862820151973395441057421985498931630466672147335121220248626272495025260880731107390517364355656594417300986671922703
84 2 -0.0027561877833186280310617866763128001247777017201280812713909381405957653797753760678038953865088741560172477433779220061383691201680473281743485050283801262899015001065707710419740945223862404801993728620123837795138415333620126478779859263290751102411509449797074313306540770589929574910598
84 3 0.0010216330244617032405999456486485373928509514971843346401322212162062738295974357162027821055978208494489978941909483079831589188837587451577755669094604322944828955728500902409447597124760283952080057517375512607290286420943741826827510297376062025808744672854485211984496235735584474689874
84 4 0.0047905432752019521501012416626552494362977393646033485992828438622502113640772826477485945842946842948137328056736882152469963469224102080576882170019225905423822447346648514453303555233142064518585577758130507160600638078498291551973539279037684201107935808236493390870726538338562278761416
84 5 -0.0015326268707414612290605577351214879932661957875161125284333444159637673703643329104213225998957794707658843863443650665770607633008508364452775058568865120929189048240831108094721192539167034150033573888496656231872785361846523325690930223918547014112071170159659080331570427522420567330261
84 6 -0.0038665489715628458763137198415655261100991420136887760138752378641590745266441396350659723206533638596432842321624335206363993284280258500349694805552233681212043084560564537810635456489116103628175931421729268411718907456264286856787140048129820257170506050454527747084961521751001202750491
84 7 0.0045683024096745595012028090060227329709949344722607522199198703678091853942492559587891918002502497414283517431889696732976626818915583256994574659083145053366589632494472311268054377384855535944578926366952433691044578612433561869852278552528747909904751020739734173062254812541892039978867
84 8 0.003437325849135705668908975823541784944078704277210105068184040969844005458970316623403708539456963246000176819566859807160552296977982101659356605887705479635404329756857168419944924948954058967180446833219662455265444993136773636942674245544651646034080560016120602427563501850218519845845
84 9 -0.011192621605227509710101808656605188692249024024476222761412083505987154152557823440355414302101572117091945652034503836431942667651193785331607818118189174594156908420677674196439099584726620233304960790845883309311098142802084125057275156032887145061738910137341358393005352228415431587739
84 10 -0.013200190296313932306588057637295986696093503307315434335382337946057813469770200224076778272832124218056579814177303303036827958966111597263425887697705400219047928672745681141326443277329514413630480317663847437636246462502268253590815334375904047146860085670294438975326900791260602202948
85 1 0.0025584658517542162650351702409561019274244812637096007534632743313941311086008356593997236361205115785539453549280970329139331907735746369085066782708996592917800405974549356842589849370319395336539622344060423015714977403586366801490366997641537011359370972154454902168511960281579175758543
85 2 0.0032462974194444567238977589901397489002581257733157446982549666589539148557152618608068574063174536404047222013629634936048889367061063223652031426372444301624066941753394470553822781728646671470499185863125835195475769552419204372631251046685695902222633470481516619246123612122697921364525
85 3 0.0081737548573143704359786903745630352538299473366526219923603476411686057507526149199780654022855038350001510788893489391107210851289608387680192502134553026838075850562432705863613355486383302686779180591509650026425520068629313300001765633653519646789243134193389684905788961546774700968038
85 4 -0.00029026922622474469214946629109041659695181778022990304009139065990922154099143105854661358059941494278410143998867455204149354786870779620649358913360573767328816391291378265639812376337093177823030652547298329157107624312114490285470858199480858626993690602229474681735195694936539406891661
85 5 0.0029377884721174172977765265525742716240258301248703471391637383151804044177043520065230481851681967358950265163963608064864413732518257661424880281498007716314263669557711496811338346058311445767021633375002451216337303659437635011235879823869601138460287970157815854382192711813403840034821
85 6 -0.0038867564727819772440000448784991337250162901897000291513105500300836202375734733995521609058530118050689854499327476964844588830160442163656803112895507321221780303003142427605277011237777184866318739408419627905104975308275119831022834426013964629817370161641231922585062710810187458688582
85 7 0.0062305565504423155147382754576863378462215024185769425210829768181656396672688105223896142258323513904945888557687282467498124502882093363851234439371173396192114945179746548794193280521583258195488449522567582378289256631539889837977325968391895648161960757849441096273338745300157076227752
85 8 0.0024013134001097333141592266244751546125687808480734929179388181463795354223855717134846688021467284522394622803354632547305480681279077544914407462092849076554401879509707820469437031363584524666171556760313787032848349987927796433932731218202541111467594843187697295550823245126782602314841
85 9 -0.019978542023501389275438750770373706380411558251492238065831086636063128960568320618314617516868196160646209423353509838270589209794335739376285451444020415370771973158934509284264048448674141921954549747713317335135366113916749583371248455902602429567285568938259925449525182156088578721808
85 10 -0.015291960279617885428066228763477208005159420815656458899952611341641569862025841617587341833403772848400403950265788963236873591699926961611869550272667961023452712126816085871071867074815035869941811011409004958819258295406723602042058729616654265600873247206008993195755183330291589741976
86 1 0.010851315304554607921034367081514880006154638254227865279093591068146743160071759902941002894556016495585393987722050278018760559452878210212637298085180370021636505220215138818854851195020190736516528798802566389529146102788923084986898971655759216866964760583411894083071221533125441324179
86 2 0.015892685422007322239244583056100258449017058648408941389493599628570425435994440609883679965860654335482649707291730958084203207309543292708938573373251520855021121395017871837900868861269511177990347016421718633322882435976029432855644196679145561668978373293844817597115010082065821597327
86 3 0.034622606645270191027529943727915607933358478354167376446274544200610210228260396222363811771688273393027677854545796904988900012748168089834393656577161521390298867246467521881970907451250240953669428523834192452714068069728636308382201595672971081160318436636371936507918599342405042521641
86 4 -0.0037048441673368715328657845011712403247778613389914696223911210075493436661036984205792072313711178224837541270998408485258616907504715068991796880732558386646497709330610008937977846665191431491195310439119729221977966658072074254674976044824476575144784107127598135319187995148482750632937
86 5 0.013470284937953113310603525589000724884480078819320024135899620242468145439938369958652569638614005278111361285130005029239461962784608717637978550650192757212331925926946520665849787650595521495534648430596111611901380205260294584888182597490052504735626838546656803227182576975069403453379
86 6 -0.014412749639123007483883008428258234376960435778332786708749388494506525643985351398673388246079458015063422905502294390462977564521429612952889441881184248828535098477116673556074633498838166082289719508362843406977388011818850974360660764306737783581153385263826294034713079614356890682755
86 7 0.024144649254340883162055581250371897176985390099556472941391285996401345166768164758813499887515880247952041132537973714382188312908066393283625113988396714566107273653616587239533833668115973224142673087816862841531228615952389123126478756418474315141430344518355914197074441711825266975754
86 8 0.0085912204301927013084328803715022188055020649782064669578527833743308442125773316251119558252271412367114109953710372510339265477115955951688604373881445001907621610243970099221834700997754787791081198416516370540597380929794282124262366454386559731511759460922516854224747082801907431732843
86 9 -0.080119832738770399130343319387038106626583318721461677785286155609347631185019637274877314434850203244878993273634060685815510335486131209363057898135191768712292413448154567541173330057208363620000169329949785576173539280472403264349503172032187659195458341771424610750232475102900454829058
86 10 -0.058849550448945285057257796135319416367529347558140350387733297871634918049764275062655662445188274752512524218204823498107495026535412354988782487944450234874303571644157822916820881357448073882222651853709425025183352507228855413915918189380583828713935120725850225536680849384563218987121
87 1 -0.0093121160636428264577700314274639597760451386393331019765914793700805869346819615543263779185358751394613764302471284103923343227259918910925352555346566550709455464063022140368157800178256153188027089525992358865922176020057786898972726744515927713806379647302651224761389622674004955699399
87 2 -0.011702439264318474398748977495500913254605295468365353674361165493643949753424370074456832519006797250026309882312180468645615094157880668259976815740824789696638301024750678744028716260780368949758197741348844936024807629605869425648193941767537695091413811903814738785050214007063977237825
87 3 -0.032865561176471014840999302546148110591039967131183225723734690130420844979164440009758498967851086832731545164716691628304826651938647563801301276416800697672860247467354028528524225550766896876894973530474189504045186062654495596667605192910184386023567625130680042969743736846449704792852
87 4 -0.0016065408088389059588010500296778422985679109470520105332047574542397905709613342052687603878144722541842693634117397306223281999705752978795642774882889678461921391624772623983624334268383696349055590474336759342081348666338778577153184807673078571849861277276385656514552904065994929783497
87 5 -0.010767697435180187273744884808690856148990611285232496334492938355519334947568629262262581908533345002086114952990719827290117599831559112119139203795817831473980456672396448084620747528386958009684316114857353936339494304166861421477166945764596965557946010143513511616788268492091259493542
87 6 0.017286503326437369187273928374159101379085015621327268672594797005285218004267711892334786619812326406398307349277039870228651892505485249163491376461734502025690631347139121729224609217641550930312506744283292235810782220327737489278408249227196318996727856053248791620694863037350547677972
87 7 -0.026958065731510741250166085070058485241674589378612867838197853100063418227458807891343220332507549338942819125751626586876800584794159650788737474533459849160800971501438826241149156160932438314554052496375880529926869468553274857910960371676012962472266132224079630562168909247951946350809
87 8 -0.011483806843711720336884495287601838654995006156034097929994646292898465251259351279595908251626497934283592705832705787847027862507735582072017518502920554299086318909533067385392116630492256153437968366671444327863193776254565659538252709122763140956496060369124367157940178700468258923822
87 9 0.085285933904221906792243176979532928579242625448435746937946807806385503770367329750850191094099300292702341294155180468296136315530268972523060644191312025927566462217120721291515537830255754456244762438295324371316261414246437791041401336614275124261770209641150900184413011501555374708505
87 10 0.067852616126899017247124341431919539787827684730479570418890227185169136300880047974327926459018182973383243104382236866754844489485929396531101831095825072599895590233897913259395481792329241844568983294959338541614908600787620637211250893829907788633257402889840046370238628706617276931725
88 1 -0.0014027735039406927726902109994781970484370662063692744610045726643078598021345066098612963377180927594844804793743205200654767072785467725781114171618916311428564466773776012625092578906217693751905517103961942894802673742998907926613939761991875685080014754286954307216746403351033868874372
88 2 -0.0009786404668739781488719805279107126338055839562589456442426207062153973909997777137000141667989789130252954461390786098728541160203935690316679977584030897066375151545200307127383522153001448963600181677879549437895816657780519399841298992127883258235987008023970780115359256119990207432107
88 3 -0.0061039198441296724382486727845151759223251394336056286861356112573109733184591609542177197418504613219865975175913359062787566978870880512143528973805684851716814821798249789677908629272578603872304299874024073589041157725281450368379324188188090284559260342266147116438597305847785267067352
88 4 -0.002081502727030039476358255860451273014982097260898448443652246795728767713214472089476536048519929597584253069102087678193847878401385724013507083978983266677603899914159635377203930679984450622653574310915746166483568459644825318728786339656397724303039935753536655403668817618405325118476
88 5 -0.0012949396897846781807464173806685050708743658427538967516967938704217987765897646611452186689909882976421626294269213045016090407180475633557507460029345441236843635452884146646046329021904452870070766161215890917772343465856931904846567237171941071138656298789677068896126973548482320655749
88 6 0.004481931811835087634994457165780895599303595113782722681007171089160458070366466362093638775689371726475238507080322688455651004117804849222151686758546044966443709562178302337750206925634461764497564906406453122225949462263846614758012215201066488035849135465954449713883114014857392964615
88 7 -0.0064271440804220838319260469477522322441514485473174689837406724552405218394635559158109963233854462589175329712574481460429679113345386022004333154751012466148863545151212722471593077384586110054049245381928049165537667296357839181782411646076477940231351478530259641491891105406432063110883
88 8 -0.003291887748111039210079866588891394041482692419729053381691049530139547735327300810316633728933756546854670300325601571473934819710318688751042191207711308275321449982698509034601466801276015417231452856062754432346097946058925826324449736148913481893719536672382146934667084489630935821138
88 9 0.019057488598275789661234847946989734065158075989640739288579252294462075889826102166682889066089482510821478046148198593341505071185138931336662639998647879466450769431334856795339900226484421238200209255407690417104641498463608861644253088197246742471023192564202128328525910136055978254905
88 10 0.01678571016872926437570968679296466757525247388356692353993089104231807473852716694754157623620066687607925757102412593538918777276443317373034337879970392948961016533804955613434154695968315589919817446588409079927492587343444457976690506572860037033402606596257668888849205073393103819121
89 1 0.003073924082902526399828256563364417273621923567251652757032026091339868134462285315600717782657232475471964965028097745667195045624275646456209003496086394463276054649514882261570744182254468184541254028117250420091335340777947444299631955110961765177492045904181224697264785569497381022815
89 2 0.0044006322042854291448437893616293753415252732376865213352837998864530003284122931968383495022775283069300906031755754830362244895788408723100098238423450114927149384713775232270429670954343736678089074137151954806791766975146747888382081515366898286266026285440494499808670129823454505590606
89 3 0.0093548200101404239931637889086480310753235043200848926208182092155894189931929791659025569577477793336560265256679533088052766559715438015451074494076732646275212084574744728753153289528301989843012896576824981972473995877859891866191231384594469150282730182392740533725689318500666215373316
89 4 -0.0013038273107884943183524741548736677062013941524273252790741228016688622809871265955271550369860542436974776972468337899115628614720045486956885261334755280306644440242087585637928678346136500033460312580761489363633810833311130608299402731512669295843407330641215005151469109722217184647105
89 5 0.0037498969960265920963445401495628949578395635975756862816146258428630963629577103640965969735903715183488003815844332584881234938135298073848953152454673606516883015849570437346409704807218356440609574408125695015872420941483430191451431832978082960673425151541852942785879271355314323591141
89 6 -0.0037310706260742421656098089179716016513748936658334895269543421306110890779824434708641126584977300601394982336983337786309607000212226883965855905973803650608745022955100557157465509348147967051452389865920085635208899432805547677301819743363577871754189448539207944561786065824204062044726
89 7 0.0063339228298687709147624391533982900576140595212462351367909937783425911641418962684568604488119902302132612882549558481143940917312995762283042536420350490559983936780136274093778906975382980840277929329890241505467241014253975491444274562301509766285218451685572890249786268767737824105688
89 8 0.0021175970591259272157636970224944610595832135586540504842614349253835204438324630330038747225738191181521099782886476150711669710490745375549619386887026122498801888712673430617130883478425949514251791808289673981082795076837307961648502030254019734684143402806003289637504403254083037841244
89 9 -0.021107093546374656940794945539508944510912419483665492612456406108076880647367972728316545679961043012866916543922557593500982993085893310411872278769323262226430438582719428052968916266985071474532773087294274410969985473171681650611931519250659457515484233522162266070438941149807393843275
89 10 -0.015209032690240020235688698224158827349636778456656665872671226255417576226691624883450278762627837892439856325643280349334680370497065697376995626623775826117854384455722692264357573976040759809300738787917520581211295260115580647643803199121706270889203918014746200600223872331613199165809
90 1 -0.0091937738369622701037919967245314739872915881830199197643983973010511876913020655833381584661678657565876206725773124966544031687741151323935283025141266920710897454142646979481622186589034951213295206887308248685299609582683614440199628256293279404630249309284288443606640343801116905633675
90 2 -0.013023669411157655547032599041244950670401096621928797541866053475105241378983257853797980394535193415891821306533483328811023436286680515783496561225234272742845662621880532957669887409993597398917126340064333109794179860391896303930969475788989059337322311132899575775504206118022576355771
90 3 -0.029812114404144067859916979667550220686131380955513952300347596435801887737405855903265513503792398729285425007268836437513725596776254905746705948097424338059593011711928229705341748560144865614060605007933141192044354320342001643128720635214847558145068274233016210794899581795418360837847
90 4 0.002244191266675549558943616829114508082287143318732670116608191001486011361189309102043836217253393010644187080431329534058044199521529338707226921049247921414882915503141863702287739989286487025597794972078192499724267668644295059165403173922906823147962791527568688658213696729232689413442
90 5 -0.011222483192417497802448864202740166810515231843153856487644553120148259614055265381990490273587861264930620354251003307844017535991948473928768527388418304652775119607169040562135572403825637781107966637293773511014978146924560030801028398768817043832920306876496443289104920279038760788427
90 6 0.01309643624460618032995848132700220985258116851238816457388640251830173096405105502628001483530409574659369831798430905167355222431784827235608662219491203214385005988547508601368350811958945868265468156763385234839256675457460163118174401652920492902832995165189556634527788562179779132586
90 7 -0.021555647213961556925549711434607278188957266408450914020009883308887674994075658164489176665206626828750183996085516398655812593789835672322633664556738131730615970696765777649112383688403108849201115538384407530321241570586261343725412142620083969001287965468168902931589683966362236540216
90 8 -0.0080097718965262592731050330564914516512089562267419480197738081399913667521271631961417960109755098692412730370718760359675386871538313880745672852237077298583524261445401175590749372447766984315490734940926158217614954139423944010620551076541528845131634678764646573400827220526412124813082
90 9 0.0706948623941074700885967721924596564221622830728694584162972855577420832830138836490327945865775458287775054976415084015963493426753425988838001764659689609160749828291941619144266358599590861836360562240275735747392866817013754403365623715560904844974725318310851925190941520975519157587
90 10 0.052894418334246077775563524157720664576398068971241592463514940441290248154856902863941680022927200594128908834169528146176966225811070415714408806262455199214956088201986035296552764608792437875808860399503136172723807871927948137085217624871120828750548467832238506046461170693027027458829
91 1 -0.00061801312145976387344076898049130146751748901196271867686664215438970682122166730807655879269321007455085597526469474852273081582431776139043576823615693669228359661943201903401691288332629254234648775338386127176310605488065864007059185694537779120073597075901319441670973770904048937570162
91 2 -0.0011492979628238142869656390677248718145930147739910309372732909560974774024474203192141549437255357159593500643429653461781226146816211453099469312838888733900224680205906369807057962966827239863533204885015352883773354505618365963571341102446964780060673057051454999948784204875222093201568
91 3 -0.00050662728074436407939084274439167438600145275281845502003191486239063990500482368647578543667774699716671348148726708700547996558615245113353866438092617261851470837339123219297305332060897049825052103676157540571840326189888902200513403537390339623154583459111940954786077487065288810772825
91 4 0.0016863006625067217900284443547556197278280168567057493324706947946932512951309108292578045384731196594177399403060345565886587010534497912011968213951618441785534664392010650348270850310374712478513864560691175058276110682199372884122243457910678640262228000576725100420596367773049994729431
91 5 -0.00082465670852497727712878383552421866196671534404310896182313314084085818576099406145228246015307529652431545076484822481899821667435741068990879875042068322350454387239226439738663910397551371420601122492527911346794631851545956081916130817418851437117530605466182542373138796214882873681322
91 6 -0.00085052952634351823552919912495464990971857606203176970764110122311914033329247731031171995119737393066892757849981396937432028780542781731020428884797205391844054383199166875515812604207005532563108942088348639090543519469962564004966763713644131499537019290013841402451949616365835044865397
91 7 0.00084821463060286169309165754270484859874481676933148654465178501875518700530329910714598559212900536715473558074519806593401135675135666759604236701047488929778516057780610836261341582523621106306581380297908739880025200326398438876364085897828087768469043370531410036086720134461115595651928
91 8 0.00094641162300514787759469094928510107301370123997663971095924219964180350006381853456032291303444279079969277159340500412225280431716470369671020446233369271022655043433707419701953268978604762395094696873919276510219722207168397915435481414539064875378777414891923816837849373488444451868781
91 9 -0.0017597255845092595232238002230809870650929061963519182779810090868163395872865149187272879769550674469834369135820994440986286712610245479222111685573394928840098320107593811181133208474930911395729148801344687138956276234108890173984956590931824495835754358025949256019427391965640041157578
91 10 -0.0029281583451838328420481312590604923645934212136523025628221031603336054529735659963177408945194725664508494971811904304548673318352595837818723806014556036009834520245774934824257319971388083233053572034125018676280416616760964856004085037831022234535424544198335311396696201239741451107252
92 1 0.008903664961431732681357910950401099687603923715749885331997843165521284931194271749609199435172817612500447717527694841281706463735613453427726924616183227114260085711423878376704094788746448408988105145333676019560837304914621949437725569277415577749178618451823617877746155167949083664419
92 2 0.011663288051547324401230370657491297598074359191545402986815438629167994832402902443233943630146152047774277295199032959898439250939104865489853443017626319306004083586720256013257481297648578428597329926845233087468845358936385806773846356587272480181070074609461266860930718285875806710931
92 3 0.0303093527858994502110893088558072079365132031466821743670349849460325127175108149649642148152026041026786382246012140923114826937137553778811220733168304883975611969944683877726531117086782134019791167881256106206167369193094468465355631258704486990889095278392352301452723597500223830172
92 4 8.2004410709391200277567090396672928802899912550142579941557373778894393055401430700175431633306467393229164462944208699116574908009306738461298951445685254197547215832585767254803638724792697557178871551102871199709683625407079407125870411524106670332731936812476490629231686853928083954433e-05
92 5 0.010477036200341268475086683436391269815799742693864582705851923459598855856745520438767126381670281344575982091759016302274798887067221922663106585441253507300951571089881126175318009918572981096504004731004782228777349306738764512754318949507242476852528163812975719842622578619624345719434
92 6 -0.014978603151911454526139045958987661252077448296959676497765821376958042926141863029096668830908453454318150262534998165117973656983651975361318629343335584913555550809193269808192387412534098922513787707966528406699029502816786130464299098853164350319469537371227685329217282019886066362214
92 7 0.023780446040711943661638558542334697452372548185507550556730333287593191920433451850793643545050209806397460702347014558616981418737352134453811565778154925615357423518979948194762306506642959405939738298088476081217202358908523310948691198053462998515835791443755520389026387677435386850583
92 8 0.0096755681935588535721064574530220671587242344486012547773964817348055861965908249147485837439526150374985476010428489571673017461709136710767473596655486887225475408301683719756562270671365077691305081464633896316196489241369797418594295490055171908618460258176859745345460231468088830559014
92 9 -0.07612982682838206410283086680941575223656235373049445805147132991909602908574061396030667667442765596330695210643442486202262397285523183446682613986872662763914100058598462588719833037563728377854301107420010053382702151563283820612088182447985989287593207739864018693795689100453651389743
92 10 -0.059302143180440434364821305453519850250706433658308027221318643141410265086412830698456779450588694233372875334393558562880272534718521666935510965809944219880738248407580955417529412871033327370867362743608864729376650177358183363709234128164221886763677368530886586829200239838696021180452
93 1 -0.0033644810610096663858243466862926755900754610783416834540377516827280616581711628551936176879289761210502370423157458796050339819775983805026295520324299007636915913778896156916563122026766020541914540910584478891930318819554967917866082947249471038776074133818765008733289109467417262554559
93 2 -0.0049788663640317720022750650008132794152451623530402493550992088523854807598920760358849556452268071006715018955790452342405680162018818938846729423287962441279274281407179599559694440324991222925468936009709781876434367843394855962298249230866170182615430671497383203568888325565107327369083
93 3 -0.011486468782201157283668565416305422295636450298808057671896648380891007295175737818576757410270209853061728681709824022777294314488860648305771507958560666151274135684629811757746560689327779597963926951728188464628384231763796920818942553081540953803970983408737403629400055502935431063035
93 4 0.00059265017334205044505637780992205155431120870479756736479922029082905956046597141704604672803794356460175561384921965486361779002145901606353937719430972436373497130080956917151615060021286193819621832171403679534988752477006096629056969465452328751968567476814592463806661629002718691290757
93 5 -0.0042304727766052777549972690950593008433531517350453390796814932602933911864006005815838577356492568181942982527619256255398733285361448509156429753813211104628850979253164914607842412543119071281333260752069556090326968319578691714743406057633355020063134567829320278810775447531687069795705
93 6 0.0051635796152440880153235351276900397069080697824988615732553902880243110086770406758943954435287454124810801893509641239331022219809976730490993202116987841308045740779067605870863173285202631328498001835406723555675853496198193509669299714770946445616615005052340649785858398395220791650869
93 7 -0.0084474041179189071064229618569847236854190610142380167485320484532742214270663412771262451191789087898907253538882717483115118244687200724611423560601990743709510892744966827409367719657770116819879323243776026494613902539169470456336869923329510306602874436381032663640482464008948693229165
93 8 -0.0032737802428076424707317000917959661746627843335530189828624605648714903024677584306468679267010469831443687945426645066943347347946542162991476966167600830524050760360714384706008188436152670794756661724192657568531326565731520381763515737115832021597321641838579020313599688070012479686363
93 9 0.027721833647723599324120239576180320223337597747353430452897435429069460680566080497945862150926075149034017717126425034065529286280576355010310282422551354549565855960807195814841794827508660868845000250798946612713719097698276838094500586157216980988081229235380295879384996177213947967267
93 10 0.020992554865926892180657543399723893502398058392016088691881865443584601354715423462139290245857215848388770445814484827668649380636888341261011886236162434594184013189516710120820238869004733656619185020229801329292674625635205121533839902639397194019505155663508575395823673317667349784441
94 1 -0.013802195838696552758157025249540130133602777394112908843521469038199058719319851112256913396048656829752214671647844983379228020795512685756459270961847338424077644418745200062493056501783462385434815577277080470377442048024625259955296487760381048216918391182669770083093609868538178486636
94 2 -0.016312877777913228266638192761948604263297138639390213208826539169951831896053945236135234730457505524597850002694139431875976920600540309691816204084389374158199168642284562169455140089836776804326958287217986685733851309556416855141257302160237855850812064301696420331907686897546724733235
94 3 -0.049614562055189152793262071551993378997130914109658389056590647206127941314986103029155473472485821148072687247792712098522412128533803429968540306624364983989535423946946538559964128609805285859366730220234122247820275773914379355035475063006717158340827209391613957523324108100333733492465
94 4 -0.0042986730778800126572948493953578347231778726631436158594459026348812921853666613973799813560189062454019412353089308665284481043674750068793940219118213871156723312187050922682355890222093318760151709835433488899189813244351046242044248437963636858231647130720745605713594559696808694512985
94 5 -0.015505012544805222338833260824795955438002943282080780727484573577560052904268182077716024940550836907693106862913868385980470343509619165225470724960348141893499374395803583490659767257251121160144508435344995943288168719271475343572457415425488777427226844486475120118825617512493194491654
94 6 0.027484035783462437921224350639898438633498351899437140522400783302996014659994001014494355219809404632374560360599799153962888595955823654775051138428896011423145215534887195675115934427644807231078358689882415337714058877330898130803337685162631223078779960043229004283580643623977085414733
94 7 -0.04223979201789465658851702212153172302836358467391594497743888654759828432430587685009873592189825223716183283032179967348034357790317296574902061725218147717895666475065439091765175797536673375169887973738532054709999957917377326762486433161364715456622379194266680227353253933002963037785
94 8 -0.018546510158030973069990049936677489509070038011067506930321804919509848347858431414285906766593391995701416628527607896137192460423177863180677567136168719289496257763094230027391396664049198227284516884905130445829262674866173283634397037496245005986583673536843803484677291584618289410317
94 9 0.13213530590173861788122710113820709426670200222218937911830845079517795759533664861216143561301361761716411562024593617128060241025901857922913124815529997633120724124356620472199522859600961983787716516740601772739960285051727752134811331995977370599578261756247978019394293030513821581498
94 10 0.10684490770167409071768987635013812203714455606148153209963458364239431314622042131169045126208676509971701235447120139628922647944377061399462861849765852316831682489195021466281880054317741455975107308522450125454427152639028423076946740385867965172467129319916921437819831765861617794004
95 1 -0.0059205861307473910672491845927998492493541096669422041177010637275784149178992078583610885594115856416906195172470347059430760396798164250765749796767655746198348638150419167729906998547072885600666158254146577118391613190925757000359978759479222587252522552630863104875070885481819666625648
95 2 -0.0072417394553724423695405435377247093206403257627218763492878877712976379477025267022420507629197163184989917310655277250661889499740802580083830052725377614351250402537576671605109406035932648831923341970802744281353835711325555674612841681986796230906237437067100859578921943725823958096796
95 3 -0.020712230408833220258270161845411201952953414805879845666679245842125190036858921843315889840492402578756386372325909885565774345434489758785797912384586175763222429318665314863638593074755687494767718696260731804180981527343652918741742757598228028705297936453151326004041000518048153721381
95 4 -0.0010978319146880510614053084150431442361754872314399203933814725765245862924396251396545532202870849177478645513735075092748231716269940425892791593608439994439222048173491934974242878247112553706354850280016345827564567975086437236094701284606481083214747185120762590890580419361800701923931
95 5 -0.0067447791353163250780810132828652325301760208917768336516496425637928952355461917789730087248616124291597470779228305098532629154029223850937129121698002129582518620861177515402176684158912590539654447153470102060853994966031139611246613317198441931717123909086599028427186892051569438234064
95 6 0.010994203151835316569728344464006279812725714066107722811732751401928415594428321309488565683233220136728819488184403251477970173963191454015776095232091875143763057927687045710636418210080444022983896595102634333546442798370989055657346504021382383210876452285654461730072873497425420000048
95 7 -0.017095779378775086605930729828591947529421070737261630496728929762498474296205046055589777035895647179010671187432691735246406362950315889190799766212463325988506652778864026956351783695466264597145742098859892639998368862684293615971997044207066848835558774873850549769155507634871271675096
95 8 -0.0072865941334563118792232069351629501594525856856155363426437359321082955006193966947152657482965851427313523284323687819024504747199978334793645955064915176900823979046320022367035566576201508627800323682512490032559579209335441751324105990393393105810010521287644388954244163064678614587831
95 9 0.053905462870463904119977304529532728054635094481755381798563379390073331468166216037895664047883333701102634921492903174920721517200434522847071457917385414604391123966269692645161274409906629232468290710268963621235005832805452725876694653187419466466821915123252045721826199634140009075698
95 10 0.042973950720997672949722542639651662308525199186694367805642461169479043959081251042727899019050842455963472682851264813756773665825970393052972303207556139739268065128394355386776851537877956429010680752475771324358501906643557971543527943392748664665017610454470916637394846041991642657864
96 1 -0.0025155189462759562264478620188206515755870060823310242346135990004961389682507426901095436149278797742013899818516644405362424531053531303642956565711450005202962020257600304789129362108499955338199170126818806268867016728025961979828120901503561202213102337062435713879888110698555678861223
96 2 -0.0029344497636567536870950622732736613996300497094751050906486308290668101524262531829091467460288891184135975676866549873124036506565574017523248794932478041919185153610379668321010286557877467333229062606070442955105850140543293249997025176404924275592182690702191703411719212264429062490879
96 3 -0.0085184864873956812228287460513890282137911197434570858933370850147211519487156023458580410005797092556689963809959641281571522961445484622766801482606221659319390438490737596422967276285339592227317963604377613475363115565826953090245463954375210722775557450221149127995818305431023757664892
96 4 -0.00039866120406354847291091835795343400287179000025927023914444927818776311290187971008203761514690139660556927796363991451883869224040713179131038404664239467383010951912777185859036909355344721432139491251344388689472383869277379641667438771010518964237752459347296736073016611386621168929362
96 5 -0.0027872360653496207508828180659636159095821101783257910410248133998995680127475854104797987884739068925144549372375698981186136597376507014073687066259238357164299247699004556092558335135755441980793018037096663660382443601651097928583742211825254614777389238989904879884457603801704279743246
96 6 0.0045260245993823923295627744467188595834761856149766855930621186521645769559816739799613146257795314819634799546583142720648880663900961062284442301131999709965956583908096666462999488512759275230377465469292221981294459276825943653223894215621830683414391480540820735911849998877971612648937
96 7 -0.0070302541523401935564380317642113370313408076109992680995232901031985107249895879343400688076640585847083013491042756328955659144483193052124484989698755373976962973255870298797375091410717339592591846500206921768127074691942936646007910211490824418183729933756895285564736411919795412066669
96 8 -0.0029564577838088914638148342702567732868513325894698654687053220811098959775864772113222983863765086212671491365743527916033738357680163145510864063900493613745229624325324654967207208061878990839206138995671419684565469152688869781508015201868402322589137963354730326751730592473554874182343
96 9 0.022078694363890955586371585142716614209888964103297897225045493211256065753408975930640252446433964087290122741635899018496193795316303308468139315803913955237447486577347588647658153429863919335713488895501074316729601734965949148113645578280945464421843844360326145929517331085412264579096
96 10 0.017564189551926094638360569194579374229980982879514294010397106303662880247149864005809823757415848243916571491130451608035358026706442493730717988093936398717049307548629976296569327422558055239749090030433560816152629594736249207561047096348658444612590115366218512027356299670933990032614
97 1 -0.006218970081755918730782325264955435318867879831633532031345774127381031515394604383466875316148087099017111369011943850922269792469863007796891143797758732303745069087057760135477207556138987539525914521666791191070438211336361784667861902396802019553836097400059977222430059194715510168813
97 2 -0.0070667887396287632220874203355616084257063321479217724562200929829177922208248759533364236277641524281231125522102392532897229487474404648910113766842694192921065090362877221438297422903097441128963634756792922606980452820171942330153572164501442524637573878383386387833884290629607139268689
97 3 -0.022806359007411066944701749363264532942885661296652198276427837261050005086232414777377418249176273445450388295134058851386034522805656925309951218857746457486369383455334092549654446093317029888959302875507253423621289341703618231973838166979304280439899119690647036914296825745968717091187
97 4 -0.0026319474283197733677141319944808295056713954133336360723698983330072099861804586580457738346693972578019157463903683448210527287480318144121775126048413005189156110812468870221807331342003289677122056072688253183360124086673906860331908093733932263052112537865495651823365706760880232406206
97 5 -0.0068682092167825048419340033910782105011448155387602096862475244964591262465214926206546017283911230983973537220734573086315612682103694374757884555230026203951254741395389145874317393835306043590091047354115084922084397278972492072043653439510438212506286595487578374376394596240637661833551
97 6 0.013103262345442191009261542657542257387920628907454864510488269224459130927048364120418797368597300029415654263444917062770864860507245268771989335159054021404281439275886188733007927020648597880911723894931741912092338115709090774083030224720638996287465298765186551370610528931160847223291
97 7 -0.019939549599575143570121111001752469080512346751503225862651619008906002209750200236681762064257555744960645759589315256502921293218707772576806305610321924350536202066522855478360836469449152486592785141818806094276317091680383582264563928537382858633965759506582341688628850112979865597574
97 8 -0.0089537785574881815158064080325652879637339377120058121208385880148269308431937225289104964693051465199867576489651152426360763329028607702150281913536695663491917755794195241106765308575764989789580817829855392426655333313714472626029217299334196362472217224634073715235239288216502005409947
97 9 0.061925215340568832979053082751377473553955360019209197453012957088223119744837694046650496658900636317056818341001636052133603442236375375671904174827717125429842441352299883448382782005997130496954544470550433668515726225203836088992972311039105941234508998413558166034812751287705950678767
97 10 0.050657626082944469929012818519573392011659459623218019043284564950701244322826696369382653018087463010953050318945362067137696498325080872642233480463916427962769627865537569358514265079577825795610933482993935156651808322526516926771876947204898821264934521556556096933049222696345375849049
98 1 -0.0010692360679803252476498075107480330419431601471756514186364451853681553676901535912893860093627521250262640526026484962120105527226221521296484040398116415129179517013041852762020915419028571945920178934719396486445892741510879985107720384608312021706040125513620143271897898706011907452158
98 2 -0.0021432398749142771886329830402559207186190312233771413065355145441195701737207931366739502572229963623851951126552874588540482728261361887550792239153405365245453673617918031105064798455157930866300714247871105678482584779659501481893104914082088053377768919919762006307427440958317559267738
98 3 -0.0017971972164664306261518647114084629424668787220155535540193449737992827498083487630139194762641389652151064816730790690715791920645257461234360426747538529857681741117152247201286780103116965169881444484006605434298078305844103569058819771508346226151853399281791290884415265996359693998108
98 4 0.0023404836398130581154562294602960742596861456066619768519091240388095542682533600978830653349600996311146038263816148415977832878694955215378598357551459681639222741499398326770044575051474475179144312296037335149505251400468537055248352085475287526151111906443606708518799249519729822889181
98 5 -0.0015359097687782131785146102759792081486918918789529503948815920963274625930429251516047900805475571567221732197455528527540448461127037552850394929388130204735872220406818775640782649246082133119001876757743081999074930746884351697354051387271897853846152885617000333995103454828371531137121
98 6 -0.00070340997323703848250849239233564582537513989009002155349794599619383352080441124063584787398053380776060067762119216530928841972716688674063712283876891903847181462083670156789759579456458292736093274945381513322251042740275627158933168184533994925204232697429656363506644397315751093073572
98 7 0.00038225438449176905114797276896924594348589593618671536064323610141152037414712879499629566404509500483942109775409205861082492785849220691763457624053981160558209873489506349434821736151934389685813949868753166780989440351199217790624296785815163646454517275686433414971714516747589790937924
98 8 0.00095540780562927884628498237758273043931512591401653177637852045503998713698208611116650064433515408096754501370429360589321174082579850958113809869238410974136147272744662971700363426038769194492752833929717173728891169824410967819623186203719939324032933573316637842573432796085824163330452
98 9 0.00029629681250506406019770323914393861977887447882031851630030062444253802109028973894395200997931462477755138369016336663121559508934332488231604109054996032474180478279050871302240612854600988249640809582472503721571270156853749894858179582144368957401536771219515001299834065737606218522058
98 10 -0.0019474141566157011162017417901461797418888554042662136549757776552287596344979386441871838975233635295398916489780105836320736977131781479517734535170110669814707552972432923048762106517780432454273690383031188519115266115260885595356693698424318092008560796116222196201945407627254061948158
99 1 0.0010299085602624615048598451840960485264131881059325967246334485804275235095257047907443051083668135594312183567558413623059111694809839491907219176785000980398549557834985777057887535237678435410228435961889383193072348668507504942385521854887948420258339302289339062579019220974070013635018
99 2 0.0018659935058673860687805608574875761843047987722216888138518475215804309208142964830897610352738458191716309248001346063372386871836352916943214265300215305216105812707331560934216937777426113346621523248081663554098554392552478876179038847016036648142296288975506040394452367939849484537484
99 3 0.0024651861988361356237131228838773563000576070090415634347369309770301575618266571515135960102173652027936445137475489609532975457465575750641529410103821740357833126333462359140717650059080420163572567586783177272160174012825764137849532940273823793606351612432500554664820257346849909185677
99 4 -0.0014355025966810605968077561394277295875366948251485506372235156262869794353414503810262947772092191535190557059467157469445953682319528197981252679675455537007295174200935028038742295185356691539005273890601543414274086927715157834283697067564583842614105207401420366592539154584491026395596
99 5 0.0014178902020686228615277786412167887234579252693157970028222596951547198089620875505781802420285939355852107746030953113501587839842955321078600829785059426722381648102008093487571350577987960793321487209998797920597411653313181087855255504353834479660494808564193483640862982249930328669605
99 6 -0.00020762431278821780382199161185877455663864789526115464884918874707347558021320747604645529524283094339995689353413279426413254385472747953862872235795210666169754058395304051296960239375739258675804649910296968543542281960038725700805806967620037576225918962931197114850473137321556531820316
99 7 0.00080417699001156228002068126260034597553027365877446339474346062275497899058347069520376168356843481035378130254974655959698858188022549277386765088631222234506537365489749037093703315845290158824965054521881772297020738937831855970555510809926122641543069523143111049677758555805196846429653
99 8 -0.00015638256423418013037260312992678723460311453024960433770285921271292219552417716996295052794968974316368550500160526608520272572133280521806695538981023501756357224202806843510222715441242498899233435294980027291599067076841540368020184637431014156001474782184415864579134235890578113399869
99 9 -0.0035876775832226093488721501025550240863020527305757586346652648613331367998387665084932165146127782740096030111666874482080296282497834030728141978314946561558540672070891595297582486191068942157320407766534016190536265395358894516575349411694323782998540737466607018371425277227333913997897
99 10 -0.0014392762380789298540261646654383451820238521815434596462729270585381245811087430208552706726581904424048752886834636962552065010103909619178541299739403380945571594035118617435043398964689175484766524489506084550020250138765948751592343266375620121776385945481579197404561678978315952083288
100 1 -0.0090587924755951180306107126858361660515032896223993827387082915011052409513161264223886389335152334089455880447949321034504080905560046963706384782379460383285831291087365196118915215811588462594891473780366696716891385048337370043187523431810423053635474080128330180226155433046844342375608
100 2 -0.011294576932232492918202156378056338700919773059547579832014896643535736248066226230720368079498418140429798275855645700480672327762417230228534080587867440040130306049073500506267665613796284646255213771040683829078742829704221653575553300491250605694051598993320909670313469872572727283946
100 3 -0.031589053224477222167256290699054697865654335848458960182010994770642842395413483911659345564764355861538060781149029571935264548710531652433462299148583156466971792665784682709508871682118225042416714552773068836370156396608658119325083242271653634587632149185367550950351705667774127850995
100 4 -0.0013553039463462355040165738416174669619605695279718826945909315225254748804462353080262750707425819308456074461714171908519393829758028171134063773055295619094077244101086035483235299613527471339212099697381285520101562874284855999113280542238520258090987987962677861068740985284526650614591
100 5 -0.010415748994504610709884891868340945017372098781916548002708353364504059933278834380019000902513780713134369231914265862557203173105233817138355289156682796977776354783268520265269535887246323707531581216598616857224240065864124131993796902254301944201014258966891401986066192609378561590497
100 6 0.0165318523171305438353843171301456315684896191584263500784984617055576358599764103673240974575970677208566886078527817603805223590798876172026238300918594046755079699664962453387041625105451815946319567248585345575298820579288426438119215738326531745643097996384353863897845377730139929089
100 7 -0.025809060255726305355010316648754150524005894568040436772068840963166458020061681814392467099459741483806808670359382403703120068095104246824618702795257963079720504133576166413196851544806582048890786208083649580296052609317962660938306864390015534990663151332444125981348964498063245067951
100 8 -0.010911220916897474430884935296170654280453562729951373140981728222738154302860003289064495138325848996692122137076166991362290586845266908563233630153305012475544103595344122634633321898657212272314770569459209994100666151013504084788891799743697608029952421579932831055746132228448767230004
100 9 0.081641265976468699410661703526965670429799722263258662519342954813726483559793541063176242706369333706255174260728757688792316014557877146756197468052668362297042061239854154775533955584296398898519262023829918397990790752809912089181787479942658755433097910731109547201644252746401848250135
100 10 0.064797740580445087545108155132479454632684270387869201333792200320010125461115987286926183067468482162520934095547248832741626253211188473402697877479815314418477727269704358260989718276549445955404186249971052623236886407058769185817083915519513412961567474790994138074054304185871405929582
