100 10 1000
1 1 0.0030870193855071259993880503801507779148184028991005513413779167319720687655404158058161265879464662322673294325904907961722942056195982883534945252034386960250924418004325404222029693854275066604088034426406479886032519929746977064368051745086854016119376919536963150491550741292621986312458
1 2 0.0057085521261636636935794901871213183325601998341607422102317040280489914452404180520953950936005890484774689745170734520308744885326235230562452998779578432745180167233633170884865715687984905871389986054971291106524204466900733387505855152980753130404811999586496240976767725203855732740037
1 3 0.0089727021858136824623701971023515407581607529403251320646509444713279890968983489800668948143486956237608721898675544651443631863183723734248455675676024289380490656541692958812736793183403718922970880336929463315019791072524689953977676841473731694476838486551984860457955546162565181862678
1 4 -0.0031234536168926046582756015551701385272907912156801338759768773325585943472842073352241690548423330927875292570034469182060069610200985487645121740671548378307397626525959829960816964132179799408987691024759748379351199287363423835888329534533884948416089510683551913585871787730885671317049
1 5 0.0043591702818497053165879841116486557146499030039167910488503530948918955485862940337591706639886066252892601256799901021792393725759651457137406305669150322437587325703702018216602686823436411089530515099634258418719600548796138311773835967972025683122544853235415444762161079552748999151978
1 6 -0.0021324491424737396848227340366073036439973634091489242951897759336154473044197301497284640489281701797636997780843738681790500821320621491013534404518038632438128843273336597026643429475293009909969508526713718325641312007423237634580527563625628334501967047096601992660380507089711901745694
1 7 0.0044726357854289354308001933950594548282751494772581450718083569784706899581750841162318041034041058960797832385009110938219789034500423820030708102212240043030839893293390364842110603683930585672800830009603848675513099377363214829059061431306027130914601912771756728129010210992235117661588
1 8 0.0008347446615128716072507144721102841948225263690926243063153280333188398847146972221017626448562685630999806165216884620946876697919442491371022905553210997099547290581945205850537712667208041317187668173017688204269400443499221388641473780279664891976282187626954147298930293442342621363515
1 9 -0.016859710097147811251134582617182805815430820294578498903245171511685491173585670878826185470882657611263971040660301017943701269899058922702348109914548572013806019021472675398160900442269057004558038077887598515969494181366221077643576329904887944166424766399554024412386193199147255447338
1 10 -0.010165691096158912622987277757777074299707857829194030289334276678329758334336948204095669778093381381507312367193036465493079512268328988415153495569838693986985856779602399729192777240449436365827686097784512845714012833924568117402816158962971383293348527278356721005377481794686346348476
2 1 -0.011948901943304907577776439958996678252641619290721928120348462723431160621392655627584478359274404686769175316074185017756837122261225676101907805458402148367080878055492733725684237992514636845390051524102042294161718694449271425028486870428754693592273469482684304988685309234045510881018
2 2 -0.014928476994135211492116413718917695509762472898791026331794492818754236249208434350072674139944558239398873580069933160899500485613889847997747590312819986758052091659397283834759901799512242438272024728738886575258539647500803869534227412851324370916436323720693627757849256216653684897582
2 3 -0.042597055704092257603444225916380754503700797198257287853537907376099517207995457713892515230270534341503859280797944756948216584070396106048085314726473047578225523112150014418544482821888705300470172617685686255508599834110135369794948115947657494889127854241520197228423113325148467606994
2 4 -0.0025115546331522753819768152098829576039954417916746222080186814840295217353472010746312095355897681367449475503296440712808073187184740087895919939778177557812715334241495284393248849287186000602549851040399749005121561043470414979782443361522917655543457796041849015563923286261385205921788
2 5 -0.013790689068128278152959662394753786648885116788861131169964052958248821575013921551810210971446882051663957413457423372485749360801008461898572246257183798564517904584074348059805219236192407834139866251010874840053398861615027655690545133613993884720980577020016444824561144738337838456325
2 6 0.022691058707406187055764102747476985201794892588226513180343400809609013549227312246990145462268606283112485561944446564260951149624238836760614313140935284240702428510123724921834835722684947375658252205142283689160262114185577032200048976026556973636814216654546548601660250812336826140024
2 7 -0.035261561086642786568893449644900136904781743357703410385758330246124346930039538640135752756841431564297066044831254602923080816403548054922171088619781872980296404976475127383274813358075350388050734772989052666576335208164305849589152848843063889139109168492144948039987193872778390600185
2 8 -0.015168379362703610799153962557694535775180546798186391998949869257575738076276027907154594388479594624939393847720361889795022993930434809197436380517625750711209693168157861321898276008402856595674264579011955271652587762772739686311953419728887313306816370638777564693499329998818303341373
2 9 0.1113143192172010786155508747779600876036822795448715551629892556993153732080647981904881768584506619782009591578024216297575038778996931922300143265231108306199563432641988796505136782543045306882750665029100292638245899434963197244047098668517470538215523403097299152463109512437241623695
2 10 0.088948564224311139960751636856878080419314435744408400960317265759746796742726123279756880563336072385385333831942751245988409023919072825354380486172594154303598919046017920179343427912634492949679645316326196151488996642899955737932909283994247436513198219942888759740075003580799548863733
3 1 0.010470258359024371677920974035897164753269377248408849215563584468148158918949525523703326918476647481724373085518976972482792325640827541797563827435109391315111193142398308088118095417226599741597436109891105363349973736978383206202622807441822965286797560738878600921171092737243073665279
3 2 0.013472824917006977545534483698682994676987002392206647916635743360465856933933325844660116394244664588966102430506401859962362923170834678411273570328439389255945407338847286360249464750056716979006056658922649505623757724088399650291398306531126379146075668443765327397906684176340375539969
3 3 0.037521095031280198438635671480382255168851459068424556720936109164833936724919753394550338526583972040096797601149294385605596493950946699721349130168296237018724440181896685318706505340271683193130067472229922348972219321393140773332306876256341767770020476909313946567708287598674491895154
3 4 0.0019106121130119161766212411070650243160481537931740880385445039726338777619524790128962958482393481339146783433710458333135583924969299569038572525214318879620460281163526561775778857225305255183083306195628104823246381482273237221507271703966918377998349793226100763180599451826268175051751
3 5 0.012278545258248432296335708782652093869083695841581846583073493817882092082118513546162920274209465501565195508647563890163410370365268599346058954030819475499972487707739434262650576571946183815982223868507103938309732627675374118024547239550639329672941849451293569108354051962690641230385
3 6 -0.019700640191330563066329148029558227475311731517695317404590851147000569292837008162951143609506971278855336663882145932489881005798156489777726090004835995670314517911651641405616631071043774018685750925586263994637154510098285953500343577543460225901243159340412018281210821823064143763234
3 7 0.030750620907567607419477228440599788426374835710716759270180601013780259866332547333544595211123739098746850364955332413972519618977813741398889165857378888143471555032961310321433228047886245908519956818242341438771331832690880718935021246183439265321722669050548747640807158896653951817034
3 8 0.013172026178172495252949696075021612847647606042534805076663518906512165118644086047812823589771060967898366536300101994314260353546304918315607623758804843718081065608477931295181634392765355520698548723629266052083054037306534206933634506853895955249653307120862813073308677108197273097929
3 9 -0.097495881038455094925566630378170092430660331820535700468223471544203340931647744103174910359859343326330007139877360557631892238601228419082562295711213038661305580821195441501848480217042550700053479343228508336721852219464608925042748724270977869652765012816272630057989453633557173875186
3 10 -0.077612485902136576189100006675669315356805409964703497905835469859324789659459064424912670976505416529522731205198231414382290086987653283025158435278698500385981680838730431594440502079036307922532183919718536337847240205979650419672949683547704312192838921104008960516110984870910330984445
4 1 0.0015676349776923058871862039390473406986286903612838668271669392479425833827292015779130607133506750448751022323323941438923906790225667880242515815102260395914688041988534876259496290475734689916897492897671101602292148528822522904480048602516614614101999680739036788495209229276872980779251
4 2 0.0034842998467844297069039280965537903003935500202078207819505418097782717694397401678967386953232730300082363267230609769028815702446782802038361006751478778252380171623837044082314823661027239871371505641279157220265085944814073253583269113151093530253539266514852263021141781879711635655061
4 3 0.0052739637683722573080759491451197732455594795335564217135462144805085158197580382985097465413869432752765028593926803375325546412638755752025751086901367686723165494317498555198674224505771906052527510613418675050802004503304152449348560608215440393359485066568015790925695319417441692595043
4 4 -0.0016709133696013177571439032815907493234238693038446363439463206682213244889870929403318488456481587269724993844252106799836770503092367105594201365931480343984603811438242744164991316839299884912058809324098154961760892202825252877719794797288267063044949049840116293381219517054749557594083
4 5 0.0025206195699674029083780753269937103136786558775633224137715868995725193023620165598327354516510204194782693792499456032458005024619161448889071258599414160349768660408786057053829280663414076269638169243414901840876068464448440719563547337809081061844972015754219501964267082298157928075396
4 6 -0.0012336363857263935691762260794942912760583410955563151286688261509674215574524278709013779334853607761163165559448924298853547377625218495541871247822215051667901588958139122350012970894743709522426115776337929112772120482742068148524177753860138498514460298320615204513110561780288000412317
4 7 0.0026275415368444714536656511866901073082987615257623260298229357904096682192418657677957815837399134076237214559746324150204409110964000130252819703206063927799483701172090841831735478030351693919095816817796733726847505553334197266037512888793792856076297429232546002849399207205660193857156
4 8 0.00061328451741916419325171099400754000943377823426420388099281651754599635225944587776317725453991769147092496972726927328932399300061311348521770567694659046614324935493625117683988507533808672472693776800242913864033575777708583976976686892145088437659463453028072587125923343898019188427417
4 9 -0.010190326930658921187176019660209742776119935819567952400511760680335166401030696521649876400177190224796601826018480001304966955231798809231950668460081414243054778743345025240075020575422303074792252293781287244112402611376096446500010786202623887492432744221818698432037283129570723612933
4 10 -0.0063090436988349517648843305114320168574975751264632151383777202221968853304455911870927652651421047571586481666787304574037540215227832599407214605104334557460680023519858913031800563713169316719944610662074824697232672300283604469866534068146247646853607772653167891174035874005859987453777
5 1 0.00046168307169025834017379646005419678783414842889155919441346574574947150631755166272001716463628415026111005054733527489662948427601485065986212044366790463263996498926407738839850869271593874431809335057567329562186953404387067013054928877290720834629550958068506848253038470127304533401926
5 2 0.0010972831144138201118353938257511100323609789625524918617496557328764000579173561133915788669197181122658367770925084428296531080945738373323671196428674377767046865962341713925327365893749160924767552305504576689152145569715677935902540646837297915087032097060234634499612189050291116118625
5 3 0.0028587957122367298645703444763759279606413122766950481452154691398056400512241955262878246184976130117907961563375318198154867526137456598590481275035229008701490476935719938577626439399492392043183258017951491777425428529943267443503859515312083341381479482546801009550880760048807473564808
5 4 0.00049579133401285357186526658392457859683206689691456273181625216565096187769393761558427339143812915746468210622915645435799093491357102428736650090321869648144301532679179000767549656057310530204110594932550456107909618005715719591119785498340709841825269377497291261689104272180730348212446
5 5 0.00082661041019902737012620827529378671656610230778528589321317395078734295737560849916000353923842954949423145273244636973667296574116466935375293190943027761743296914062147126601749383514882214720222989603878293095647675164699623177030992617149189998201014425654179903271765419832537024570335
5 6 -0.0015919915776735326522413635033782860710874626540442345485962786993521981677015516854688196486008349554882958482676454414858026679684815031771057506556600235180692685966439187097332219386145599646213471694759583209387076890053672437170655117504173612192325840263535544118320339189477282715406
5 7 0.0024659327366743227119690326148540360363713745692529607335257754109570511188529095972475807158486454874707944586510011999636650246109887424794546547384606015792429487794555362311510420305529084809766245057647312047418720244699966837611061516410495974411227758626979036455237346993827049712011
5 8 0.0012553286597368517802572714428543982500365168992963526288197404895964393329957539774022988702788135372618765243707601296647845491168034906906116157449089767564246153755792231374733474074487684699427681118373897803234713083814958372472699489183648878315135077197083703448114205989004166938307
5 9 -0.0080466552260915001091380826092886516805138591967758459716695225819450124474391337475371093862414888534944382259474469286585178442193289933277371267182832099914204726868881872378249373125941901319025175731803577651056170753790817746200012662685463679400889736269896421571157388765084699941522
5 10 -0.0066847559927918735822263278250471535936005494775913172959616429851834003095720198907438604620489980688431397344125230513955070782521721366355566396855042928096072246014559903473919985826560717556854414927675454779371538197124126290566574753550671534402715190749684755265106499220481595067807
6 1 -0.0031382197556539987743892013668337188935625785555672081193601123935626090871364738777598771941113674833259806387326256747455874465956928879269103175469241929549987582531723729721903375053603680750886383559537085779524425957259684255559833134581949038499582560306213614365211818860566298051194
6 2 -0.0037040443319115888123635633665681620041035661126918553207492292082175628984323447023927844964285497815383299645612297167593675803140249332172243565065772838270589292853463999330692936077941937248377104965047669217037670447960444363907694821940085408199112532493353764308554399200147297298983
6 3 -0.010489869340555726996673081892651384690560405208315629130744570394183462452743341152138275284182104926005316989723608022702139981513076103597212755721966878763249857706419476517762605603873459162623481885925862138560766384651082130327036383715405980058975747459753647487173850317788700066298
6 4 -0.00033694459976090831209778367985693557586594508996618065879429018333039143109520515282425075257264778612130749232774774112198525659346953178156485327453327995603788736490627099420144327454067972258997262057698744819653712393733011066373172805686470081016126830446727929333765087336288014405646
6 5 -0.0034916038681074222478550909800189703920991945640982182460340851302435158775766680803594785405773833053427260651947704109286860220351969977225728484617330375535437414450800167310510134053473048677873417866451911675971770985669231519715355605772781249918508576679185550148562230431045965706829
6 6 0.0054740892580537784198388949721115347438734925030083676948380882100582801337054850111029237729615208592620811237729372507531995664336119847831405649810386492770543585830323385842781298844361990375139666184331328488650145308121267146112486993346570201621177050426241507497515483110119167115982
6 7 -0.0085439644941785409934376953373349790431569129358176591015065999657595177018359631842955223888878420367501161953141332348249845373332306660127909746602716755731106220981012998381888184339984191432929182442894793158203270907518120847508193137261803184305351227840669177726235567123496277138231
6 8 -0.0035404989992843817242090956781087775023196653881892010713590843120863101651197996804656081878109422122868055523185493704608381846600617259652117298022393229196808028605329856527512886592112964203179344683787309567258699188657311499281645287088240991161332497252543177373852520234547070150639
6 9 0.02691293982965006306850882349387580903469927855857453014627087872628361149277953468910785225681682274987454288477134521363398141671284777201858600716846169526652693310634205337165471945580003021489146752384114140380352289628673009638253850536475387011441889922714044579737826103427234563552
6 10 0.021273817782607189146970781076170406562051145784185877603370771428429814517047924499588735590326210236395950195176194306325993304854716531359266256706324315154763714238408707893101338160531075628060016715951038704850105672577494757782110447602880333440394471213741940374133206530304049749321
7 1 -0.011904942941647818724558395512851818474390674030703219695319687557139600689443027039849571820767911977340337122874701679083861252981018478947498037163852497235286910723530232732027500769673671886840738574630679012691096286447527534399837495808716179455884431941803592547644813657365776624993
7 2 -0.015694230880519687306309273802592194143564394877113762927682053561990282224424341267617721082182501724629510124993379463139837503595412742164213766552934692012625045055717203752345341199688589170163999561255992298137128233029171318455217511851621894058698176620987446953900938791139570267298
7 3 -0.039541820573803544334772516740920581678470275021946890370736814702376561925805831985895403759907082162708746355140209913391370211950638716327869004410759737121445882847099989897932996166228821682587025061959014185247848489856275692795833311901990729641755157476047106208498693697830396709916
7 4 0.00080734332483589718924887804818881673708301360942901232261579139212740992186151870029979422312138916110679026027455433643596606460334197680743963576092878102832329673216629159643363996950367732829158285543613903289509082398953051807723701520401657890789980907984701287416123349073358547567413
7 5 -0.014016743811097800437924967525675880174712706957861597657006266673829371678539147108861962542566881663702241965609735276247199613546883930755136304808598891451329035930946873401547114744596551076762914810972523422911071676925582453022037942328377217740814022217436234829072677341856895794089
7 6 0.018966518203424310637672583160683986302732245389081623951412414152153863322143000049274287095696712274236780557102357367726195374980272515012655036423284718558768321446807847908380415969678568826196429435552223849283724775396948524278995793416913991857161227681441372152918017953863988047884
7 7 -0.030370634860077321310072431120710076770386639954294136741885383427247606409690939953617689045832193151576303312821887550691740711925166318826542409831219115796442759293473562204106424015205082750128437207760697760715830287597377688998114329527251985346172182620315749448542362856260045917968
7 8 -0.012019959340801691123484791411128095607323741668672484852617315610596260003478162655778069004224653030275776360134335537044056901776597983219291607947199158956564147816982639469663553402475979738792475425050208396874339127457742893086841608560238547371131753807160878426929389179091291041153
7 9 0.097679246780080860561359122898576287614025033754467777769884223527383244614673538414400878851296783511448273218998061190592702594656165237486165104149701651304960452338673701801211710065658431669994765915066234179680933901162050562160582256338999565384009129123006038469549325042224547732651
7 10 0.075250769051495079917204924112362183706129361950437828618772380325036067054070356274576146897260611716732231232229479505381618223661713392875752443110513885003628107725941779969377797850977866470090494503686962690028546212842496035387291549222037015924928538229099420147069164654687853569192
8 1 0.005388747277144590804819262304773406929064060365296505659388783466737443139136528028807537638221120299229838234097541711309092998726540829730541441952939313649113819693567500889455048119279279392687886285447324551786885644119068098669014491623382347736329654925925725562145425316226700093764
8 2 0.0078198442562889649215169602481501505070280538159317220369279718248958199095529849667418625279154996109544288636969229478401341919397314433199281589573214702836896170397629487822313856341079131511708453666494473592604443257121040167590575967051305265175723064238997186346181471736063783835037
8 3 0.017741081481391031507230395200529260960247884293841169609496564591411230662045581138532736365760369067451416401177058192247054527336907385151903469302582158959656737233275159195634389734598426206251095476135890514627434790804384043901389663714274484826676930047375304096276728038227548386307
8 4 -0.0013152882078530558014528987687738961718188747565918152128462938055768678437751569554805737040363876009310700383183597281898526173865912470751781327551016779429827351281378358765789061206537382043540459727803346330771732490481339731015121771093620781141762708622999278628212860092105933692189
8 5 0.0066795830295725208146850111576570694443809326206022792451598398881251536565517135484562329706987685153880169687052062451643179010676383441774885541599617869705511500470978059265260811943268524207714206442376322726281415967225862123900165486780097270374314194128608105862834937114891457086774
8 6 -0.0077468912671785206874161710297340437122291313097031205196977239614562615707644713440861708715967134480023194151257612330307034394476156585465475056478307769934664724412188004631345981144543916466239796999946623213317604253180375986548401819525981394573075064489825495789815595007040041057474
8 7 0.012787287797099971622797837500852462030827844883148657117566502378049565767768329215791678446504319114066678742225843429931763777236096184636466246863269188257890118243122552945992317314784927211468090699126022480577281298499767408415245016718188259618488112106841870643341963072636823584167
8 8 0.004781680572949901618725125125358539560487103167497360349820066369230560951089256304996509132252123152356270862691079555246227293202464771702015306583810497778441417674949935064926729572806044053776364783480293895108210599885849044650333090423020620917218426965652943746033376340451549173031
8 9 -0.042093952368905507499437649561412566893067467727021297818983356275618234981400882879677868834135450136067994732841746913750606197418022398212052378675993652406988197776202506410393642498296959952053466490837778820663536781893325248525266731918469435472389061268420944899879094882381767707093
8 10 -0.031492052077523644677842296899157203885146487797777019205281359048848509729573827110574453703033490990052598482642243902370695942563078889518163271590510510795360786917806625869051101042509130314887675699102846700713534264272685739591053771539290215366474351471464464581232217339730561404327
9 1 -0.0033648923301161323080058159079374655416919431744469904712228901275783534140567297147428421865958315533918207278904540122991114733804921536967772201335303342869705222782685379087710286655744068487176135312636990147171006515365010055893315377578596157545334593776828688274807932182812479416756
9 2 -0.0042078671792881149249030904568777617060797824848461620675657042699745287499365597315869393689361566325884066934315535231033538060350686246185571200523434789532697099749165012017582816451187084840591347441407779409879045141863073612021637090619112102458841484905552098869551332351598650839773
9 3 -0.012616063590638532230026435412657615561010984913914667457556798890010611415711159886750162987854435521905329100582243859324800650777107760220776433322713816227838033307622101539100264507909046359487103392975531308018664751145355861634927295993642026617747906370740613924526641232816086316021
9 4 -0.0012103944475028966609171039000457070109895309176481719495105132018217829038496958072067633576547498154322099641233227108231359344721804052171002866150090375886474369090947170311592605932867587748830221381125402398448427822915927280155151825163239762486851367460141950256122311475040148587362
9 5 -0.003909548568901185632160635891523237953254071089993395882315122049254876936601793866128528094556598001745963011745473369896218309278011092833945732513737794890555939047077179168273582206595739681565460124259496126983964005501135663396363978600219189729475703874876575051019241704513361838695
9 6 0.0070003056061044016071765638473173039925766002186076664106402245195856466979414981026065253942285093205773300868546949684378184092743462516018396904982459976285248175754361241464325985136166447175232373621553866067833805177178101544365671495405097525009565257114426442431403871197755306663496
9 7 -0.010763379260433038658306479691800144508062476391821484509429297280472809282686830451559087867831198226687042414119446640525370430251912919209922220656664130474741123666054591496493387875768493073423952103776321430197132063679608404657324471693406153446718529971535272231788662840572022070636
9 8 -0.0048031330171785392674547278435779853112528392636316599403300847480026723097520312337041567658402736770204911557617840386828427894925750269980390291480846672433389717593696764863426773986296175874684454081123735071931983383276630063786020094083247140226740985313588490334845639664344654823322
9 9 0.03380500921786409846860146132277011947214915770078120590199815339533419293296141479453494002582641791734473154903349669800575550403085683509022386854889330609971409866942766856293018713051043479282043041248844547453316700460878339769593674745640323242534807407497873598082052365565959180617
9 10 0.02742097656753102080300600014936777421271041657623508073162558613269188866461882908606336501833534392412119039184544374822550607351218720899785219915431604745707737702106154200212286868740938096323983329975840896525696590691075022333383404807280836563302096569018060854755076002819157285883
10 1 0.023684540679807594995654328780286021055388912113876370575521013782478442098792982018331887757562884298811464158816527720834388534300981450736055721346049946717791197020553679152795031377980051894870333537268204485090609110725192460313238505913732102731018030890810348909461047145412224027044
10 2 0.030143476523826252379125051323279860795502705163980303128816953745431912164058236764646667616157328749291245939072662925286959794701184225691997326691729769415573374730401502893064225469070409327984549963030892273199927291381785659990809569532280735562773872414517177510946773767140103892124
10 3 0.08173973873652787409610550632472640467565683286898119688548121765731501982354372626769421991308609158759958500929880031193916728386879097519553119576764021601451779668348447680522219005181104100364383411382610633231896277171074782441267601859585637996464789240980928810567081655573997795536
10 4 0.0021452311329574782473325410167355734835103995990596838761898648266381818182348413188399425708263517605315385961275450574889350445925920107091372998527177470527161445224521497552587328212179530542464652356269196073213287745857312535527725932233086340317770637000183755788427112515790480653486
10 5 0.02749116942631097001585445986414992876688349930759382218298802900903237364267992736915130697189494924689463805624502979937633330984925776402261363342712676159554089739970248017008727417802006335375741826658392261377996618810876160671644535195833262970777421638794632139376932061899165346956
10 6 -0.041801162250487038390909272232741363629075035813061507213533143921166747571538664085047836787892908370667711865809046112729001584794917545292335177551163661218112352608582642419180719897965387278028685361749725145428752510902429598973456487685488457476837585872825675546867665311805568558343
10 7 0.065694229722075491065357322698118873381664121133689041625264949651346162226377983793294220408341966629999989390849949581449774894326400395077589142163766825114955191785288920060153072918370199281312327781717660014077857016072473197448260384117387992620925182416276149721307220487569117467939
10 8 0.027348576885892132266352415812413879209066125359101664878820339441004581091977068467904590989703695896802922665148505220391831456697028295633223506912760208219155190363790926303338978886434862608065788384729555412554244393774716954727525999481625037122754218242064166741669841479024954521989
10 9 -0.20879540966455887309574344400343801448496453029641397840253057277326356991576809340878387152289644637319003036028788159869456535278326852804860215749664843758071741653863160690480611536438885592675018287406197254668844601351521188694900144786351654324396582006483611353573216792463558902629
10 10 -0.16447144250912879234596602333889349468331417881813212754543159576803110459277684783169286937557952330853622314955870112222926275548407249787045973438992514568407106670012925148405706492479998124212188665032086374462362389729978110481495037682823360976575977136713698451718321561322883450296
11 1 0.0064353216355031508055852356836730767346753893464574441227036212733945857152782418581302816551899152510500358367319550116135589871737987383883969256217078332359908572333180048734144210874674945259800417119546808247870365511409111338606602242437938132065770017610711093767520123736787222285505
11 2 0.00677204192668296242953405870827964629132290092439814312602695282517907028885839115603626499810182804994312015245025561522439547479696689644674564549528785441597913100504213285544389374092521555080872852053206847448857784470883224030987551699787639549034082989512479867786341630897225333561
11 3 0.024177970190446107481270167484482249260896040390375339036443133942246039731120509056147817240701201140657357817727828631784635700743228120941709431124215593451531646701702588680184700678122783872540632543392533347182183931260410051486547335593572994569532965530310503086446040360890092992719
11 4 0.0038098457911842089029885104085003936890687270579731727561672973366026037741463338018847313501530113526033348244657361642510417720780980549285623007942734288697795325723765157194312298556887824433854138530530394745244121015927292241638053723485002162645380561572724735681526126054245294122808
11 5 0.0068756064498136628482908483058840977776815286592894146211954474202895280579647388797349408778062583423791878108362439841746590487897949829296225777994570704093466753268113786645560304881251126937828868510664203751278660675870124176823091862587268377423795700480263678874141734655831834275837
11 6 -0.014624652614549774892488542312629518365356174014425583137158597660129888801191321826913646216301300312618090031497175707268746991793148419400830659307685934537989172204449657898118625193405169533162176197956191320658174700586253091336250919169950963190220831884129764314235176401643692729439
11 7 0.02195986520509717194961728745085689480691286465720579762643069254519817699109438504062548595470556157350494481859555664643547856089946447974337593204489400632755799092612759192630351699798242576724454823255340922503256308250175570034869660269707948243782430918503168242670943940375979857876
11 8 0.010149009844535318724066012237225254725515334258289963138276715748014851881545798309618982299436034737231822532423887651237753435816933916611168876109230555606973064754013504278389452309923036248154899858030464091196989946092289037274622389836681556271581088762294427228466292444849561040339
11 9 -0.067484663821061382847555089860798615099934965808037170260937362374448043284043102179635274437190601912282633657575712917748713506750107568453575401293252234265724783964782631527091984815618965646886068450187771380043285214035835136960232360486977752574424521411029353735137781998917705465499
11 10 -0.056089325647976783194324185445926537047203706689110669483697817527582636856899327749326453680084358633852552330726163883217002618255132857981192717746266214317251965598920824956993347866035113422322164410975459467414450732158175625069115381767994194737346182562244615900500671250026144818078
12 1 -0.011220073242515403050023854808292549884948002610054008687947471168515072173325315188484767982622387162209274587428305077742315005815762270830606312180136902209699341670116270012114378101378526403387245154352794108858830678612035394920935106058141045349281412866461429201479327961746187081899
12 2 -0.015168420832107134196820224758292824223653636420376137190303794564019295183013135242503324054310266544027815077505344810198703193193333328193489016522870437857021979835050533265411039482307175008885484419340201049604881830375546945051045030168711617460700826145319102988427956078693767667569
12 3 -0.038309872898760698998879456909031155751388287677107733685774241610373648380559678634220843227153523880009536253869010477966326308974993544495077500652010092127216972022406712907017008698364542111136946583296943381562117812809862078673584612595579661190976157900425434057394298528918612201853
12 4 0.00033596749208994246983208687155480536896572414640777646027760244307539540807689636404018227328000409901423112216273852624115859089283630435392004597319384073225175158028666461698653116792523961155940938885512792721669040696161364434929558179532194422760645399228968705159897272256735724032001
12 5 -0.013428070701911656025511941050272036490551732815840801584857891377183700711299324019374711888845299366111652325603017068403767403209916456071005147507304006272659666757326918471900072795836156844943442106525266942930964574963692633332779200533699419562480437941939620532883674317129358620568
12 6 0.018561670036765948419324716787930091715612550083829437777984171737020343802088667530033512133210151950899003720909672604721454148064594438755521143480571267459982399428174686899024827281806495100116533492019656922899617360193511514902533326425903673203904118880979240307186086247666916443583
12 7 -0.029648473233692410818692707972538021851722583999823063793218788725642296100388535113109262450931655867214759994276870345671977742349861853700217847948868538672476562133553725561131388148044703743439081158665852492411105588980608041316978189313682880540406089731373364202375362706464261194577
12 8 -0.011956872037723257261661405289510408657941964456323880586593736832429312979585865980348970379511678968557351599047641240831991714577450677896979904365138832073618587394245688077082837058211534011711373867750776571034690042454741037317483010344587421080111546332658020850883866540753257682768
12 9 0.095431787145182706106684763272132095519395638997119414045388593556407998966040199285372310474764389888431196070937372113091167386862703819209965088798702115484724894579023213979466947890536992971319593305567632815168024980769504923200781910830763163493723651166162228388960134416814840210721
12 10 0.073914216764108629709233930578833569653162227944961049083580792442642081298763430208747603637178064878503713913593866566298714933757656257498606370269797716381140254987648240928051176217825793484779978120749668428402284017731038210547944978456110143765059509872395137559963098287573058026176
13 1 -0.0045470735250278962791448497918251641111689778890756290515699045432412166393891072540435204616995006611636571793815262889661129302806536608058377995068727566020837352731445330283980081214074487491931923913266791626809054048327966777852732547525671306495585504297027223045075345358220146473928
13 2 -0.0045131972065247800657245374829341358679143003928705780705798734595661990183847448182461701208118837524675239486715732488215724439917003682747831754452430457514375996565474835265864837165461236030682286914363652406831125170134799930794227016718067259747279579991859805926380624311406721327287
13 3 -0.017516806132214787192885356200154559934798650246390033382389658177185883414313825765584520152233785594162913509716018068630563241273883004219951830125752453400034138048740080738288198985102488939694102371162048811944091277339717411612782159874340878048908752760918521540518055959632260055573
13 4 -0.0033538779160408585334203438153070367760463913570499211492862602387937630255037521106324506332801427755808001248782677296301818979054602004337853705993534821658239234639824346063711239337074896651163677051654643826765934253955545254627590921025544988663969810926222013112366578201246546852497
13 5 -0.0047474959652363924623379142633502017474007612844793057093002684795582471846541770694884478712099790902529773245338447125095335156371877602202566064307291811927268899052558680655347535922689319436106957476207475668807555379130696206247971407679191470002544308508647484513510476727292456496022
13 6 0.011007508491135674661047283376985634055334580316401528563824045640463046748957833320605013377243800761271117028636136893918000348551392056320672616183484627626751542448839234851010070338353407360200057771983807845086226515257813897272012486461098327219741247617911077711157675701608998798766
13 7 -0.016373217653973202890654920652791322243707721229506488319678446597854899741207022609666835339679918691173823371898231916853933290491496519694043924179921772191405633361320046813365816566828038856368216737365648224982924371345558818712129262559399628173190228506053069774179252294473787561469
13 8 -0.0077368221120016826625855356287906352856673538869054541368489900941320497680103400546131327943711936448890420661695063307989793198381137104033776972773920352875348804803798193748195575433838480129435712905487595774430615044678874677961824352955333171564333659963357958442799533065746369658558
13 9 0.049958980086904642370056090418875035978918522283627937029091836895292488616496926819963264569735992992511590853153530104829275798408710878870059313000874141397283666674353578668826501555243089911026692694944340512112582499049447827378473072886612378879553527533087668369766797359808090993826
13 10 0.04201922751269474339634825761271578048411857031608826131929036768749961412089957059521743354230739797591604152928017116254729094146672403850148019364847033601931236377723166872943772396225571210997784209540034950458196458448981044413857096197462718455334915109810934012536180980477669019284
14 1 -0.00036876962230402826489856866669160642758848605782814575051071394358171656793347138186742052790472962359322375242394382281112528066358868473071127081728383333094845702314494155848531046933484843005278799250320148698431142981840861223728617409386029394065530971348546893249130099240451384819291
14 2 -0.0015192162381172083706538777982062427555171893978476514394735711594015625322484866120358459577163542778442377757167567683482231735318533920642936515711920001279613050188666166221367778902789186243431368716693436852235560562609741734721033921999861962767731583911759959729327354345581733365584
14 3 -0.001116866783907393105657282673009877043835682850113494415101830689773361108889210371598750860825915128474812717703271143823723499326667526213748573846337047485198134660876240948155643410524536020075917220028311970751334463657930770319752317515872666374701450985284202785405649851245676351692
14 4 0.00129510057752795898459007576403200413708911207626530029580173278396513499660492843289974418238343977878707158956554059966240516454713725814248338853862254132663386494299226786667233067802041299419446986934514044248944690194816056822120212397983629721285569485136197876142470523411696689925
14 5 -0.00092077506309073477230431509624843730705899610311899858908139734255214802242864972869635028974617767139495769202190801571675340876598222102865461992269598965731362938540198334982078253833043426013326768050287897223213450580635101456817620573088672400137859635176169479238942570171485133018169
14 6 -0.0004939618972317241118277276343134445833340352921428851624756943579107012416185724956911440610132414162028422071180339081306914487635052260977586813607351446124175943280242077287049492730949207425002101312310467122679220042854452779943940465181159200802232530440450511724237298559917269740396
14 7 0.00027481150399826327125522161702515950952459117210037200529485663949954174122627416021327903652101820611985894139993066667356896314950069243250024976800378892367772646159989830639950696716682283049581206113102861290879120639329597284814768700434557269917683161204565498797114507201907870303117
14 8 0.00047155756753791534711551514201178534983454635224420448640721919255722319684481253923311879134968359751040690182607034870574814028882972625060899414510078208555858113545932613127472874921408658203170343781805470663822629659014705974163518966120728362245115276222311804894823817547990042689981
14 9 0.00044972086349164098589848197928141957524733176761930084444732910515433149372273425824979395279955172566918129853371694598042967231910446657850959142340269759194947197724761147801538975606986733350461454937095869585949805436263389020030606311135882831820459307085301205325164503166105455097793
14 10 -0.0009034012700723245175920210682016086142951624563914117560683616501641676161642540077251663665729069425269468203524256479554557116705514420587968079467762667846795065436163670755713344306213981219859800202720718219385005092973356703380363028324740799498401240684570938519165668732389018105028
15 1 -0.012913638939747101140847851102235288065943955580631039255399342824868892211412406871041751568708002296988618628694934116350256103440635699852356755650752591638790974805001538187879576773284068705153391698239172461013318910409247442760871632598823985412276685309695975103877026136786451852138
15 2 -0.015909858454210453585418920091267328234608106720480666198848134818490452560598731240376044830524630975301451120089623734810215499602270713805237459128354294336355152481509923152199040798478370413407031031274643999514523668585984550277462466123920673342125093503769374343469406262208257924145
15 3 -0.043971412315110124265456681461769650170543672336883154396471294043528004636460363739673632083231855075398204885099878143644497266740136027500753587143839621354258331766424111346174629822363647157199203562396688557211059889221387108950224602647385403403451176999560788755424642545000332917106
15 4 -0.0012802539174173386924079489604570589167505022482443449009986042649084555834212282107670314195747891059739200074533452199205674099616315307075338922591786294880885084507548544725975442417254199011460271110848435948548883022989783605525515738714268059956198444295067033262558702742000562019236
15 5 -0.014717955018657907690280183114389919700057283234602908941599167283507527704850380055607924578100974312387287578550154413599882195110835876478200241553462062305974177966385941783023865536532014213878184595883644736976535659968770361993656196221440158926858150151773996030890152515491710532521
15 6 0.022688052610949282955271039181051103686022260300974579366684523609763949364005338408495301940996719956865989723429713487646896911643592128402353812133295185448143259238419205525168365845766024684033427165704189657923014309725826662929821554251711881732222516495172563462429215889007915807031
15 7 -0.035550844557088156295089999395080966288598353373766266828318886079327759924342117953615089882252906593452846522819515613393497573615874414754528903625010904096511131142856970482869269457096929153872437688873226322862404695008222532280903081357269633021364094066170848702830973583859062830295
15 8 -0.014775901852372390560824727853975695521339292966002789937533385180398671221770152439771682038007635874243775896249689759770664753997234945429500590164781530004810954727567915904790085720890025521381763987565043206656178689956106895880359107886585239423442722705025595441898193027955590898024
15 9 0.1125560958015879239208225347200869284251942379020550201560326737602940016601632815145130813253225472418504113427804954713410404979052351130827285306130421955416880321374194017432696832283545026688100218380861214441077652476442416226203694011449146236199983798823805713932027112616039152409
15 10 0.088805458908574875518362929067451038822807965705253518129406612678070054541133182949128541551551999995524590624909222876197412730639656622655213009944180481893316562994174207126320935388181928653929758673620449718469080014092818916160884402276236953517973583827863722800626389866965029582522
16 1 0.0032356643771772709360628155593279237349361033198872583012779635557115732961130529831672974955505737312853798152954659329861509192824329411200425204204880057360876091892463944409770211821493648451807726258393343430785565779106493604875505834124310919475884474960594667173839030991664128616394
16 2 0.0049077805437724189694599093579415447761024832236395644826571972972336132566805406621037156421721418238282102730036104814831923815106351742360962347522391392775845250082421637949471467951094620693446524975828483932100948127679895075299654581720321511773975383569778332794561671459892109696265
16 3 0.0099266812801737117893079533801900803679994004653801313795664627492659163383283816942514378320823186215817375813919239372690054414255199884718540888082256088654377364566139641637188790563778073693071027246892382165880033278375462998828334879785482736059161585681313514273677529776869427099547
16 4 -0.0016228779242972016995019384874524650675824644702738151649454509070091241003469532414564393509669215537454879183531928905036170244243342153859173943100795520079862233447159735635354196106617799997468594969065146409536968682263136397722546171181118631113003738250781449869269872145027502931128
16 5 0.0040813905303145843601217085578950624131255018661946152480661434673325626913673788287280675281491133866530450128255392696986749057195634387579182262200354160911559434781302078977505772561717091606785341939216410288643377007249883856749813125996662379993217820410051565164670597398729797482313
16 6 -0.0037450522617454215002006163887245403668478567763323766480096792659781942344032406670451501898686955689111240606929332635056507936072184117037381857585434283384584799044932297304720583337966263508532279607002375199289710430276266839901525414242669159639793218968746769069900044062167889993887
16 7 0.0064883200607835332557575020715750797264560808619981246495463544190379003502575591509431171044222751786481688427029941705668083372094657806305276180328019601850583408298075699380651516929691543320221592139706912539633736124399191017216984999409354228088157863704196201320987458687630099554866
16 8 0.0020967938089013847164245201999065205227389577171319243908918114953726408919374044758779514759401288830638695311224246615631724300251558610043487351609344547407416093034140368805308108084313245022198209810703494552387120472630027108539846871743984520835002895351210868615468942455667296059155
16 9 -0.021960451168281467351913663898761984207189613902816513378412198790053295679253212636822187148325637694399211623814579600839040425716190860020662478943495209555645162933696462689668021230086056041382213090768769284571442702289125208668698784791765078365517021985075343725393021933797227117479
16 10 -0.015561140334798186994765032968772305871482331788308470819730451309481277674497556062330747789915926257502968314437336471360259441155830546746142789035494459932431939304218297869371617225018829435951718404071996766488241474775550892594246970424425166643947129373888254321597548075354868285698
17 1 0.0090492989034370450876677153517863536135216915761825342858010156875177927913987543402690478787099230259149080028861105968706141497726523555539479546990489242662117312700694023803379119852524323972804714237510595665766968968560579952895691286467205785058986285494449579469085556537066098182629
17 2 0.01235763582654902765839711358677797452767619345392799169098818263919090012280716237316760187755441826311152714428218391921184503764457759530932906859868080959952217772561843865358370533554106518066187903540875017874233865669887445621259982208782073352089555316899625669085146410084086940244
17 3 0.030493003958176040576922184482581631649988772979848832468456543142688879367756429543263482194279641771705735366561030458011659207268536044205230899596155156210921897175484019202934017297674418856620179948826750974471777636919027876436196873439631734827492864425068401665055909792495932205368
17 4 -0.0007455409047415931966233923773577730093059404393850843342924937211478883430753655449208486725047998207508664257827699205226803969047960840828720135123101828190762850693971826791903227202651338099006178822970980449216893054622454325027275155656253321918611440475438271323179014267875778698342
17 5 0.010874240431445528569061082530927033047637190195766965149841692336174773926658503037278991759469159042339056825415499604496666939261754973341621638629504974661911034312695504344770983439652769942147555962193606485676424981368991836936777955464971537135609588132095875750834702913074980229931
17 6 -0.014447884673730525738897460586343745285854904905322232332958274605549855523059999355278916291995164734066823881610195436789271438144401530655903561966253204516137650005540738676001544648218352619873414569702228965760630378946580570546668160564874533078004243128782046125012126969020882383827
17 7 0.023233502504860908617817390508405451134852316581497689192424439317116001361662419874603399934991304921649226662521374637793669872408235252862282061121161893092010472823823888827501334609843380718697173974403826050320541599099299526442132046468363387245496175864891025653975820607469894405468
17 8 0.0092025955956503577490983282685629443142847243598499232405138402396700946552710575659697686961355692848242662507780208118052059035603163550437709833660697070420205676883812171502837404382206587159066146437860840429475816803949502886182711117840268762742776271683294591222455667304451885351737
17 9 -0.0750961027605899893919316553861225434840675242334026911391326076247654880613466058100602510130651718094714171947532046208676221893794799567892913500497491375113781103435431697801420099550571787712289302319986241856429562254673200778468148498839231175320191569905203708571617687299374780651
17 10 -0.057712204919100187472837211774937874299085699189401192363885042263970836793423400448778524012940323059384602150326585110137347996268725576143875849623377345879942355846330013986839096907723442945986320954359028213308412362389447459114354266168426369184525580604576124930361835907153834171409
18 1 0.00081519375668580981804918962110991669183938430214953195272638533240744284489557836197792735493574551430920438342739701684462122147448014463121795233170853102529191640889125040158668658432169812433281593457078184501687106581380345415392685210395572193955803211139010643640794416932576069374586
18 2 0.00067438464171610991832665963335404688314162441273617720293689286320669395358739209854889097777987611778410808681471031845026723971013261203113004083030199224746135096084350825421754113749227090457314831440417675218589254656013917443978750327618708847039193455826975385240019517460591553063379
18 3 0.0024358301393611909047204823035603934477115531285125642723469485112733231821715504669483011845663263517513001657088973818248118107591090563457046903486713153612704138952634986186090162161052696389484725883645163975166671942146391700716578674513606228208368371378863284278035294265991267719366
18 4 0.00018416835930939447309182007152117499212065955617820931325459996535610678622846308829309681012944977027846737486363915926149213742773616632895909016365684637992871566710053517696115829768067808501373262677259625255990872206315550063826994498726466054448641446944969808688696274444530423505024
18 5 0.00075706797172547571360855779978870564395771694718243475375739145647301977930267082061172430808055373355449621173507889778607391226928421992438447860981263350101498719757261995184978563175978025004667904219164855096711117721917132432135649256462623118068320068296675816200160944116326727315793
18 6 -0.0014202682017182659372548317981025926623979514890478180414847724252366377832792959566488317127797173858539393896206242565391811446231298395449446544677088504133462036431923646241560261224281759216105488015354439236294004241404833234481495060237775699379437872568322130565813704504522970298995
18 7 0.0021380143272953857729644711665965739847893274807572525871858785857038637938560677033984177116483034373296919768650835551584485363330033719058070337035145513395581351491790591930344267168170309530687965031173573602237581080384150885279347240163310417549300589397786220386673696615382876739347
18 8 0.00088556491946909591941093711509539890205895209019492253518191998908449226467434701160770810126156959487881378344212929783732454381060321348798667246990543603912782514285215924149168736575983714526043325574348775832117796718710862071561150758284073142468203550816737951915683387840439687295665
18 9 -0.0064527553436431809461505949756298428563313784474513677150872983152008303767037685017250868845388769007660845678906281501033046420561891773497148067774023086898590422348666838205300295159811188228051331045203448659211005489795472459424467057143231295491886136333539888005829882751097603194313
18 10 -0.005222201295466163198257346188145641908758984456649571080494700592972686171698348954690797186388145826377983358418472258432987170172232705449859275307333646518681647847836405238687516750977297597026635891500857863880892043291392999440789010661933732035260740035669759689881972910890625761121
19 1 0.008803038915545038103648709417903776079996210286876291262560305821648382273309161747563638849614642149744879872065993484138297852824883645451442328829464089608159521797806022406422621140447055817792885225456902614295942124916069649683748072728911185312476365090490930649122342878808940275354
19 2 0.012117228578582572214173956685847365870579935412467608585241757882926130682975236714203227100703666795016722226601181440435782320009946410751147528737308598416588371854193820075430007928063014312583496134001803781496671204144380958566094040180099446334870325688387533342414193393179416268603
19 3 0.02957340440214865755846532262681826819878521601729240516095706412722739253499735943770091276616784310313309941123337516045472084690112906647518624929178750511030416321504097384873067315115604374360346193111760880631185814217508137191985935525712895648644249194028700986493565197825063659388
19 4 -0.00090975194570975473311776772620619316633659277732458203204702293714206641983645594319529971139956154719803471894286750443687818292810268641876942042188944517883638945730122742648316023279214283096256959463350437163229176552779554665186224870437010509539037849150395565521535863182041872010431
19 5 0.010620621076703719467007268184502853897306711224816861732488592337011602558434291305083455862264614995369364514473044510713108397282462453392602120404951971783669056389865490221410797297026770907721238746213545803821348283246421722777811332701282848886691455338707587277044442191258788828426
19 6 -0.013870675042573600590951482016241582411285479212652460393938452895033847001225838366772456479436467129007678034417993272739072677211383290183700664753558135291098816833033091473672501692242529189679066904508132616356694387704597417105763750284210831996008940308391744175356768150064813062659
19 7 0.022376309716358418816681250507296274093949232326701965523310412155349905098791051393270301022810885000848203551167656095960691841366906562218787749840834900962944636947282287186329637427653272916836541687638509245060865484777626746795195438311864484284086196603601012701609572761224476717312
19 8 0.0088028330496180204592942837325381642160072004560085280036357972103935021413311172453660419389254682064125705997518384385240926541064001350618837151373959056721335500978989064334226401475944279479355817985491095693646048704844008495943346630304429748362437036178938668945940406519572748440232
19 9 -0.072492019342687172079428758316427701312258287094523927132184950903114060382345272855320515315086433781815465163142716902141069883266667006954565677146585017064718196068533763906469802328470867415950037999706952219032313437307990867769361402887858798231978821724464221317860004712599516602885
19 10 -0.055527524613335743272551971163763386919243255473760095082586717547269393849630103995290794341679557393320593069314473066834161677516092787074717106434393242018536758369950052025207218489028024979549570513535645767004007716965451298783179879237625299371045543122361703712576087917488205966232
20 1 -0.012011716517697985268888963653155746008525642315280612798354447404301702919288159313083594290935087860113898486946321495715477060155858952788259649551500388085856763458586516290457603051534190609222947454534296276582256821770477290895875277887451949418437435315355437752467206157586594420541
20 2 -0.017179059604855300398473059520835706336187134280724088155222148592269396285846664981235537189318660087508452381176662399878934958039833889861607889132474140562476719889617990321360294041704422649237529010016691423217201672752764545708156871821136770895857937315035876337610954247368539903278
20 3 -0.039833300192173911906810365398616834712418379296087627427177080223705149834269305947427855314238822529830878072383692286659065261870764387682824044732357420532077737481890617350041915613104482628171561738003753019226804103027160522633542653916577204548272311457147985840534808740623181583943
20 4 0.0023958706311553994746623350678715062896392636791248621174775798120209235196170619127797220361859263221028668809263085688040808766755636194984615070369318520681693561011162858829735479590379753135986036063629429793201100775514660641411886583078166659498042828815769754283723011862766598884386
20 5 -0.014774334405499212115261556506292425499422753712784031562990645696852380949666463791516408501899243292072785744240424594740564948161758702778393351436267361610904290807214455616169760342849898348334923474438537575408086118863925301352371673404795475204752423138032688202738404652848415530162
20 6 0.017831880278899405098753583227487369180892978729059628798820895820147562572650337987316429235054152758440590685733548570334516706111805566620152908549961304330092464401790556157570829978722003098748905701155761496840173159221521317221821857305884810311606804525540197018774752152729178510778
20 7 -0.029187158820033439604515763483455652360477760332059716677077005921802150810641351944937477146018869902263655906941372145361265215575628826801860580562552672989741292403712772625424745641568690176692355737691747705050607106427618741332878832638070902292671315288011033407430281236235593053931
20 8 -0.011107708311645286362279198864292364851852206924343196353264233789635937286669395464324340715808988974463816822680679891947625886732711576480988857465480104188726325974501333897977696271713403695496451455422152163962812497011058396468318232973925625264623588675042391897085283357712836025673
20 9 0.09553690322480397743955771373280280688464015214860585945743582741333930495451423525552681128944572071684580662657104513010021379039184605587812118948729158417619320475597213789370092833071059847241466318511321195504526892360396938186902525674515014801279824944984473561535414569889071079391
20 10 0.072056391756246672420710608953146521067623540322279071777064313103957613351051945144805107964584908833108050376238786824027748258112140597257953039713513722079362267944542987450241858946190614621370948385189786762769072680949129295790392264490924205782939084273926246569906550506763530959013
21 1 -0.0033677538007814174760590136935685432055976067332014380694483740131123566048354933700985139953223375566781280038734827897415143519953645582765492380411692395245022624141462081167948525409132731236963887924222903155787015593902509591350693983423696134029251994097601626269947766797167771543549
21 2 -0.0035198770192404614753424277417629114472266383915173275462290197009712600226050831557621563890264067673920029120795674561743910535554303686783261691146028803502201003985925440270821618694928645247760344248448191976893888932546887322094801670119811170843389922268846007067118448893571997413875
21 3 -0.011579975734835176546374186969463359793934704058162279333417550722090564741770097961785155683419173436064805839904215687895144878079056364587300661519308814690383953949570534598713907584698829486810941168923639897148218429218406079437563205095258392322865001193326280632216358167843185126656
21 4 -0.0011478238952892518358590909804216819877501681119124928683836812262738185360585776151647813629739209120007464785930752160472205957025304237035825779475009984848267196993370824509373080293328367967111590374063372653332503166300426328008794443975895737670128039999032170081087542205534324489
21 5 -0.0035431969444765621083295379905344888352842649746722889865373895825180396220027970403397123423545878334229700104686689750833116051758060895337063612092650504664296658914404308096933747377655965716068778523362187717011691061028606042177124507373689359483520162203988823105871850048080770572472
21 6 0.006628545394248345735725914496302027578862020709833445677691136837030112780612305324639250732097866788649266394356257160598170587804656236526877504623803576981940655288899546004703165768933660421016635648148224831486703465725310700276567577491565411803099207747995604696850486778564928004308
21 7 -0.010081038018191808074877010745004308249199710916578637102701389017069684374240207018960820956910014078929238553084201480589203499486217687359188137157131231220153746581759522706183702838184730264544057027644600529578678633051889537859109757794965256196703259933214087135379047814957045320455
21 8 -0.0044109590633616362746746302376376634560676074227502127449979140018250170034206190932699579339570937415710339630468841293495911172651532379513768370831647780481876971782059211044255088524643056847964575271062486903693079833684984403436295633737027702758389023263642870924636164185394457946005
21 9 0.031115252926526584373821956794634767483075030683850454442810273308471073293723211083480877297067451969902603370409899662459508895263499286771435234962687552191209540634587024118818636636902161545550130046415287773771221645074616058108254139868133112978515349546091474904451570185343065085382
21 10 0.025320468729663962491138275987623002358450271687876073678159714427560881535775003381248075056739134016296661137605680692476245676760016732888928046934912341502456157619929864298340562057278144216867202037933681859579136243309566756542159194089174967300437040854792136222917191158852078676096
22 1 0.015078070558268920041314930714138345089139329798634359218028676938595400052247258117216526602500897759877935759425650461034861888258510282510660848215136806795400974536791569747851980826714609583460573363295809879711340822817859459196984485375026293973938654852663293200981346916957202942218
22 2 0.019317641221479702449689830941008767375420555248983975430307619752713649671388641380251265664971367394817236522080954438147040189254871331287932153625527848498169641495523210785479709200612010547699802255728121439304880607568144724472639438886339539247706917823767527997339647684029902651064
22 3 0.052591872052196313047047400989788969926935584274542052718984636650793589801325725691805173178599116184094579281041808316712073734321196586493657023078451814848368742915887445926027455787280865074534754666175112910670621490674355015667083755113195603853587802991242184837982950925616685543251
22 4 0.0016737975439540318126333426127203223532357697173573494583379711386774512973104262729720721409017237493592338338126180320650712785058401096602937536455794206612627961202788449176354973732633341293743474408046806270137550054542921650633767224444383576894771845652826993737499084627191811150431
22 5 0.017583371818594994269866031492710573655264152995772203293621397181459439178796280239784999688943031871169553327463533190623952092205543779181314898030208421417197922505775974134735202580620531867499743704221855365809529464057431289709375724083816488538809748480614662649314297422173610845495
22 6 -0.027041132593276491523333339244663457822198775909655392828164299436302380536788757869022368139305949067626748511801105217685852908699659871729195784894911517847152340259200648330797420325801396160159997438940327950342818135844141603847334055772524088890024465473944549759825901968176004417305
22 7 0.042439653478207475977427998040476141128930467558426110453788469590680257399889609437562337310742320875999011344684323241785924474137980266480166519462716858950885519710449672501400066753839587911024978543483317481470516348253397932908303530890066637092898947945684891456417462887670093092821
22 8 0.017796113065677823593541186506939512637878537521595199538002661400879513812702780176548761117772083614635146510950568511579269789690464500406315185485125565563067691490783398821654158238723087403649864992983144620414363387250992523672912850519786279125712269356027986135318201571897671795877
22 9 -0.13486419297898212275078819343416002527201090576409262494713720683618640351374383118898181385622787873369145722339456919253817096582118719534994499015480839831910600664026144624880633399400312114926224956923636253658954941272002808277815319578835611236097352975517589226104448675540013756523
22 10 -0.10648980752328578627413526461428774881371405164594420668333502352083627686037545574286922012324663322688471800087453326850890931581401786074434981096525669539664491781035376992265861790078824957317282708795092182841480320548466541425362894316174212654988508791810202523777304446022935543233
23 1 -0.010970510940676666199676288993850288139501363020281643422658020263329164085549279404719348881243727191350577534134318113976680511644270895669412898802247695587076160890988565310801597188391832610950127359308261935765248921744416373350190731004425165061466184672113830820944178513660741106581
23 2 -0.013707130005986029235869300050186493424195584926402898185825577382550565348682049112835510072864249778805562339589043815685902490979171205655834896619400643460244718944478949868901814044955988070951804014415208945800065125800992703082165240373616304234783645318796968957740148370358573369755
23 3 -0.038635258901691136133950351062806386589901526136349665268893959110288174657854108871527050939342930626401915956313445909236805729772618420925160105970914253103670772957913478666195043536092393505201767909929242527465991747642759934298120607222578324464654783747575046087091365850446959304792
23 4 -0.0019203794975939309163965579569949119826774815977399747803810713091126356240859708991953742145270714195000870614033026726711364228523497699540080285077254874121168495948766960060781310946865924679447635302063327581425182691545444836721285506445664277464774916369354340399623434724065292762254
23 5 -0.01264200863078954922790574950176944520977000470075284937563081194235777645734937943607013612086494962064613826580216432373365302687161605255730686266722539145620743590514119252237103010680391460605221377209641914968482983470520428641882618423901706819859608105390415506912579031074160663367
23 6 0.020374238206278976279472367310722779339240948657224700242868770158725396787819733645708628144206057755105965324313549624563764134189952665119743036417477149856080880064116548047795854979928343845016048218310245945794938046167962246443768106642486472287187222882895130996853321333231316984689
23 7 -0.031742995727744186180844682895114885772488125880384652779826286631438390077510810564795914867260652344973349983257467800502065309700851169913413201716490928938814924734662470749174148709330740641948894546697339217869390622720256641193810534907578272352597026622250066368477679078109679161275
23 8 -0.013522389792126615440397146150808709072807313321210273728785405117390356809873651357997348010946809431840897929452471119719830662452957906115833017070785561942366486565304864536447815503927178845019239498425595609901783243896526559709634575267970927580154346795072467099063456486093187376413
23 9 0.10032471862311539071239675953833498808893703904821339601897393461983881276315174047489033540290153195727582720150362864978082682339197423588498234825645384444346743112526614040153498401611568546084736981760645830134483418462209919535775773442238567203732739575579551858425248986474222578605
23 10 0.079860242773129463431674251128461394282067291071874189374954757550260930507085763262993689151879929836680795236131340900354858039338818425163550198834206000750073632552036348259950389614417466583960205654135513577088776447327389967157106887360887726762134805101773178394847037842528173552415
24 1 0.0013986963995686501053629123562971982371531357907246106161240583493185343681303946572092452014276433185856927741383401738935465436211078872552677543841095597633731206358145682723029484721642143162806776449760586790865087281941765722921084496639942698933069244534953564435557899546360487987254
24 2 0.0026319668016455598962053834070999675498431711319509133106561516416914955100402457168779914280235787805869154364428861146705436842377725392295239746867897801234770687038757768318043140250673601439360481764144860214254356755510909932600550146433327299580764597960276124982536282312751008127862
24 3 0.0036603636407516444261334615324408594311526792526401721457114570661101090576352792664372936018296704960236113258649733443298075714345001553364944928638153826293424339349498013766764227458005850369184868810995834581630715183219250753458586725042425145583133888109009001861769280026651349041436
24 4 -0.0018013468537439415612851314118250800799008989946627750682684852852324703218424180756992891598149572399820163559676865857920471256874581295028526922446416101131540516978297277921567151177601351574018507495387993335992195235596952637899969807415110111709174422519696671446137499444146026906475
24 5 0.001981893458010895108244020113086788598081907091513871339896441494422721055696879317186586329586452695465850499182174766569555412368401062112211442904344367991216326243015656770338592776195107673677378475357053719842326980533837230615303300716472269539834316919697120613802084768906659236205
24 6 -0.00051343319781459635687969007360836941512415221315152439568517724336074051579512374156899030038664486759088230726438880879374260077708459472438660940799190933097459259179556198125474113348601390918885180118013812947217770179479922167814048475253047298650038014057935157418733298237158511661156
24 7 0.0014246382637547487893094083670615082012077987730342044701113188742369683183351537157108329796711161150539942868112586402963099617271818219325951396392278005527411464096597953117538324360363491377195042750048337511275519132074321320626852393165441947578358602237315843023868099328429497079596
24 8 -7.9597575090755584354770310342675868405764336511500091172633411361516086531618922544614215455817473912840717389386911063685128976581055917060535403736729742255764244455211452952310151268447259128735801658533550588006437246769998759657886586098686941083213704562411301475652772918327148023523e-06
24 9 -0.0059255275913935590129895172827634803047220581798765008074631835685287685676524394354310739157251239460053921344114204967566751961368074451304416648509473823933374301014807432317882491988211491351831861788872735365972336911637970809888524272545797132684791265846841488318691894607877119100073
24 10 -0.0029113300208483766339050549707413128258020996188936965239509238480772153373323384143864124704124414908110156170842245055254900070226234402718776018879577319226663490900504996317936571836466690339632180315843625108973362299067185598120251864433658654376501174184797051831823322194932955748374
25 1 0.0081538887967976418098141027508847230654600062225911169595736288770228019712446981318210018457704306223984031488085872267900556761931031207096134060243087904778696955540331482671704065904339871909259657992152389240220092916191316317867302732937785187214043952002710001039007999549251810213352
25 2 0.011391832769495972580354605554181068248642602802593537242548457369241501777871280215596743308460673423732449944114293228650558373527747217788161991407505849920869538907780603429861614334828740130943381947802702179293978062051537404080634067069222475068292330408882196555559925375706278469668
25 3 0.026951067240836104482785958298813584416050415306766536788572913572769487168597466983030682111852812788037579737556985968353929347321968795163501159197251093885747840628944788846469624373103310380612436971428811627897136961195839604162321383825625918002166938216434368146137542747392608157998
25 4 -0.0013928154604353112677337116484539376329398503422518554284756721558657321871147367212729132380970821283695102322639398912920487567350315415167623818888700327423533714374971092680360472927402787924367110779574810859125724725880408981881778784676705648645615531006457500004714905042727308115759
25 5 0.0098991072413068788368688060994263581828816726885268420576873434308764166502965329574007055632554112171617830736289068185884851942181644974202637319282151417342371995248306541744708085151468604231091055104410013262887013787191180584893817104366814108968321704201849805062745702463803316229489
25 6 -0.012263839380425434395998132572584675040703119753423641054048377603251472148057393169511911555321774362297225306749215850617273174411727286702868542208342024215096224485229516537194463649150771290026705927573644802440548846026076502780150403794466608733387725087591467165117574006490654278613
25 7 0.019966575685708879347717327564860459195385316786959181888171319951950142549893872933764594681993671017198123733148723781418838595942088007237661160797518637613765487017142046473977818556509917815063100963587098628507472068195174690154728605212261222018279458230646631897700268488374714705952
25 8 0.007656605330110953276759825419931894725484653331062018982977725612109012778295012095839076834231794046257999262638226130438429626171270248019422071570237699031288502055065844596426496856797238897310893257111080803721654643926477438981587802206722700834082985705391972175067196837812813239269
25 9 -0.065052784818176696182697675841616668106302880940370068228150278204893175002175684568103616594132583275605824837409120156749319843313824553253426188631137143967937852416231383814638249119922844323940592089577228942945466502169508397959149822157191953349196109721713979399478517358296263778727
25 10 -0.049296681396950283987222675042853278882661337522772713809208774699045933494611536636222635239270639179280349452655510902806485218462923234595064506728944931007932578644906379064334038241391776138040765090710259678390742054735762505138995289834240990582847589802757160483685929122954824789625
26 1 0.010460560026939626012643176014873453658703156636611123205876409991337967783505255424577941237348918410878887995353932318234776300660330156157215213631498845789824934286073917875307530101897710528887775123668065806652861923706415018917626931712740477729217181382247347949600488889819032857584
26 2 0.012891425387844000647776657557886599803017263865863983446845657266454166074923616580070807531103468491443447825629924846164381361085205191938553982378034976921463046934468052539624225999427776502755281169171970928775907003952109730678041901312146459042484454895775712317671993732502215549611
26 3 0.037518038957421257305010900852822422091447852790520137425473166722192452664268165395215850805068626977812686659165736735430157360406130349995093103637302077150083777891732453266437401543107767955440711631570015379506690250482962591173623342582929971757868390988163449589269436205569842427078
26 4 0.0025835586458865645027972410016670383838353828255642102512649587126772394724103569115882403766254949510786891746926470349290767474685632430187933587128218799304778340190068985077376508158327765687347077031036457760872828198259419281512376808708679792397090566124450242803554593085013949390873
26 5 0.011998973299751040366135066024090594007109613788675534908315662604609345930262034971553561540088202117547075346593081574517276530505870589555721571001705912621257269967180897854304885358009006112863570387680799576401045343384604538168056062428134492712824550599459779550402781900045249682932
26 6 -0.020243923385760548866491909881171849314635725065406215805704756901449509015218278828454813028969590016883184834975033144564758062673306176374677223533642025492127442638093607843087087458434724425321014368701707957221291643506569471535541548524675672867161736743498016831487370225577200869313
26 7 0.031348408854101389031989334158348634216213735642975039230178165614176280984180027962034183679721255451933126023142413777380004080316698799291378424219448319098797269003046819494325578549797656220823973106217866788391096195934566414836449928714776767153536245337248137500060480182930622273006
26 8 0.013597646977430676947980127310415121246550658462657339072687192432566137819977187956722760024779470113660454029560420940954607938633374423795260107701721757932337609029669882297643914517009373811385879542784814050150616652887788958621441162605066479647594207979377690527294334554528244220273
26 9 -0.098707299878505532325061029082282551628578204816342446812818024725010939075678300030608001901686883563062168921390066426519875290082424487356057464232230791951758887140486493932036312791059698474215820262578376138376902648325536554215916486452413350403457719880669818023411670777799202875307
26 10 -0.079204410973075838841216307953901674925329922638607935878167836549642437383004027041660792086529369850127125772926143825715621407298562347278060876652379183037155266594834427587416760365888930425275535826583073189103132785582689906148170281764322718198751414423928371186227414012980205712455
27 1 0.0061806279561972353758809767230459000801786272020265083007157378909925475448668959500921212449294720596395642913889895401540137432038031352766281542475361406816533627674148673293489870938915189401347561340868364684948430026430472536078661703415746076530687534572639369231718090907489263252748
27 2 0.0081008891981567615655778082109702687705310757495000502944606075951127089428194092300819029216568072564390412165724368823230072636299267502947283859521993828466903348085751594028252116311643453276672561152044175774042032266914715359515613701417218831788050973799481360333062923298157949236466
27 3 0.021440050414382390955306472917034971106143280656449805592321657227766240771531917754829334952235233823567237285456127243765269024126288089961072884462575516154030990634388058172562479693668018153045782176101668828096312727582453089054330956199866351001827059078242581954966101800107331134092
27 4 0.00038057871447679324578224406807577878306526522140799828554878558174365857969687848536507827919305043594074443120035725615579936915525797132923912997495365367563209642176392689337437799289531252747467806229028307100772600994733290707027799166786114847699548855506249510759581093656959052385546
27 5 0.0072898509640795727169922808699272597605758205743131854222212737562501290917653047987800946893175677516274197900565494441714219924134464630651266804316998556822323274049908206092262551426527528876758641858100625644580651190095339403439950971210761778345421285782983519159497654457116872458964
27 6 -0.010794087782259954559260854816364655559893243407305801885241217475213623248008035166104876049347280279423982075329544822271306552736276704020203282982249748687090437055670785026257156580694915684397718583214832906443728641419693930218999933680318247382484645278522471585468456184808361422902
27 7 0.017047045152554196681039692984681940921066726476289714612798567262046360673037602209755428413848003115648108483279743246678705618941412542257979144741529438706173727916195312105583337579538249909162511821482971880286588755749237071743287357886712376227748974792842411421968394291993138127631
27 8 0.0070599814146795984676049206759830909125622763845386186909257170201118440880333172743784045700595745928421005912690179664841753370273533946504991039630474277479272553563557421731886696280910714868767257553318950949740537052088034731738461025082100558413232455937536818072237445442896678483882
27 9 -0.054433103343561854529572577769347639658019796796487441448858522912944428243793380895181131418902341265564796228042174318014845028932165238697763946852640192779872586914733296973391932484699466268532085508169583291717762681867870299633071310474580121150891789911572958072978961768104814100049
27 10 -0.042698122938174290600376318528122183017528951643899787303311488890011676126341815654547974463467469121310879371294240210511159931997669780399220481172639287684530605627240419705677855094202265550069614164518855947594296004747021716775688032184045960689588135037333559244092639889921037584164
28 1 0.0089042085167436701849782669017933604835131525614342856741694338022319360440170478184508933363165057862852627930145444594309849819024295392457853453881455119681815395302157382847524937987562530194686370435686015231404292663762574353823425830618376451776891227318520447291625582548859715679625
28 2 0.0098762159156083040797423710025196648111666828278370668543523018017798279336765461340541018714677309646375720080614969108520890138460894478420256094873052439321936656582119998487949671766999426876696807289808148546881902008379911425854330386329823869775351656103965668435749251319655936878695
28 3 0.032983970874144465780757102846281177571337638847431411565178801391599395250231730297541106318084722103890259689924114960016086158664334941859824874892913276090914402828259635361719397992067531233257679994232705143878036446676853568155227701171980757412572288701549830342932292583044115751042
28 4 0.0043089434380992365836301005481729641390130308179266459706031326010469157749311379324388301966570811453962340199566160883058949480631614442882390637377868537542735746394068471436248709645613799611305020198970791476139831809104759578099421612351302573217635774016811926664953679120315602850276
28 5 0.0097353864594847127099640766277093665792999135852697867664473910301794630577497416263028469719996284289410568223589267942811898082268967342984786763417988667773379456837554841126997982370852319928663926632850395027558305942102043832176989212108355102384975459472435810239439026821911641319858
28 6 -0.019295464516239258218606370391982096871188966391992154221210554989227199535565010636773951617571106547502859433125119305463580656735787655749710760359291088051282017242984322294505347002384780485407999750318342508994324764742065976154655228950348658995586964971998821435860681928365375511043
28 7 0.029228742290177823233743372298246800537859391798737827282253309111572709731012960070250115978074383148429595559422916653373269776609983497576057932148210253894799903916896417948760908813521520525696907146885788494645643730693516911553963589332014146382041224486080069875416918472121924317885
28 8 0.013271317481016345277690219343604186338893649220128141669939503427031508294173679877928897788552677113790042125582170933877562267120919567054569216404846363005755811195424607405928141051472727343047139273696470129115785916812218363827916513691775891107742073664117053637099533830969966655822
28 9 -0.090458180696890674745719731491257973710690586632902532775325940069626993097425517526069876067323276973899763227310495221089662805613164718913285629034364077888074311426397944387613218079109944263228503188629101401426794012222332946915533219516843483960271290317617358084340832964566525425588
28 10 -0.074426082668432505533846669883336831419816913319926576177253867699685830730603071848532122119805209477097450764059608208412495844150926598713362742992704769321314757431203768055694212878220284984626430222103946055219150003761409440545320423334476277791620831290043684822599300125587841490813
29 1 -0.0038169654748881927764937534791461924127150085341137777033166601386791526381627156576427808782811374477330077629769595464297997792429218994897665512948992250561892258046125500182360170931568898238758481448143690978736250955342112779860446325518269111565332257946517873972622844067349154809414
29 2 -0.0073723376837644465095198319320202320639906723068157467362546142359248581666135183684867486858286026291642521167337406585667956921600903054219082317403484492980112817701351980986939815644204346341214179035579740799341353369243300821194244198580295359221326833448974869411208001693238894430573
29 3 -0.010150687414087597284432536857659396075911304076817616747656766611380333059003259018838839555878395170385477548334090738662933917907084667320041436529324676030769162889901908133239178469093019361806250703413278330439680388909823372972397509526790079509811117775350402783629479851108375096318
29 4 0.004996278612588819663463927630799914992039787586910368097676910420982987011287044981066349448824978154792034841506401976229986432629649896767157290859882042701750703854287179624014644082749982174895608663216913373527608670456034258373267115621605626006804218175837961343765277992634065793817
29 5 -0.0055034185026613981016538459163204284523836753954017016629952023043012796275206208587070118566748444063008804546983102598225281647701623092680884011858375909238290990585539605346210022688177555237613822569245860487992393184098659799730497627952033471905735179572512731312344719315544876260242
29 6 0.0013963252340338954631461770076007792204483458106292079877672315207204876440976669404105204519956349471730254902668862674167432727489409594150611799047923279653282690501670375971798086977742874977643955750136722458217797834129871850868297747011913497524468857797734934238701635484751548077586
29 7 -0.0039221156063913372145290224941710969335498706464229214576016463600723562897442847996916098482724474523117978137429915018223671252725558505330484286327657342389483505758855425634011366657665602292730091455466771646247767473672893633733504275366409704309267532579884544321654177948931451122088
29 8 1.3743248738792862822463183319130253771235268960203305953898804571705526288117549138723424735109778001126668106689464462060654475115631817914949475550303419717089007621967097183413023103673879213985848989673314368676605280952333305728666042776082243430655891655036846652796821123515852343401e-05
29 9 0.016432856445821613787142951261993760387144892114606392639431584017375729345768470213512912275471452821330493736577184352520773447841492449276361186534281782832720801432284779771819636593359126078805949726257385913102281995285917978657881545622619542814981435368189480382491972570895125892811
29 10 0.0080712308499104917917102658494938477118991090213148612768870605581735058366823336471977273362624152989657220032194447809513060095337179025962428114139354583468675474519164471676101689050455797047777832152949253882641589066607688163569592692684012242235937873782968229265173319539854968322736
30 1 -0.0034059846587157760693221669572896420305683721235740453353391814272617703689970211151190899421210794978815199868742146426036219417544162418843914913091514793483435719157113090311629826549798438158544456107070648222964691853660248222980960158047837991166571406614442246897297470699413501662889
30 2 -0.0057609787236287675176307096253434630143283492206570069059441144451513057457327077735618369039696545331471925946608090113065303648993086908243279911415940307696117946126663616412990633131018077837913471568257615882258026300917216637470133385723448803034480162327326736757585387631185741161992
30 3 -0.009240033448921665129295490069554239032501498247248171448599889861152064315235689564792864886419196785786239134252110015156680224586804859169436770487451777554457854159425511508116039635788700899565320485722343089060144229387997403785309334523370345741349575960256088205929961116054288686273
30 4 0.0033735218652339608431283866286430948318921296139144384397374446801736889773301289250658384380545340594949095464560009560971143468648818874793087881921539693888486820964911560729530702661054020682321426180078990126808088730989209134002153667606556736609448125129433194047428427179857579839749
30 5 -0.0045297688210590486287533024987890219423069950652101126579654554602386861593295429938535247040398059079483501500161075777720510203911348252695333200835405822191875491857750097618577211850880558348009852685942950992660249701078168402959101653101013884970585579290449785291975853118651195703539
30 6 0.0021993078994305532092008047240302907494283734184588536928557033383895703288824938994992511282629962845378822121446422396619993089337252381286928192952292408521616449766337713902315625103967083880957061730085571354884038653848399976503210550372856194525241073566468141841204765318327958739107
30 7 -0.0045943944994910946684649690427374027582711153487393969260335143607380987110249033775424283701712515899221875443919974664751408536864287797715768467142025182745247036633874368194275331398041921302920616916096667562174875183608828455363664919751580578114329151986341446033073755831323551218012
30 8 -0.00073994021689696605336976732894425264260092108706767087233873255111293533398981581903178791121663384958960083343040033240468232513342227974012980501019246404419804639306050330848326227813328143507239315698640511426055193865873436109135680605393560707463925358388606969921021327579152507146341
30 9 0.017088358433124405378872984673164845079406781181781793408662361219093740673631234724094092648236149613118210169970359646796838139987929588029221194646794164752821530477238079668822831517440850602096992611471738851474191221894594392059786079112977430457282773879769146934134083403119836125886
30 10 0.010136403692727254522842279193247383102936979402608667361647982102779988207843212782978086385987820170441914278160110765843466691001734296323490618338037796702328214795142108991662347217915035644711953148469333106664098310751369867413388347001950918957275554650668516317043589919507434116018
31 1 -0.0014921191117621011314090965943428230819237550071802055152362423846387014707487378641089064448249808456238361337904872963797237892450412227779124826118701226701212186377032611657250166662290620789675208557401802493260248739440401591261109022111333196216818182444140650994805150190806330634172
31 2 -0.0013748844572753946349514579962378928202829471533577980596035213168555168793130323754291276348560319826803709031526413912664752393921067515875643273471652913774505426066594266324189681621250427911081821503473255453060966878210430640288974808450124153741797124480335079429657278618467374931603
31 3 -0.0074457323887671884506236008951847368238511202783982794625849645649936669256592476609566607985848274061792476997049070488874174316490052948077097473095514176797873009637795285590192213747024900538369510601821684432058637686322758656354120485822393025614255344511076303587894570037616237860329
31 4 -0.0026063343935355083867543028576505102282043678065132723904418054312184292758232882519569580971417463709340277877491997922392989699167011021016194685979966437843302428719035209865352391230201942443872614938094802839678524544529857525118442163623685226043298549683188025618127839360821657488596
31 5 -0.0015759105918251038980755136786018259888496613464447752672857906283038581502082802684470261681536930515290291664831287186831494857383897224469015483386599608314408695809734749378478766609859022303025331309255505523311041969778839857620090973732766877783831351369023586935431430719542736457491
31 6 0.0053774850707621561261622955326292066393902290286267956561845445355644763625018022124139753379067676992205397008838186295740421078210501788190367298025971751474106000929644813138158339572019625822872697878127408487774211191058605637351351380569532884719533493142517219609437493937949586101964
31 7 -0.0077621266671036294901036149555696923019285755279356062048337004608637564187963112548235948925220863684093836792104487980958940501971825334850375722867551515985704917295547636333570177861521666927898675740534728379038754861266231872248209326102951905848378520001207682081115019761008160385389
31 8 -0.004071850477220442761786624375234434213219006002842022156060035331794169113857997028310634428218507142996545539268276173992502788121974569391938472224676563646417693065225048959948843331386538775386287505154571435759630813819588877128356396844234367666967463462782943735352374544935107286169
31 9 0.023347979017997297008533410191055671307597150144417549488981007288735497201863563080755941600708238117005688514902608950256775018921723296690463260472744372466829503937397936267375315323604704279780419424334737735370166075371293220022051482301233778178253337894005919999873033462066556018254
31 10 0.020574921162693488227123122185063057261814739649745596342173889406694121969896905095980409853123584443349986186266254005869708479015930050910833851629831074329857076251052533787380594363756004935088821376538899913489323446746697955747182307141209337629214125314026518610266108605285885765175
32 1 0.0019504736571300231866871232730493637705325735926481166165229659824004516549205121578814587201574272348875216363102705760516288485303104222297195492386614128625932226468057303330194321910188952065546133071347337272735585338166389029424290996829906823410559655497890922175895177720318257925369
32 2 0.0034152357219733054906706970596016329875615617182158997012365343498785244458328499669198648508908455549922732304192361229867605873228790959634684780254477437540234712104657441994263017895219466462920225646487953707467262152130074468092831058815560806961204050003378123383341539727423688158337
32 3 0.0051581269585475738138302006301077489784001874703383602246508529744122484333017156832300159299451861145006999537878624977179132944147648107445690674701942131847604278609532392383368556843473786347490653825652669040063428382554890463928858904471088825920445631865073136639703274497697152647259
32 4 -0.0021755419119427977652793953245067044198012768804594485238484870289922396811290590965522889658834912245926172442409894052138578759332110639043472074801105888451550024631091591898341309257934971567077885677029006821709038911030092684471089379873270290970587419585079319288530278172978382788664
32 5 0.0026445198174881319612252495447390827321008694752976731168670174173308120644056010120584439527575747448577294265695899529227766035621146945867217186369229438016540573795006733914118448719186496073498291173815111336060899898197635166471056217376073035093128072256267108386941117041125488044787
32 6 -0.0010121051641447290814502944534948532486705407124157371018022777116716507665621960383700359586912447515723291048320629535351617714393699494579705873646453939399461606768501397792417000305461179237454815215674272799268447489879941145557848032028171926658393958371650998414171749975134725720192
32 7 0.0023254963238578532864562056604954440520951131919737380412942899852430858905729496468255683503604430749306750633769863464785429548501085789205177248694015258959280449602475806651056958185087987551056275365572203250923933329219605693509323061371698045490576815620404868784714552055087648468679
32 8 0.00022171426047665238543058879042321002595158893132416939070567420294526301980529721476525447199966454876346733422515986652581113347044072105025281506760665231730825378772201127754131674629586676125289944545799816991826476409823183272324361795074916256869958896502371083905006724171506101967759
32 9 -0.0090090580304904427543704357589193344486373728000614961561858813788945701137131337484358359940975295079195516970954185339648823733662838729165090575229608242949228521293529444838773290239320113874715691743993273473695819611121539626499202619011611585360933593489121932722429709954471084534124
32 10 -0.0049662371195473097241090823119999269579369428230695993701768423931611602116795355039592499446292247286642497904135752014046840803340098462703956813559038011054060889514640621762244838768213314866091201342715968600598395077164038668444566460526688264317982457620377427916024597057687358520872
33 1 0.010788536310123373453244285183665149864813307974367681976645630239774008341134757915519471111703719548152980790001654894212430031155370216581143977338988249108795694314191797292507736014207653597493767562678233920665192349261640907986659738888341627141070242311920811224547516071035666235984
33 2 0.01398361793421295946766701616939908629550369702685264384645080137586445035247799096966982106807339844845170831855671843010211937409149666534012176057540496497474200011792107052192372551418647988739805250927267466893985669864641864140298705599476108477376793446316598470875424152341399379755
33 3 0.036399328402818247754591796146811411750405318879026133738083061190425877918422581718696563838645834050895973507591768933271095379091150993653316852198325005630753587497397971352606742242223568212813935597020573032331341892826748009799715774836667539086527808918837789340310538434790453828426
33 4 1.3912139752310651625333884120158399635828630530336949022702377147625541712862288313225050528708505235874170717502568694376980494442166341345320700434218944879480689316167300003073200686222006475790944051306220571479029057528892104035743882308340914311258444882793391775941018092607394160047e-06
33 5 0.012612200498716475740819907619904265094542064382394045822399438535425320705637699599385705879988831030380516488973008516031780017725502687206235791946294354499000724925624570062615700906290413386934245867497372088621343009744611632744221903742223336022553839619302111619055360706696998650277
33 6 -0.017963206957350318441734056620289969182048927133502157995972113173216460503348816753028018475438073206283325861841617512132718725162431741956933025990801559602244925830214639363950815300814817912806880618820437413209661321468048516445204397876268787122158494185763652279067691362375577593444
33 7 0.028525128300387541565876421151813072660895631136492494226870016650319487797566571527313596225694921804896815765402754489818335164894441766121335544817161058675158493951385741886468288082552389648606870221268183224437785399212837840518473918613237075241397204866248599340184662495377547269368
33 8 0.01154922507883237944717112330834701279022698960435844772178952986397023975018382245996217684714835394671554104886980139910088455252933035095260012698557688532003683986649581969546909825274219112136829486404597732141563015429521306188973724472669492715827103622163733415360607601081484502256
33 9 -0.091254325996629613968002422644705720992146505804570146850923104593850442435524861307874231764385360967978519367306917470735759213021205887184863018125643251920305940837377330380645157804493800919814238189623633533493090146336372604920256369164879486225438923362247097270104829333709190443792
33 10 -0.071002644360799387922862597101717196196003837146790163461314984639391537529421387404775904213103857787179902949518485415471444583323021336885472312238640607690902790487440191778475681630180916534846555494496317430112249651287722601103490976562706552930540530967397004303167157545120222001983
34 1 0.0030447982232227677632401658249974366747344905555492706661444787387500837246427836284296116092099516239414227808483735573963562481771117895740110116399189178646849124893673363946160616004698186183810311251778983684268852442588009478147143905775218785694175428764620718721994285998773028051016
34 2 0.0040487869385528000996476529725968111945822722133003008649932426932760579224271355184602291386070576192974522585013758009291818081396485162027250973415391837410025450396495752240722728306144439389179468482503782390400747551150670468613130110028341320043928046245838606630102861460008110100227
34 3 0.010051690023887155143849609847199811812393006674674786188800051363344538018666350316254356550487379650070101205117821237192331537693364507581860052185530006041408828338607540539604840429809959915755919158006247623005870419720128922953541236068509154807144177027605249084417359323215357281521
34 4 -0.00029448160508207564069592706733830235629890953533329319229511041560309267753501884049271574642302966696299031865822332553419392642880334033433198486863204050552917752093705995680534947678392339487236341624118402551280798996441174158474384896752846745688676970473950733522235339974209587949996
34 5 0.0035976882159260553973224183458883861283523455645885519779728063629723614948980450618875192619031289122199634320142029065187674090570499482872243626988817504744889346564078247093054937014550852391707383689830878545939076281494291158545409032976720831158412932210920280393482422650239277131191
34 6 -0.0047641279718114918772678089135627125062796239082069299766237454790666130013248636738900747537270157451430297778205064923482342695468562963848076133009392247592213362680059277728038830933250609330324621681994684272594373571005325832986474957582312314743613297996014079642488188807958321966763
34 7 0.0076539945980666761248270238872249259696014095385811173469083731792480899563021022164010991795845855808422131172273642300494953282187139501924935104583093211462659264749155344150070823351496790732036040095746009025929149659570326708320071557124556266204832450555576923484789225166508829324437
34 8 0.0029988642571760330980566789924459558214998982346586086717253839299983624789952996545288236824034740587034556055445541196312211242900206454326535658201045302535085313624316394822180211252779537453156032375224561598362357590094392972307617285707878824452091517372064440476736982483610471667938
34 9 -0.024672633142723595091290631604579659353971636902630871227027147452272746780328514174561054861299243350862017504090508294767189654407992307811636697715992918576133720359381716471812628860622289458576011733336222387902631419298945039697519129874091137949027130871128801690394977961741983156779
34 10 -0.018926115233631795161094359497114142962839472392318711658895150423461938698597699012544783259027282076514964600084889733083419349390481017059288337367068894116110611347416806125307147065891034720682941915821748167283232341410494008323175447782374620529970991061485379565012985743277917003236
35 1 0.0072890853272831877002481922141383810789839638865827641217636773401827607948017382614667986076528061745011286240071520784842209716607013247755410271800331426539610194119060876082449517572218053179229556102414427976809718026821888447174889932302724780202561957964535110797654126273787722736879
35 2 0.0092217763234847671751093833131002280325965735564085470536678954168349219723644696900236879607906552784019306558988571832908710101312201423068957633365942183096453528925280491591630624579047160495627723891536002387559822410321280705287486469263069877864545551388793786986981988300755748429742
35 3 0.024775404973475344537532733418070400650842407635101174172422844895820823884917385971641852064905374053147466138845158865236582815121348817868923143668614314987939341266656642550602399173379971824907227711185601879970999404250078330568514653711878035892040313332590014017048890831812760013972
35 4 0.00040871541326328395066440939564424990280822417154302911958852127660017186401520405464245682616771646143460698084621149550841741166918190474021544252251170240329944282782659360399537737002866146217552201580349087233835841331629621803702710179053618710471801983501719944698119781067629652963376
35 5 0.0084211027981815789206682827950976568827504955778073557343100140096785309892013448553936295846914211871732742836480417021477234919881165848513917608439735822112105180835823656785932603222033959259418520830542511734813282148576796831598525931294906638437754560687942806950366257215153037401234
35 6 -0.01252961088909177939418204392144507088192209224365578527963472184620869407397840573084511547096943287514926498174465043904881219785429753042108820798518405730289685122656531595544680803149932818585143872496678073627292397006373507197098986755472321925300393912156206914547373118610585984949
35 7 0.01975242694957163244619547927035132930929874368276515289876604382786288744996322650141334813245063595818119859529579747485799976120425345644903421940538347770214432104118547614445699150620958798345352409432690271867927275358217954298021511857274905994807748160885943149917089108522956562194
35 8 0.0081243033358360929007520262605574649892105244635648040738580674123814019948217473377975754923905382143345966771328405080898314042725581855298208112655299511782073483961623442919546044195215609427699282929872887396098413257623278362207848058935988818686751278814782452248323212290629472855942
35 9 -0.062849706919860151010603203087476573752138405934374450501464866618366628067794028695250107782836756817167570931920886343183575667236101490152056965826986196336227995173387478557842280576720944226625190649299795716053872268296839479192632502277886659860509464171430499664660004744860454339707
35 10 -0.049289029491416394216331840702713345102034910379693644879848244959066870658612393696653002827707605130084629682902543222098770758367890621041031850032899686753656362336318033156802081147894926558086862337186309155230398154710909803553349175629767061907045443286156665959129556169446338270961
36 1 0.00075631581766492312194027444684545472432412857896003674546609136659456385009266450573950558220348240186853883121188182372647138347193613419144131733889339417782345258351787050344665343089847146586084219856779582444914547798304118412291901433888643892027576878320183112928811106617047747963047
36 2 0.0032078013419411249449415985413459822990855050462525714841582106951514194546480031348959806006335008772221337577834654096599049206199656505485630854052015602709412486020054095999573161624597621122131626364645549976176015919938027402590195257644170409132424427636155044816566336020147980762879
36 3 0.00038477245247329316925722609685729210409192955650913215262340246035387193642799264626510097051826418946356519645153038420143568526320490458228268695201465621925598461596336082822205518464659788781992249937918898461087192927325752637877588742994876795637679444196231517667488136185866878755575
36 4 -0.0043189066086832626851420194344625888788695595560862337886924616989806474293330361672807692370852349307100247150996296073566625907017724896009490809370215635372457416086326591345187903197268266336161534750836122928747257129798435222696133344630793440677689543368436189369678066112681225731392
36 5 0.0018566718134814004965816428985843913900917159860273782497765782713488882894682449746191465013449847612853656771245016909749575129107994186785071317874633693379902000918257981191072497209848094542638319648617303597564071928336467592078013496014178788433972614049371200209847544768282343373861
36 6 0.0029804958994093501143971966551347788128385025988938581031236944829672295479205022441995112098379161195148171508794290297174631707379024056665201812635151925173100021146313262136376299433421115346980186039842967261710902001512321389910780900997196811021192415153268504231470902734808770745235
36 7 -0.0032274889834395564236784616734111018181359337843822376806933524734233951998411035660912812167116555432314920093664797384671112608841418474709599400589960791000774262535230443935467760863711531264765049773209709488812561662093545916872430955721018169953150283674532211558675447608333149655342
36 8 -0.0026735239610526886785079750989444224965987090612097333688049110677789626975915869107798013969471146929527746231897368683568345557451822983530257610432582115498994398178792318098582566176364522767712409842377650304560608926523336751328471655099201936908910528261059727130308580419773599915615
36 9 0.0068389898882060665705071813600031628195960824034292670333941798999412371466844643747891731182148127445982588601203352241400378966088302952836867821643966688528628848475080747621639133896622813297793201777324940411978042798466078736953449222187228467923443874172274896984365990798228819110036
36 10 0.0094154504389994293049491885872063695603869711212451777571651070067640610472661123160779612056524360353263880637451101671985259181274504780485145469451686646342699884905225079167447518458191445958968274930057112445251779810140741006234265659043141725978921174038318934496284071026405988477512
37 1 0.0019040008686689745952209179013205097956345199438034459816363730033447415060795924957493256769655648706790720040013149142174922928177892121141765281397742824367772821351076125107457391040835288677703247642945679636989051002470830531122104499040770327126785349059637436977517036930588373493137
37 2 0.0027916095803983572929528569045893187359921879039100775377037275160018996021707526572084102732691096359954143279925663838710808881514242483187929994016371859636224304647578112156433707881689275462326997066141999050520539114660767905291982886053735057954992228783865791115929510819572478475942
37 3 0.0061228641933973198030666567243793040679717312533007581599493948291329247256066867018008079582338400740373507974857501936052989393541928801193969924755864276813181445760293270182904745196140684420579645726129050000805888424568447904744966999298856497705483857404377331901394073680992665622315
37 4 -0.00061265494295294936579453202971232168734948652850000798881880254862761427512332456704903612255038325386536231770662188465529988615886031232571915952649095264820451614235693487479279826212218367896567307337402838395309122965444493830297006710576482210602492141219482715700474021176641705304521
37 5 0.0023661054370161514513891099312921146297392944968353030797165367600008734109847768415672497933642531602139324444752618832394918656525459904132421077517370400994997706461058541854925858013517869429154800538335865280532229650669946771819487133349159191483259235752302149270106448740401099610774
37 6 -0.0025791232407274288856325622556537284488483441844764327257127396615660642793939349169219584434268100486279220773774641468961940532778071457056733358427669864536693731784042938407847805071131101183694289413108547046452907299200372424602570186826689964712637311323049549526472412305328106605975
37 7 0.0043028799180842395095924852120432581378296084263126568692219682988902494124529337015384369051474209376832143485927424857713101503539267472848274372627997760881271034293228884507629511142220538176814106725595029111552928183334320573923348245967621607251972320902305530201074912149425390219892
37 8 0.0015490522649087217149150629387077441682697093239139992098716311227715649486283395495224407334119465132527200520150671770429797075881635117239965652969390816960129750807675472457143842687391286812114266814108084023853631118464855109298477236817939750970872973659739609142835818004455870013492
37 9 -0.01424758771126108986899749945282686559882724463827492525990242014746691621829980951826486169503737623936438323577328389086739042556268607732146741542392409981485466896875364451283867458684905238199044543058630710732569776854816631908378165473877898515359979964118057866986761473213740339329
37 10 -0.010510720022719301581701066863379550126015692325743578769849015916543145104809735908151253939065800740508116542364437371751805706797573816046638355832421106694589248555415973799298228490052679899640119907226745954472752648416127235354487088100427036307308222337642866570942515758263929680914
38 1 -0.00042289695880265931749139704603748232738365581212768519932760039154855172842202686919564316606336554336892836152097349954535633689775020261984896937683095250107993517528359348846008731930742170863621916287438574085449034297908171631973708178316086485302868527925191389065068006595079468756104
38 2 -0.00057929668400954237217006672053380999752700889048454982271310099263278311452031876436795259130324149799556153662545408294307157543027462762412084675199861069004324884762811529730003338109176276092142257152010389235624010828730643772862922687648056529914592003174551866122035602744203998431722
38 3 -0.0013498027485325200233203469467947518428782723837705577597995755563664935872345708556806035178783517639785603175406385341607814784896411394836385002763341418471067863130891386933135152405158844474897609297492273977626598441111368789226041293634887694325612436109823100997779668863528907257873
38 4 9.6238075016048664128152018916919453075016124989376544187843281313873744786177358442474175566910255565235049354991948694002676849370179807585317887913132470670009709054240723019083520874620881838261439984014485581451861544209219267268976741480222179837204287196783035115961722246550377444555e-05
38 5 -0.00050485227557346414109128556544147816397013049439449428949668686758289077074141618410329220388043403689429583870021425988863330587582523790344929321719464211619363175159742639384107220366437715223763675620415815779023395929071234770653553574573163694925944185831925092759795129728772104121127
38 6 0.00060614487476058012507838243214696181851207777845008925055644140734620616346646588751257017608929642220714997249602215045684857367747951494671895305032674935600307168240811309564018726761320079613365270677977943549818552080253470714698958447553994298301375902136735697091281952375320250872052
38 7 -0.00098812478236496492646261514988636043171862126906073118249953245077450295114302533937379774997791838705485769377269271761052273902908204732044196235870194654668144949862207900325880064253951305449923713494432973812559450705728256047270084410399878494424837388490444920078303018553962533497664
38 8 -0.00036702580930792488624870470309984896326414657882834396416795255572505017232171020623369098404403277864639585450182623162562635545463618261528627820875860571730233878667329504927799831853231513801073312091976219990024187253872711718451868894214163445017492064036814302341190998836563540752416
38 9 0.0032138734664400664546397252394792937110757166908479900525326077289025681858017273991909587198228963208013897407107562233359824862342383262779846093230771248006392663695720730739091399381059689838716683167277239468341666745425401090032393092924354642640457654775530289605223040463873253877503
38 10 0.0024147512643514704623534419175138965596108301208937433410003845739110962056618134508115777279815097962214554257905318146664202593784882173299717364155815203106656550990880412087000588633801592210953132713844498366023146526286113899627778316027195048114006644725637590501379715557794478194819
39 1 0.015541998874223687470067134186367891905863031395728207641487851270146927155423554450918550152087337328492312116013518776832494496348212815985994111157306622948951382317035280888169850317493842499108913851503580452104655962833787185574956475990596356999017775170671037195880911860160119080725
39 2 0.020485871457119962706389419847283025414790292582243051114952937489651327093494808784588890300465093356153790729015842100714157061608757581966621839100943281606078872185481992238338263100537761387126416596717384190902917319641550445701777560600248911053680657276655019013337420422253048405873
39 3 0.052577247248751159317219921141238921287366152809930266242128188171970192182383573285831622698802946693527260484365279958611013761989270192504442194956199265336927861501650410825561073187770654552566476768411219715914749212031886698599794626458528743470444488051482983605935647555543001238148
39 4 -0.00026517328303620242000007677841760799499640721114091105050472161646582060252243617982871623481628578206113779993739070890387293824273612968331750479623808843306265727984336844196560771145513289474150697332955834790195244046153874260880274144202865131381051793091170254028313866311968731919594
39 5 0.018331922665738899706735540702969208079997933580636558026625497924003124759427148859134625036516033196472717852819403232537887378076888691628058951260692110963572702465798677241624791014546024541947991059815351607082689547830503090375179930611437613098441506657329308162882312889109404556593
39 6 -0.025721503017546044763407801444129748495592532479105348096794522445850177847392110234965129634455058002544559400943672046804776711629268485604257880999152367968848058169055038284070685096756141799682254058219690900787519696296783967735722616929698908001748049498540324578270086997174708722839
39 7 0.040951081353949642772264026547166191411920080995633501893545927831113556840145183507755881793013823135280835647051991438576458387283246441506831649252134543296780629484131906311583314100115377130340073511698513874170607090851954636126205870168941614399531095349941532548979829564641469540908
39 8 0.016522233509290776618041970776308810255898970241016420966707566447685597114519695011474140834938435502908808845901168878773242222861233068740913518998302003738077251752307941043399923182577875087369673605324049228235240075858781490252267229491128263105854076262351402599086603459869762224851
39 9 -0.13133683699978404678974721914055296591681571664505573042240863428875258891004932660653865321201589315121069774629308008392387412836278227511323878592813953215950817374299266017188674648584150683296025595477663902518449393194045599626529744809794384113801553855196061418042621613124645233823
39 10 -0.10193763197319033280248502957165485073473260248837046765547339767185325970475617803694332741159519055885865026859173910825147666509880286067820865782794453350327700373861429004887401918470302494632808165142555707660608885937217479945067159199508256748080367114528548799629058675446401143985
40 1 0.014435857571020514778689676953788204832541216035847857239330383037607345706258892105996781971095093805613741607026990724604741124343088025636340398261341468617917817959356971293047554072968971965704459308624825913474964760635108674829455218747200294641750504353318144169802454034359449153681
40 2 0.01946360842123324194778655656840844085890765657940460984373484450952940381194365119496000695737593116980028823277001767963144439972357320446681051067060447877500106486380961817183679746888666491744201062826552406517784783571180566534470246812704281429436182652107951615683715072772340061915
40 3 0.048611505107824913177624845701016598941251427561212071500489474411717713955860489828702942831141390063404101427096906470234382737978410295143821454832675936667609768847306280678756530143067096905070448460210488133601062413047277648502924520521824252294859861873348325571829169870112815958831
40 4 -0.00093279289507860534408234621922680358580156527748276071003885007618765138919039661538697126667646602660327118250746622701724959068571123532020899845313892094193315068747174391564731561475008025633578087092684354731531735267415523757898589054401653702754921851211929990652970370130810385996639
40 5 0.017228497356895695202104112054595535750361421508296363595109020773935356652009519294734298402439730647129613972706805632787299371622943111083533820898134722148428129818375519787652744961019612250268976324283036574431930948062086139593999083648308552554497277724188842244226842754144683354058
40 6 -0.023242227857998386489610211065358161533397343361483926430073611203880301968451013603701862111792416619807762081169781121121834292745678822725779883411607648412492075915869167844564098153423792747827097794652523986320197551892319842786701847859693264164475761760996635182114922166031040360917
40 7 0.037270316197336236390617691565870805049329955380273882833429608523308871878413614740026177062466883526521489566282622206128882826494326398816594715290966070719463704143091386928897733403663263784704687025530246754244975963025729324918910208715146767482650989648998837347099368972322798080038
40 8 0.014829978536405676880822506043174699370134440423016375706226525470010613150871955924043781386892479060216587818408480576041678202518965348721241116054424525994866703071562004775600091337501666299342748893405209037387283609154970835914038476564721876302176759651874224014464300159403470512656
40 9 -0.12017823886467554566056660067322285119453621554417022684050541363783094578369265349231313748060127393423264537749945759750419073695099087363900407789888138423724368389301907991776030409774267036633714055542482538794859907470167707184299637174054872849010233627815256792762184720631042503171
40 10 -0.092607739009814784091800717238983259886663987952519159740182870285278747158437178090966071544409953947008546305744022171146051818986947864774740567273722446883798490625979992421009549399744057778476833916474665197924530845057238602869708288341342020393305464518551537804533396388071209317683
41 1 0.016424302267097396575410617999813788912352090956827442692834138479275121339406156186955860785781628789348293485714463845498738942041885138857848119140388851906371708855351219317667336328349362929460951398025693911129062316403901255010849570659142178712719176809459302579885222431621551156064
41 2 0.021835797314627427958454857075676939043290175228562243201846946285837648311690284973326683149417425857965956677682215645507017466498459880626696857234806251801919943471943767973632272934157296614173972842644586682248334817282320874308652416386221906856428211821101465135677395291846818034709
41 3 0.055459736867105778402090303792968148709303427097575689397063736662367480485465665382864841432023470335459496627512749518950643653868220197753594289743607815193519895475470599722608820574292073654468922847083866569647912941007509281435728839352971766144869954484569186105437946844397836667485
41 4 -0.00057516775769548607933869072058881128930655114950435781975011217701757037380740287243338871826432958825309579896337137218079338749392283900430908036303302653606429608375259023786176552358255970204158027710451316655778894786061481060541513571614844610536866114795605287661603137566586936149683
41 5 0.019457066782157662627668901252690048558311237532383399640582918744427960130030635954692756064605990489059573465165166626364339322362371678106293280421404022784600013888603295631236466665952303089684346363832720724262318941335114158592205702144883981957481484455958199289573652658910098714979
41 6 -0.026913115478858168583830601333388592030857305815143438265382047888433322092103029924168563727263897949612394689455704881621496240110817531773531093911956857924971007066474475297369902532725840929437149003384413598850004970723001581834086180953054557349656820821613895489560131976005662833497
41 7 0.042952750079976074029761030490293074917489534154029804956486862963609053274728507172205809956088114136935277613585617617953774758295454820600124279015982401546431529171134876565818182400531742571654204912230256073275524206776036469614464494245953115070718613647621464029037866034510625392742
41 8 0.01724063198428707921371641177714835639048258099642351176976702244633461274155106355814937103259549625888775491940118147476847065020044489947926204680999616919935357635315978947332452462531156379520110717295317577461855927793872848156858201948830697939448285471432393022548727122693993610279
41 9 -0.13800590659908081395436657850619763074180049287110627975891659693132930038813372962914787621016417043022956165065016461654781140726002579593053632773551373133906484950994386496488052860010804705516013434843323833854314691827756477893407596693947445734386276058606473552487028268370875313582
41 10 -0.10683593099624704556279875670975913264497186893701197538215119775292700942857116728479553939538965319873759358871643703081037905241915946497618659961859454682738887350301333799248856099565122722032761484407900705314249223796434461324070004005016556270043424571177370227633896818346561446025
42 1 0.0015678980555948301867403040681044226994361543155985957339333606103375279205288310010630467790781973117276563732023898138699072825777645389058024869940485574324645253618855306178641987068123800541664962372021686657988069754847303062460533022833718391429028943739969177945441488644146591227337
42 2 0.0026316370953057753405181093420443008041825371887471120913854750595924600352909671708795191443982414432609362155865304435547268183937436240195972012621117299613308211990209773781525024903902395574005382515803907214270005122492165588455888115892478870771515030650509939764266954730814737500854
42 3 0.0053935827769241157737465689716383388953410363137932082823331897140039789493127076428112075646517592407556417582090758310083234197024685158981294916892285267390284838855471360522523113019652060874722253707243453798113935869202335707729122089551375088640635800039722451928642965846780591087933
42 4 -0.00060028055318998912205859526667686805104060532113492911848270450105193030950065380248633124951086250958554422836611268977842095845981266023480326241874438026421183491474303292784934792319358101819375894371475330355500678017014489104455634673151641531886298348924519144561689368101817500639582
42 5 0.0021215876075461953490824876159791199283132560022590551909739210581989423117865448009227940214648866974246014831329888009272331475614058034925954519992605189810277504531580906924312028397006840978563951950277710856165855046323803972323778186971678485104011505323392776018373392648911370521158
42 6 -0.0021489693803021724551033530548893394880023219485934938901341658898069941500893457267465124001368827516650043968198010267715055772000968451694551266899348768175528274200440233488119908359269549958976858880944036324282019542798741131663460298219773818002790190143186506794459962111716562425989
42 7 0.0036658807067853601493549370155929689329204235740732425779729206458507598853078358550859474429685288962851083457973376045213093891481635535584986905795703394613552968829483784325211395596186416012897484445814557701398856739659372502173608712602361309904827176849862970129610619106016703512925
42 8 0.001332659252201422921497534508078157400394759000115069626136685235173340375937020229042596847468530961326256138024061514318478382984522566187482786489678310352599395717546403080615775367768908663582961609516809089753961694080250726810872460189997814137744395529861421155673008547964820763831
42 9 -0.012429681276537738486428418809933156208141193048738052254215718407257980868154748079373381545498994590542147472763739469979591085800732385801434998634988407508122747612230304208718577992835359987370698267061527233662691178593376327332406567123953113437789757809427628586599530793543463363316
42 10 -0.0090830421097403461189309125679458471022006734740470597130514059793710409899325248351609502211415635038188326285091847045766571805202766048871395386109842049079657438153134457945658104062413355849659141978531654528712643311250545859343996704166920672334069999213507521055624400705292417663101
43 1 -0.0036786465525186537018651467066904894348495888757629403661332861917010972595880013399729774224635301076686751360913913078938159501910687389299642331078861448145670566303807636665034617526257888490827183576465171870349867728260505394225385378918429455108625097474052213320827466564887659920707
43 2 -0.0045416120875203178895159419417819141806365338807756774907042285961603087507184764674283297209686559577412430415632057649078724021180404777741499874925833151333475555674061347410264499750512836382448983001306343314304482796742709206957987624950037874921658022481970836600441021654174337428737
43 3 -0.01261870747516788130957296072245099034919706481326540904851282184541916334496893173439196825106773798996161732318955556322239751994290988768484239906049535955190022595505864930171224944680270123751266618392825451108784561865451450406091517119046451523798146390951235714622376622590718004889
43 4 -0.00043690518750084807084661863849473732064717758223489420918547488446553244579122272542690072911800319066724924462059359494402331877151671562224397343248632674411413868193185944031238617728817486876132266181248024355226198503113954157218074400561956225692311705628719786745858854377829019744714
43 5 -0.0041972168456315281987311328326386656384477880582415952176026649657677255414274052357861634955958021886259802989662968188220530307222654829606118476902076391698220737267253947663010853152609994721290352772535308635171335153205015036433794376101942859241919010207980244841684006830155519972038
43 6 0.0065692324277111668837638678841607356968586747122555074699955158624259197992374608128699210316413027756515412525408500448683497489904178288404281071086728416493644718701140176247653962689708492508578918004728803721946121496722665921101782126274972129933984026494957932009793879644426809972611
43 7 -0.010262192064126795360201424139128930418016690424903442679921546279140962888262373304952931827501085579471780247718936614517024303965647439786611653567030970660842638081743796235138047926170064792405944347556246870837357802886731884133700421762459819656012761641918962504794524260995511831176
43 8 -0.0042925214446225285287942824793795668425535436731294651449419422250688481037403655507228961788650334248186514168552627641731609461082549390902201537844071872219618073771929041746005405643416942454389415665981270514760216227904856257415692748653162887045120182617560461405423362355777639235028
43 9 0.032435568118787589616581821287601699626804141696406018844227413737898446476724300082528692905510589173827374497918303134101714687623367543756695266279533625682120969569337404561138690651477450868564228353666812821952684576993485436491703243915060065316410095433228554833398194526338097812575
43 10 0.025665929596098877407038275913538463365547877728708435140375602666178654666674638295416366026179607434660430418891391267392268719813486223483138475691903970179927671744081622665471188530698848578056009858440391642590626494071340024980660322155535748449154728359522064430604986680921352305447
44 1 0.0091621768380007806112196595160072214689040075287067963000303778676877183366763279182118114110919600908486788134616035439451863072997521923802241850019422194632015243188349446038720540641640307735481680496665590000796531873821178869446313563620774769314126919536241145647465682647588351642211
44 2 0.01060318676123907919753363882892374443664713869054281716222531684203018449018689476589764865957019825357999870190563377353372092483105375666881426081543917751096847259823223734039969627817080726580041751160819535529122275798417841274570515227870415220659713413938109497747027671552738678028
44 3 0.033498041123555682388768224658655609148667196993896657536256610497613526979425938701666694566928637717735045542278123053795937089933504141554556915260269615120517545680182611242044907902964474557060300922390837845882872743231222873139584146396930871100283745337659124625717810343489793066859
44 4 0.0035707222822534532345110070488778726905606362969730502360749013636186277986082561169059219931655913884904954573156436476959517672871380893277669659055640665715488914270113504615795219631908493461808762383807983129919493649393973466103856597190411657471033592492794930605260035113047881111823
44 5 0.0102083836808407991849479057274859866771046359790687735835055192465875854230475974920234558512003602907935872700985951580728907484049218009762368216543974444178358310042169951039136026027241220098670076221237200874341942847747151717611091300909629489131161636131862924086000881693580953941
44 6 -0.019009693697418232479872852943901649626046818736080183596047939976829867965036068962216996665357485165604662929891737035195726047355075364951808955570387479429974674118488044859256887663261568276661630775218750820386219844716966882453870536100416780463428128841547805186370772350551766048711
44 7 0.029029664617183740544164131919019261667852830574473510527593551311426642763285314400938837239722925833796586554149501340718405820196368708950950928580561523549484974268127147004762301483124182488048922215530834421509184767112734005368687529905552200579140253278626836685952469559197846511971
44 8 0.012958571574265777910635854510322591379887601862517058455043271480135402766763218315722121348496545092933459281932518468534985898735435389214295145231782790189323508013737527597442147072207390542044886484535828748217788819669728756325508119389332404880765256803399310027293574536978362787886
44 9 -0.090415703282766484089086194607281745368144270307338426540836190861591927640368985816442393829043791627617842281506011827046124363386893687861813845612362915155169869237342740100300011471989768661706930539933038092974364034072426183267712035280207466978861024082936736018776046356602384337119
44 10 -0.073696213695627734642082795827820118080882480683746253641493656937354001484330379091218617380216217953956671429941879795029835539769297414752342951237315100658585513948173313239261877135340096961458009722380864460463991675095980475839332681383685208905389323684877368124992007474986108384129
45 1 -0.011121551843493950135784126761356485226165538086130316362829346571786232575608004266734702975926762912683302823441865386963591111494395096219703949601281255234429156584882029339600334960534578795277648850751621168554538758090170713258641421498489326108585175744392893481045616458838871960224
45 2 -0.014169720330481152467433307777654914262194183559655087231020847049889837311205405411802559715032227732064199691868398239249118263850199527602961691276280498570286293837664559288942501294750154719924461792748455654515397214068326020757203210973305410331190795174176639245078540536668923555007
45 3 -0.037742839148114432869134731841387597221611172765056461230232532365016402594240734230462598007682531320971830517840655253087246714273734477562014386949361701910162521039117053959340949134419261214582108333643497029218137813793506310755413605787326030639592320558739979023978199660532912549977
45 4 -0.0004659952216885801407547586711417722751548991490848889472790227537487204713697477843618975955131251667603841761699442405896334203835475815874509916191941670789239768113326230252836808886363254937470709443054388236877866380174645647583827028530276102517766620036033373894167486025181155125759
45 5 -0.012891919552320574020470566618501697263071081163473291219304215124199981135897176064441716804172401463231026784787919370205259025232728055865277543794935744727850034010922637585909537766921971493892855112322803411239442361303591257548839893981949709381725359181136659891587012834313541746896
45 6 0.018979485459833095760260073011041359357042523012080075600524208363158814719358997375908777382959165669629406843558011236185375961958239456375163452014109470039837951406617618947465740872290489427865109171141515682087047508365728927145544243084271330538550177848021415735370815893781921153977
45 7 -0.029967670181186425369582450905855227581387603590055649892224392898269990597346623341286676077847788869097308911593821442579930036943776594694192526684413123618639016432099560042517424283228499697329599700455601647211315347119543899457102620966373685661268873658934350753324283885016532229256
45 8 -0.012279353224992762552910535132239220247833059582667636742024651804424295332625471318445031912569724827611994841999163679076368815514691783331048658260920835512637211249278190345621145243986907613942688638643473630601026963442979375327776228585232984667132474840149581538975166742631056324488
45 9 0.095467737828760264342646095494245048503756308167134011865907790665046278105679355437487550535382305270469921584107820011629931824146695218384086287316157969355438948405229595067534852703207049938431664339027224330650536876712206765541471987707176937018812773036102211440003255805081692652527
45 10 0.074729475085166452713012223076289260119764860707643613777863213385333604983577766617276648013209534511579727203022437635201742928095252145908422484208711937360881396296910694711803966385556300875559176983859098151799555646931395498384666540521403156468979344676740605595459488178248541571666
46 1 0.00085632358990759592195850557455552378812962459030809469123198610735220926555765116134879584729026663227584651671902593475895151275309625451097125669787379822743249797231062411339730280837274432294106818172704353708381661577770895749530271307849072967171927464581922379685276621851007309077048
46 2 0.0019677471179057465467703446741755183719122303718897426871689690964471873736013575435949189380927119511880205048531425177484132565011849978913237753532914689989143021120622124618044005344108437533600732791591335451347125031612289778736993730677972604042172884799906200410734658652821538309532
46 3 0.0031505000041032362091773233872375432534051448742059705898649337585561743785911324654586626824323896567952606330135924619989003449132219286213779676727715298221894564968230805024482982184273510973751353426788201400268614528580520805183854104265027554016226880297645374796129642437695508992804
46 4 -0.00076614420082755295204657493046753153185761442784865765171967026657439485928953827621640956821371421591872158922838419612291413366179144481934238540397404583756063365942248751542736867973631380795036820484523708438865760204833387537648240866188011611447900250841413665916364870053793281240601
46 5 0.0014181849022999762985307548001928064358543068446038662692248260503273153630100913452226835419420672979373792433643067162065135923273325318016537800173113061320840156772336459035393177789729881329983673315030875109177884366316158121377723533092036074284113909048123105247381544905387622934107
46 6 -0.0008791354403218155163404329885396710300884907731766586931682597067463966058417862685901230454650060693170838725186631495333634339040202275004234582870934130170458316122311119729482026927331833700779212800885048328249016042461710210684863519365530916134415392160748367883710055213416269138004
46 7 0.0017319281802780335373012585488727449614319989993523197536699181613232346089138697991735639998104157408033260616182721229256230594425481083138005805340602363644859520466698888022772444719373702393762209569141865419940491923136152885903947186603699574751835501808382273152365697058823748002574
46 8 0.00052009469209652548044208294761924059580375963059925455448155565568805254861901054800953191151071737296497728062534327101166976212316137258050129803416387171643804395739337708793230953294339552698138370666440023359393631935495876872262930955731900579405453717739185785440959281670880289156283
46 9 -0.0065033843254872528643476901461466199141429463417354164308413746468915462752553285074579163134887307625795626780350593621126846871377520959331386221251445705972781456622307280338731533465431769904121441262684969656532899445231752736029476494058471808716636388889213816155745578569212423062303
46 10 -0.0043047020763331428801102853638055268815530103792276381183416989315344145050101543805508062125048690102550463431160351550745223883100995499762216952372677325896019663137227356962822008294245428354898171169247835813543811130354058463942430932791223269376638295578885591765861137373517768423878
47 1 -0.0045880871195986096932288038202313878694294507025192443811770824412466312673470100500822492869015808635163987972682446116211042727938107473069380990447424586668300525728466985939554354041720958006737525545252145869216963505358965466294605310691284954651510146820926465258148446962193904833408
47 2 -0.0053662664281566719939372206705163291483692639576465775411204822501847725758911475119392893286541965077983190220772022679119984431154978260676145953171356190245005328965674454473899334028867194964094151764261622321414578782353389686719862356803678660434505471120757244970267334915385402689974
47 3 -0.015438378737365559492939775711370169232433869826847483727740631973056899785914083158503205754613178382982967868236753719045386777333047951830967221356709499614664745753479488721830924619605431696027579818397399269166400680187504506484331456328745024393573080363820687148394650006983205846493
47 4 -0.00063182796142314514114565963349469097824120431794558614791938030445784063399431074302647723057784475107408701569564855946677017663490594984565384738330189280872138141018210339403183955080511360543117899209585463830561904562289819589193210625807546769985497976266224358345566189545125034352694
47 5 -0.0050859708748091666830502297210604335709355914918863531057029055205215319312178645470499207229103741493316857582714837909135714843717833068243757691280636114330487055340538704028390032703076211795339472595526477647605349581664919609359107897534808007682949982086007372838961829728839867731747
47 6 0.0081491817667401339423452190929353332771286768545571442916368383250981099897131238722214398503430548574667137986530673894223040625178214166538306028917702137743988881813554761721178833786061943513446149417773630477859213298217112063914869079836931885658255215686428927325034884409457986069708
47 7 -0.012679254705238675527087566746834419531897110974487110384500280653052926439807680145066489840822828862585083299818122332467009820781909358860976584779676545140916668721410317209112328195999204875776272643700392590052797827103689189761860602536790813433095353122431218718789054577185453747346
47 8 -0.0052994370658811996640382517245313653123926329458081712746255464223647833384399887944404751751293250062378932814872121275874508984163442550710871070716136916640917810816053280880825699730190120956755686065936652167832616589097367719884370058760318348766330101294118050561526994835131944656684
47 9 0.039853191749817963787157615840408447633143709843230506327907499517621493488797821835591347882414426249962955447645577650489585832976853791272546580353391049161564320394291419089807674654859742715404224610451030570226220034771647697249613024759067751748158641330833223748664782875823001337936
47 10 0.03162641671071437156414945763561727424313812609663078680210674637498220114553680819322696442612689536523757726297338518368077319602818564929681036382069646643970170906085998886699583033635327998045145803856208400372985458448490615457190485391130005483080919461619240830978306141905780737568
48 1 0.0033136290648034353594443629109272830395752980907349598103279978129950743288617557334029892409197251206749955577841209639515179011547394141643939452502234811916040583787565753216137136251217455436855011192325232746391341613076990528696652484737380531894864363350641024684772952224157220762243
48 2 0.0041812222600404054467589856117427789463134049390993495956216448162852353395523526629595525197330222640816312788979693856212220928126398791159879024130296271202012192706647333262193439158680869303426242253268544163393888192728154728327652918910158000229857877805869274932381226885572427241908
48 3 0.010864189567514219237469194715663132536140225438677581220867000263819966828198515686377342207248392358220500759854940561675723303014344762208423673335771873940996088056367891457884911533701204645759732168361205653105292559637255341920104107881171511873828470468223461774280913590727183896323
48 4 -0.00012375153901761131817775328103972034699830436248076236017299327268864159520006245222922931172674899578683427581426234560606091986346588887664548430649149174323369102099993095869300231834342239696613493026813751808461535519566062692601391242665055920811283437625790927332887965666195006869062
48 5 0.0038056127761372468740472432663347403317047774749310007199222523706809383321541229292311892674434373875713215457328410561472550084802213300694998975490130034854919730448338683747950961823413734461938487199751252572470080068444882927208377437406316185821011972018682828964579462645918473369057
48 6 -0.0053252115331858585416592298560692836870304018956891331794697017783265330915035187711590211884608781819561980526987542463171483323297189261480714592042315259876783633098703736324959400021560700102088349415505130218880637071882787761531577665274187329091750040081445975673222327488347602953281
48 7 0.0084640609696171455514408941893687670373559397469854378930381099748639564162794400912014725093550772038397202246041723295466557546707385917862827000052681337980608530616792775581709412706134694205174716801408033729016788317013753356091895888689785016722492717022508382871155849040491026651161
48 8 0.003363866697448816429929518134701800818206096387669361455127316052721498361271958861966155738610748939627622541619130559798635508096283865998830991899762670494473645887905419286371239920097814299013048839326299014216207673340053561954577039003432094157894866724592236392294062249158161323466
48 9 -0.027022624187343993635444710161482666734424174915585191620198148022416945811198342395529008578906890559836462050754496583388868345574495704133339699078275544551430949296993647481324983720584219338082908159574065292838131027196070046114613421729091360646978827573253903354432221228449643229938
48 10 -0.020927107362166791164899411048489804978114612517723540868955844398977650582938139931982242760472071756666286328378648283905790519887964955351608662964303450274597471085372932594622471073237627566709664182574794908564629978488353090274973104203276355119548822635201814065303616919541290707755
49 1 0.0034548861836665181188667687594638630182509760154982403184675838653389077374596886834091995684056464965442113385069814543543462925224983680966031232510347563113482282742434992350320107076194950560003248667986387926415147950671082285553171473337233175795156389737538379440634747234222999904108
49 2 0.0034113696671445670839335052486920561126351707024576573285682987862064839782217172122989822484981476828281208196117862360574547606161919121713983321051457526850252250514671338611660209154546026273372214802524379062549379675302152704579421190698702052092053821085550261109278865815366341460666
49 3 0.013458067856753528346371279376384574454823971729693119563332150818410413599644383493805223601071450318181836025961094368316039649210356730425653279362904166819618024602732704737924248113831659282485955335138905285894812785271678804368115986229493348422798046086552376798606022271381281874817
49 4 0.0026936187061204941617431581249479820847272964779996198951467595599296547643914196553800177137954472733506652141701206259117593529027880869545589199423205259880391318391418145999646887518335971108609219356437995430358599940172075599578609408075813588421760396148892545022509330641875101725405
49 5 0.0036032572004911455766934669232864933507366017000616720518768278937406004717052724929348587927653463304023155506792700004232987067895742564503013858138333263068744273214479783049533985845171291654169403098575189729118854930321491217165335923026777302807691390483873730094116524651623787452134
49 6 -0.0085385219062453450668067326258888844656621926500868185030773980400788363137721649398768902508627658543462521426526120006518459170569657744111038231886868249748340228105428556141232338607400807795428879595804702145106425775505341485787661321083345224572096444578595125797776816753026507777557
49 7 0.012669290137396017581195228095417245292364913865753511861326703555566667568296162320772313918536010270622996473525875627183791123885174062715596030973501014860471220231874366819433749130707281924016762584268445399914463420073845731135839038995481548854956039941116084059700223638472363988063
49 8 0.0060245853225263667534273536408243056829644820648136497396841695638919435997165360139682838390811479196737245457246275669098117013229513575920985245372656774881089880722510221719678716225729736604028645729194401348697956495917932494722941286274218259799632064009573079339724100555194474099464
49 9 -0.038597866889468546638200922224697913987905452008128988900435221872714367650057075823789391554134324243749198607838577796002613530102190228892252549986811063614065508676083247728689633963970598613197561666049496653365339722693780304643645621022212111696988299225189591340464046154918726842658
49 10 -0.032564031263612574491304057079963645176643478211627651029164549870304262364666719814701310696060353788039784121606357912958165523990805458347157697560120146112348964933008497571153940851793798984597450514110953136431445579689983183162537004046627599881626054346314986937849620008955734514569
50 1 0.010114125275156404962651479227231638348671904749760830358905628082752772433237416447015488729876718672294434210064973618286536640634247394635927283862373918229592219484658065833934550828007958975240272617816025745886237882397655512301840721988573734603263681550117225667471397471630510465381
50 2 0.012818095189195970185140931715623071232378837590517003983689798318996728173337275410550869684309547011080192477669388850316637465315754630832611156524044078496856596499480744491525038771209132577943815515597438751033223054161129373474214423677047679022683529746100972301506386752495048347856
50 3 0.036208451052154018293021298271806039047094372118218855581861048442911583459649866993764362297705852776561318857220263176290157092007215784619185751835985404844067990327211907444095873896183035318204155320356108168907378117383762235712706304741049625779626568198581583483432011863920294865873
50 4 0.0020396515432693147082807720973203037314165666987012603341446698908468731238917051252813916841179100895234927955599512074039006076292923877231725160796912461316907025503411835928496843760566556488519220798645625529412714672250991594773315931464824363286023138477513192485746515161127610677242
50 5 0.011766523433694626364341237983490079343114969064908052891878295657057739665197618757597901452436201372290118433076082418933857614706711798116691965703665708610091627641365026913583290999286152965557932891586463814154133622013207615959810045720019691043163621678897183181428806386642662638889
50 6 -0.0191767599655866727385762623099405292960175625518858170784596731204823765849350338151580817257843894417157789929495113911982172093871576079933962067604937136809829872670419938807288772340133421258282949109881877607481126216035914684494335698555517307159053027500961995478992653154783245633
50 7 0.0298562824288006197856136327519059438115793541147388383037687175583775981968715429120714990586858247552831362318677424771074752238552462635743123385405999581047127503269914378709815715579795179670842922024908062792619953562171476848817169435724233062393061044073738971898272147713791611203
50 8 0.012834015304005553435217345278885383065222155596307851450909543609241976483132389391032647490992028776910115140363936685445241943221974524827401098941064829791619648369056993012151208671329663876103924647447939928038775554049988537596597392204620694865311822780624335564593155396085576693385
50 9 -0.094440217828745601713178232660158009903882026954040491576129178137008146321523782453091123927840466575874065282432382399472798502268596091411666505980886383333352383505791140340234411898890070388802441421886549112057205714773142994590154162083295761254194303654637261680358104374158115253169
50 10 -0.075363960174836830001689008110007065746913030441936257911367612725582839588721322673406423169889460089831895377859754400586562617340310525229729260474924684856607994599565495998056911262897994817564221436689026621589211064029049481905093107243168375484152659387624390651228905602398920234019
51 1 0.0057637114991784782364820062392296908822682404126799878857283377020180449131231881504313441387558657012945527667262279217268097654726306918874509572147365657166771036543545963405991521410657713246054903326198831985099794320517532381168253000939149067348806805128024723885253755626407556411795
51 2 0.00837480802375438178220998892609878392560507657921900895705004052622370505094737518432241785208282634564244842259583215954063740020367151431791510249836595533608989979996699641908159706360941441549310119063832487053956601627142476018862618791924990230698836880479186511989111304443532776163
51 3 0.018361928471322891794323798386485157312328033138581050388553140970591284537759226922684982913545144115623267938074768568915184059445765923513200043936088374032045592945662563716443071536798040825561923863115211339747726222574199034793092776275362019625151848839331611966818915257854400616854
51 4 -0.0019156419115506547508573259788773808762475048634440981348513650166532041124840236228248221101558676337383783636515681566128149339627320582860954203895921977663107539635632467007229621189982602204561505059963647788793080361834523529654614708957600973083436204756203965616806875535697810258688
51 5 0.0071227730909091051534902282124974003579426958480951308341074334043283718554843726316805316426278033606471926591990977614365293857843733905465716981417099298874304369330518637169661721861969425862292930496914362663847267168109445161412896246224712405856880501024679322050789795596720083579682
51 6 -0.0076868375504175555552516220844714136653087209419702560003267898360796739429478669832769258456211652035725161249562279167551130380730966000219487225326640062601249471794487087357270658805810083548574329607151647691740006900972811351247739068168254378640129165136897711158879627255059309388249
51 7 0.012852825289344143402882059939667370109058662458616735825693597783482910331067968920620651889189930758863546496663858422921174155392649219650581451599211060849717991996259807205384971303694945293724788958040442284598827220810908589882934823033947469418047731253117199764505112127030997673131
51 8 0.0045860314685389293813464548066142307239867476655370244692866514741422601968057307495109997894740512295065765824331133797693415803321560104241831481926096048725598810627497089948946738964747588757220165044043687561044359579543676471596614959139584371216878919460493520816569741062001478819929
51 9 -0.042579421058918040538565844919798144003537579336022314449562270635951030468376569123025884324478434929139867334113413761680346868400327412940699956651410187107222031105229631649190760066041447157933346589647471716432207808122183480441750371366649556701395941230257207500505678430657412432958
51 10 -0.031326547748315273629005110952995596248208177657682669903664224855074308549942028680448769647137533281509406992675371288191834030167088731642201864794012488492182627377326860414846541175433064006161562258490757317302134603460095506447410585828175225136440194647894157289132494196848151586251
52 1 0.0026580334412849586885666440434081466672902128896940801091767505642667943354605873483132738120767026545643840127795356698238429853088815264856359716314648626309608663655000353495559053299082631156130543457539119827085749865572105377497009825220209997527788811363228298024120404292762403486054
52 2 0.0042587806503864816806111495538905103279879552209577632419183111783483993062532150921478946094802143689857675831896173027231083393196237514436042906611440757758617024786893639828980353158365294574986185803452935723877263605555491868990380660146758749661172438461301391289787693559533424750427
52 3 0.0079561817833363496774702283047069167650106647751374627737054464322188031981331140145249133399095656227406260793640329906696863770175100850096796383637958581676080257710217433991869867797459338179927896341579488200755850175292729428097788183110720177443807807860202711576616559217604334083653
52 4 -0.0017541643568550815887112743628262114860087628228062710074738896967686829512171221176833692568496074979295035504043681199745519849387598170329080710891642027478173710042296940182958264371824962483119890289038679743434854006850753279139549456387317029792020969299967637172282590297636346612279
52 5 0.0034525913710376825569634891322101863145354108723955186483131653432531086192526006922783743201215754495028058530840844114691734790054730903945701476467096709069289661036469876988255196183192328083691176328880209096341153055239441911722433345775579900525790056234104666128840254645133891163262
52 6 -0.0026696932892657687555896223063093354547211296736171900922154751332517391377458622062632432998410699623057522063571313917336555361607881290111814350296626363603039241110318694533745796365972645752294944958819458164166351444284077622444172492818996974897608391757225019191713455747087705715293
52 7 0.0048304189648543971955842445485088419659020183845793803970973728775216537750960863916744635795074094000972594166510161353143977522025161807118090058155472029959657935362472894381797045336973525220240960801791771910568744798793779520472777394859712984810662148104676867790718396931520901794877
52 8 0.0013882694426336458019442105367484561941151042922237243498672073872232775393614276734080867187128315810282643018907133401507295642952522656532930667038695549460642387502512094145163943532328486652748220552645416915369193598550277354476410165133522110224341556773426912325049009064147273836994
52 9 -0.016783099918511349012893818404107923481024166206112818906091163504991431688915140244608892287327274886201430583395574590176467589924320474321147683393497660503175205631610980789522165370222758899228798455831823712545596394453390836788706540814334870137716050353546724246209234322719952321038
52 10 -0.011407374996191773566437601480587236294584327050761535105708127110596688451377236839101409007156634887273856854113906618985135058077378812532113095348483292762579755334972290588861774886861149078794069545121852811183566582406886369079105431108572912958086428748825940535068032153032347246625
53 1 -0.011594277724844727721589613070596452785002215168302956656544019955498106067394206602341967095044631955245655764699886709368836610855835149714481699017577749791275109423572836864303828700760100760805555347889397272699878297776162507486693314094420557246454976773366145558761293414537455526642
53 2 -0.014810718879770818930752021468085965354944935276345471648923666601085158688294988668405238791496159246836459638213756826946162385214382354456501002750874201626034767148290963667408467258837244645400167256639980060988666686441690747710919089032208202766519699958366767077307545894261979570588
53 3 -0.039514217722321773706397991181161070924208830475089034141289371784980257446521001590085797182663245634757345662656662265329772442140948486111714409862498238217564277802776345573896240759760904732809099476179652149388294285700270440248962035036547497279822899250842648113889959715468568729036
53 4 -0.0005836898227523530632959454060328623943889751201975577565777568128735561843621243998216083164254296226662668125816127200326090343720042900240555542774476336596698286071192039107787471260392038352096010409184142129071815989257177608749964295973034309304907849452286098140835709777794656388312
53 5 -0.013462165231171339945577647164002193671428286560032954440493117876777618015910206157671180745153407089127973621640077689842697088171661684439585039109459511784224224492897794849087599051879671753358813568584433021295903880630258771658660935363039950003492618801212685317384411970138471725842
53 6 0.019932983972773909920752448108524076914038136861986063385437961035773536812441754160045177078302587234648524616415418036276194816579626991398376385879999374561111368857798078908044618650581744015681050552611480355632632629858544549898311951415727111681078324143080423039233259709651452839284
53 7 -0.031442054225121580831359092548920191766639211446284272644587839257021938043004501814727626926391492218109735375136758252380211679966167960393256121886459630460538349598563859570806758833135772814487804035056985789426291693586795324889443281090385533595160753256914028970441282526563339464295
53 8 -0.01292508256296836650793589575196209810281475287830114284818839277936356381355699413222325051024436664601955439193787901443932016791962966450959040374626403129544236642601437757525238148323180539707464421151545040655210122951652628839255002661403495658757101937286635065793779109215258555307
53 9 0.10012713918902961708167980922095794653869159345908790915523829033038465662614809095862277238581076444755164038905299726510976737650504887689985828940253735033108066366325076259968202954210550338984383748631440115584049520708761561771950984689159878780844420136405203727018271751020128863277
53 10 0.078471119683866663259746686467185084578555135508629137024387963509432468752989977959266825048061715898106699882538317636226353625302726843267902642346763149656102870439040775544209414395938196832250302088561153903092858155863873505220011919976471626807785822862071537487352226398268719220416
54 1 0.00045161459052396846205063471538476431576608013510205881333565047710193869822354533510610749358088178648178710684805982547792309890809076638144082919328022001078074574232924828093709923548131553235523019271270397631727212748742281025739368181183183073821217157903466985166238800281981537353751
54 2 -0.00058308482236675046956681744809365768833335047482410143534104590052724287040945451657358936311970288772026434485645402696996773914919460580010837471931377044877382277981516450999531154131924081240717043469424387742153066834034964542525915115298046737885406248767512883396261430699402041445134
54 3 0.0032776403440432065757881640034371855478450906523392509081336996341644945366342776500792520061664294559214824065011050360139567176380437734881899660118728322921662340864188008430616246931746893874636733162718143932639048313348361647395803136335029600472952326893751129029348310866312764984233
54 4 0.0027696422490200253197258221308411442897396838687850531411797686796040657783781831208225438136221764995021002089575157592028465935649697210724073676079016158702519635979429340008808303108635861070540522879826162968336729476449988256410470442322655835309429430716810561902133292833384364575552
54 5 4.2368855306411672311284873529443820536021558582483008555863992072679684928082301222841543448927975563195141332525034577339433014697710016660694963660384642737845574953139432118470590631306165905687341630917267291050804038001290818615751316612452734829083183589739808176870801292977681406486e-05
54 6 -0.0035836540655976372145069600046466789074879441488881930583081016854917397765286175428360024732141234582474901141997663308034437050460769813613623074120458861300776855115928743516651660214517271013941949734293454544722285388963770973062949094072679818392832606591570588840737434796815880339164
54 7 0.0047666680244417035271663771980962184542308375470681991352700355566498733546476457506130669344511551842955644234082674238719042761212623772746108808457011784378356898980536712155348241151952170892711690864107365232110177623263087341193820011400014811005813719298848984457042033105981459441877
54 8 0.0028409078763947858954683722237912388825706397661478580530817326430838289185220147549228887064899514132562420060557405140520945059435750476066632882285636405631280162800202438257992867180738129695540404734556107887593578085944898813313086359608028808871631004642525011951060922981147899592558
54 9 -0.013213572214591762076648904934740585351785668890341354346259033383768294218545254839962142899393198713632839689607585078767525416580523401394493022693991775433141378557531932362775673540151666137287434688888367052191725949264370112039943513047095181008953724803918653475886209730979702393671
54 10 -0.012887910451035527097266785052744228738740398796855144560538155541742505053988354988445659357088258543630880308647836928536854996100287704242855539128149987474957267521230626198984919127932388780401911739924145376088416839785819534648542555845671119188646840926612026095530194394377828370189
55 1 0.013438592750568711680280721744162169370901849317265453020356969509585769560888584991331228363912440325732848500057029663215160590524637419595999524115290413693443509004872646085463061203045112592942016102050401571639722008771576368228817163837012667132067280005045783306636253462261817705415
55 2 0.018179428081941106699862104812454715993734020135699362790346938185911112514801167154054929586386709726156243919201354205764661377056664581637394844214040428089473960049868300245067661049088914602725123524183433846715330465101065178732653430920244175653108135480850590035992733408205765814035
55 3 0.045769771616951576117805905083079679567047694958846249356802996770145109704603638588680268370684713654137397408325575631690136582905817259367055372909969999024813291720257007608817848059358315559726307325022367507812896693792841894346795782701543946101563276916716985481214086698184283600066
55 4 -0.00050973875412307935094350599009990470519603919583462973776735028813457579903227740527671948977884227429851203782392821837478857062960564253475071842622642488098884570238793252569853646931240595036708446244237002913801572791733224063721550749942285823121629427945479032877938786729522046634716
55 5 0.016084493634962643302876899667394182743917293032254167165765337683382000384280170725707368776960174720241681875331765994133941096134796695842830494764436115977130095190743432516369781055007024053715325904245059236326449421979017254957289106771290288919748425119805050901369599052718115716653
55 6 -0.022107826738794217195181002717505611903842293122864077497011264681520448187934375997584738982625100541878589914412275498847463508411969065913643456788468872834921038206925221115614701182894860542284266844899171343206341588980406306630998985385753548881560174019862364415339627241722813437563
55 7 0.035344482698621145758818826433103663313984816655886917895446278726824509681704593975453313740172889874714732743781831447614050096363626067892062315619262578867072363302495074406496729715768929443017345144377749023361923761620511964403776442143166375264002223364665264158326157493461048457084
55 8 0.01421400802940518455961742963569870731708560812613698358788063589003573521684837357225789720324947795902368117818166940246310060044410609465412052641373863607629729617453524486855865429132896915341547120980509267304473067668143775182729641353382839134073535321994064347164856886688547144602
55 9 -0.11382031553199248619194529264716321202111857499685420606297063047205425972430388323337035368650610888727412250561735452789845211126355692793866989275765726648732306463042061115717841658189258441040255399544557422658034431651532493707876107043725238693586623458886946928164295065107712477593
55 10 -0.088056660036759763861264267485049221314553603401920845661351982909212067962937181650219747305987631360759455203500074301048346040733976185131669934330037309610696951634657768800196749641731786543309211466845510715362296572818202549182942953907344445524902799886466490664051765584344602495756
56 1 0.010222691323251123923567387040869008629921034423475306287047602579786832915395488067899593887842699991256563204249668997605995500984407266542984796928869852708498853608155796852610339893752310782240021912992360434865220551931872160080377896340037236313302943833618649925758092729051030430656
56 2 0.014708694478856350816841965041371915021610794670207810701366300790875072116660962616361135782964592643320716511110273098675758302672090729881696973502498324925888062804849513831140219056304372707882667877352141616098260031529497051742074425660693728562266561022345191403535076947504981006611
56 3 0.033074627646311234527387033579161986028075528511760491193861849126817868672795711683294934698621406477867226086700724112925382936201939520709135593564400946209352456250456422438465279343661404833951642054583505588208465199179297668947115680276989387702146053615315752934321403378087940655291
56 4 -0.0028152694608533592795187385624797975373503050148598060664878145097227842663085948771587992528589536909123821186808566644292130454790873500565110566323647357267315368268254979260093027476700546467102169819155939437341371847056845287376842012634601405031786046181798511726324589692426753086515
56 5 0.012583169584872611909745302919094515409053442457428886387171778565931763877267915462091169852250245510524541396497269878647550027589381642100177954833970300608835518599686086673502687727062136477730002662539479484501077904887782658825316795253987520975119697862196886494633856021551196846381
56 6 -0.014276841609248029849342500133842899751254761985334703864481809367548797974992089447282719184522534567645842912623911456737223081468338195549841320303081782591508987401423895106533318880949714420240943117578467854540618618114817822949490379996883463970070396335670282225519075301024686942255
56 7 0.023634670466179702993750098997861124289117656661313166515726135716195756695823941656271797593752128703184733827465921696793275957951913779933855513715248365060037312064463459056443692645227077592217763858805342144904734255249706450794513612833175763073124864247194902296761443731895600126335
56 8 0.0086782264839149950786615986761833325750441305742275008287318458660721983441038113290898152995379075101287685068350137815692509479629585769664928152811920460641836370915932889542492131721218011825999851014335652419263446830649937225154944047800522512235859599628261450606315249830403957693469
56 9 -0.077842673719300142821939964748028948958457686060527752379344356856024507596155331775803131914560209162402591263333397630311605332584109131500329818719639253934738494419929828858516953981010860584462927477830966528749008949593163340351716770623062050758143627725795730094170117008740999805082
56 10 -0.057913338948973464185387264720085393091596952529470568672479499279835330199639251211900794635116807822800105469502627407601539390283833980631114104001089732967762157603956289317524143650012899624647906518633604963744307167314446200545700988126160655686398992615388757879888701452082050754025
57 1 0.012608570548457868665135790011519109316362162846307314603297352965407039937021449384156318843469527172852702621881052135408369517767845785982512200634264986421154779693685441805498139955266455475606204558625075346320979647436480564804533811463297285053452253667511935160512048218755749444459
57 2 0.017689415388143741554671405652096584029123468951450114686086618281467917382426335187013988786834707002322965582820620089043445465775590149924515790080633941612536442523180269974492440605377058921043468601435995399197113082513068391160070877811329327268260249548537348010898195573997123022562
57 3 0.040892928074961768441835912529807700291335726748854118669606499643545877513573825331164453362871153485791333853638215042962712001411564387109056494610556102287294179412346069586270038478030366034874135740430511873047519229672764769910598300770512608304635379090802617973474890228751861828989
57 4 -0.0028781985621029635400079310589131301998782544166876281548297509651169314449319268120568994665922517584097267963932013525698708709372201124590973040309121604225166361810514174269418644802081163245569389797583478202198697086077998897880453612378425897870772954364970345285478734042691659965028
57 5 0.015311510231560059772241722893863264169027521918331449430131329548080107499297023639382586526845830324776837607342342330001477318434494911579523513050263249836554045071273650014947539919196043281902810390505946602821332942533800282372413509647893163757511687651306918612602119516173919475534
57 6 -0.018120142701001435750270212695663926871176287761794888817569022818147846812177874469045517713021666649743934490953623300609869240111148228767563036310614300402454269684185678702124470345978767207269041696552054066424887574924376129731139249161970051843557318762831383907064667440269556992196
57 7 0.029742029264164167087741908701326838570496571906716627404457804314388076906819414858879529046043641734281731636557397648008426281413199530033511628012340130330025590642690396348054512717282644574781770910591463267134606719966852455415053248999101315609418905278941094185739948694354102684928
57 8 0.011111913169317487987232149331795620117445925670531717625227555483864734215362708060841890463231631389388057595040117848910957543962625635539268876515983674373149078387751831545386550378007174784317374788816365831309963789689646333474667701305460685209871192836769332847554782012926041240057
57 9 -0.097330154796593415677251699757705827194907334282409932305193488525007786955838120057900620634488271858713001516947310038313525638865425876951853984880810516944392048623249939573589520735127676296323482486517447686963976652496598269507343119571448195448542750676086887457912608098828727563049
57 10 -0.07302260448956649637533608122598936934757668504157762264314511134721459348201875159760906571484620478383162214862876078205886132002389699827072381550386066502874217568254572544566394849711029409210438034530170410426535252048155816072928319067395308630918374502412805951414202855729148744806
58 1 0.008671646339885849133708533717102732518683850250698974161090458847284564412607437434686334258165016636893653958837086442497397979917823231785358216577162377141111385002857634971039608226666732171867102870792778725148906650024236491559042546240248186525627077800682193276756344022695121062246
58 2 0.010980611211664288992063250974039156811300785627071224873836438085325433771556326694363115823979439813440800118103652883641831634248835147451239104024318205717603524465165335725511887480434208607420061423377544832967601367030554507809674837440569919899849866374108176726533687050690826051362
58 3 0.031083072325721202294649521608876561397895655755878283950648043298540089975494480995481611013171837169947914160618237898896544855137173543596629417338237836017279607368300955078325042782712764586162500499771749722422867487370395505218760161678202445405821237003869320272682442604281697694331
58 4 0.0017899940283610950144012609160914026590846078514737737160408339198025503298714575994039247448088343576653027823734110243377324087455254827146339003819134698250895568392708301191572682169109955695256680571985582490532879889305312749270360327942837304549427863646506390434059364373462392491598
58 5 0.010086216821689990982490378942786501371217307147113617278392257569385380412224344873482518057759469473001110121943569981126137804990234016778670208769992057871312938176212596054611089431149021112185531541615927928523959285257905424546935389942713384100756713300198987864078333593655636428085
58 6 -0.016485405017983897724722572072513671943428064768480473551957700136085479071174999479615054446479038694526395238207366819139083776484448823497470796005874466837146738721991475998633442690487344741608705934487150850601807557441388614511119452854112452259384507699599734446321349845260229420933
58 7 0.025657422575382276408882553310847968647113555599127686006942364932920838393752511094719894090204157472478798968007410323648355418981836167969121210135707863170112766883132514545095497045608077382781341546105080776162642132184946005014909116601435899605008158676138883413233548836263116100195
58 8 0.011042311821831919469564474760115889973078916884214513136196070450488025932640028118618887707227297454315057945508274151278421798152171285561854115002512688026026565539261370979575492602781222780786476881801825904156705581263627051021074878306285766279676546700948229733187191377125512301415
58 9 -0.081140660103788767061465650250599675899684348401094290741814730709219691648310995774862205858210790658621762044705210419709340637978725876719403359649057483253888136939845075720835147020437997288679245253824356947686059867200027312439520036112174893282291909366861431931275474646386481205625
58 10 -0.064783944389643615348546862918556537346501548878600241027003259801058624047102666522806349686173773250724059515261866241408956057641306623084170041487219226945760367803364387386907769274321896187873734903774331748645772872290135232731682495362625297375290233431568196451839351132133559682824
59 1 -0.00031281446865291646692596263656631847253492766629705017026898151828184298718466854662728476872629066227428017528372726593581962710905017800661970147011256063174180603016564628062168269263143016115613147987084821597723724958926420224431689708756076613533722128821948330410222024747557534616186
59 2 -0.00065862784963329614709239871317758608948774731501019844463889232935309824788329827746204863909399391231481788546891086348968579773538437439153793632676933528510182297002876829952643676541073188445883560994887517834393521568019572062371719895485305240930097123681123178295646871719175763693141
59 3 -0.0010186962870995034242950176035320698004383459469463564700456178387100685917970056882893755844146485535232612364108510670674811039109637331475243094590746127104583173307639578444071063695777757309402631266315526020250171230415358744405161524085704792129022885660970328985382445227416463830764
59 4 0.00031561214122651762391343750275064681590597511260623058919650874972487176673105971240075953196125217319806278470164216431086404700729884869416331830397512337753669199989540827992525768176160244420649433979329107396278361403096853672523004692550021309560927814197211460655381362194158939069003
59 5 -0.00048231586962483475624011866209402071247120554733609287320335391056037338965683769000928703506122130692547551229420669724230642004261124839739284615469714594691061456402180338742404620796666324396224997431415559500453846334270599964694126084849647906812732397481378940550919887325431347007289
59 6 0.00025869803998516293044906552271407813559353581752915754214902330145549972482233661402915623845470103229217870002751150053242530989672042799172407744023868499936833808777905791078541730105510647905337336215214146596182050380777793288152896318347528173537627306647640573693763096194041596017848
59 7 -0.00052599853611649256901832364747533563325992440950786029290723578760552004123251616375440680130830433477334765868774753020762397996421002890047927663286821416467873705594032712141802342428269428786672059713573265410603033174942386899868900596917303617593692250709572933864664801442129028880745
59 8 -0.00012487680948269635439276695744169941671972721014502534610564458562927382732017212887900058748453680845132259068422415013273592943884746619231078590455747060071320309103047407707258398418353327020989263023510816418841838973960057827910261190595102965301484765314828541622463119558116363209306
59 9 0.0019869110182086267998585113379041510909942907593287789985795715599556959124877135570301876447148937987978477076944296743045676320843539018660532532205438230492240697941103590374718488845992172311294169855353054502995033231690358665727522413183434740763709878940152117376800874846613999874617
59 10 0.0012478056699172029513405315162585246252456138089044009371902797263077846229424949995157291279200754658083158718355734845445618268414597628685064277157035637269201883111951218203382339030095601303427617002756114469260222839527760421705035495042815660985425172438940216214785795990852338621413
60 1 -0.016818916896915208359668484837501899431391153010010962395495068176326730738142548265565557830121948825190569145099412021468660367785450526352942378336207824055666539315722617078517332676824486438230794909262318479747446671832136366369061505725690034843079392276957738567157650566632249216944
60 2 -0.021499337205178920241901959944234688569285984895099586078017739484864977363032274624096756184632074620080315767450845696274798610046753871049371802246848951986490278135901010445083458730969077700790787372685365738364285498744535144690658620946509461352118826921551129615159437434771312557788
60 3 -0.057498165844063023377520546579578838410043583179723218708889006072881439044533923649175212559348610522114480752567983830698990341869786947854064183930662571856225660250167189162941249685604037506270128548680501461625253646033051789285080944428308912165640183741232591277480235515044681933876
60 4 -0.00096910703974232003692361522448332748333086192975512167905768894155405086001189546181365901014561503984123591209580709037995540295511354322476354538614777375571495829224126799163154614290460538735422478292509297492236066123885262142876969635526703380375085559778235236081706555551396784089464
60 5 -0.019545011680915740290514848751470941091451731228507823631313994857060683301366280060702702275633882754081900365312884843466635223232185158557406615239038169900800721450547741912464615675509422374970762747129710492335818533740157720099459168405589624401974159772668706372396954809087962745538
60 6 0.029055927025785771084304285706651672956022868807080653494109775616657269595400746119839197332750057873745196005813246407231607367325356829442634986568497653974116042047351354566366665164138079077070611053747119924723320488819751089630218364883056356512000254373384915303873904016870063568939
60 7 -0.045816839431264578067051249705337585069300834259230034899900711219897662119297171381528995536438273099658056904792458629156678427115915391263029565579579201674211038815491492679912594617763226298667393823752178389823498698890862796369654028767720730915714598423487880541923298146511089810684
60 8 -0.018882218997787991485162481936676770951037785837459551064941338419817696188142309274987557108804171338417135713082141937907283522691380428631674359299546761063523929905729315958005425739017324221858384486264668934926625397774830476540216955292326619805875759096615950868823123498990665457291
60 9 0.14590269735673592801268023709289409581398640560108136388109408252926752117079789769083293631669806134424248127201700396181580773636628029714278465443769118860126874523879376438030820887946438868259259190734920216862573625941948183298280239002348446485779065476392872024756433592243679205963
60 10 0.11444062517664375035503104157088606046405481723952304859436353033988844139119830958359462521837416992642170552616296215150898565783357300883286316006235332625742865488553242604594667830289993955131166037686159005372960061767697602139744903135722588761622781905649069874518232289821199968347
61 1 0.007650965336047954051567544570679618893324301409570747757963486555585694355617378163149902468076087890606275580993855623222915394863061444895493014690650617070031620846880903794294648491473369322359583658898132474406060522191666434825229321183105208137688326113722985065596312241655264536007
61 2 0.0098726517166933255203715342232829001750339367102993451703652730279156876473726122722798095266189204104046756733366246545273989243254597327618333064578244831118267379137684863477062717583019377325890683073361180035601401529270910222060000987006242473325690289290510163877071953806883131390034
61 3 0.02734956839464053877102060106243056523617302162223585393119338705078523203797662258455007999977184007189704651913636288296126179015842993499254760974124902711586514353867523406712910279531441732872617469476911650340171188442223067451518426272863040943032482816878036885379238681642937618014
61 4 0.0013171361551907953952581644709528809814699667128991334073824294583252692935062140198617049878370442222693483854228997073172707148852999527511988743868408149041252713513187229383038572691142284306544999230535395524060289957426896863677922114190140751519938101797712673053632571626854425290696
61 5 0.0089789493371232534377682831453240199430104893241339904018052721216904415499984284386882417007613598020876281706772584840003567300012389049330333743820106427424076883151150625223734245751439674596708281015674257851849306992898334159124781514143749746890123708601641001204319900500351601700715
61 6 -0.014330337686532978462673245480399388326289876345277098444885863856729181703581199486953965134047351956848343706895521722560922215457410993151499431484870109657598061290179555599284126614561585502076921101217007941797920092890995451701379547268182393292173573571422693849715085583126010503447
61 7 0.02237361415321667468372504294429157723526254897148129478450641021042770535387561721943235287505527883280031168985445238439624053673056680826874381494957247255402116924252351220671041961376961001093347945912759573984049286687345149746807270308518812519864501953738970420770268160637191723438
61 8 0.0095589129868487972449841518696146205514376914267053564681676906994928241393622687559820250256283384285540324643005250752681181323042573469101452990606135800561163377689693910783247119764006544484611743003718213080593571226641321578575587922207043435812788836664386559706220999068435644999361
61 9 -0.070941913469430727711422429623530440005508079683246089468471669957473935919992701839100493996907077753788934559055555200015476868677370845763917873522206238288922484783234680019073039086033176279361134529581894096633443197035116069103852025453655168100805424818858490748444510856803289764629
61 10 -0.056421589330186533396153774940463248466887959190570078870632982663718648813248654090887250261663874041273318157603369004872255992493261271533547711599173736847729177668569115498198612780556438276783918577481696700127060027479452240264867999531224460246536082723247235957200435149572061141694
62 1 -0.0094836639746325633135873724357543375260603481385644976789360603991044740130121000758942523422119026770251071593426566150602177602450471018765265853532332576223324563500177968690153821401129063518804881631539354230721539797455467168701594508657875007094758164967233293990656665538681843319765
62 2 -0.011298758261432393564489395231668244081673708037004265323359290334600155983609809037450807063956688751694428020651325514349780058663446819176062365178570315412780257208137608729134531049149929213367841365719192972284422187992084509325937850158458987437904552855935930842072446619239156803449
62 3 -0.032618748054975128838682404545298831462582781327609874223170274400625370177282043671804751025430344390071448835515181141358397531697613980060303301704820908631946217331038654867041355369464919681859009675790433513550442801072315591233305496855391952743906301012563556783042475246590281960094
62 4 -0.0016474625135885106812242597274530774139566209721139116508492151680317111968550137990830241076087720276935136108696019640385210145208939891114429261681091690249271511558514257214865334897717394202327711852037728619858916290571218935285303549266428884589560264895550522634136028136029431254494
62 5 -0.01063889875846875368709721212826688097412457973751741385223587717392973824617677288437510035067699073187223122435445872852936449238541068245284916834512729483062739329506878604978100570343596049339645967787096275213178752649780995664736972592726001246997056422108911344741169009829391399279
62 6 0.017346499982075300549564348263231159002540303681714033437472140142925895251874448245902613772764707629358122785734698823351250749452333001298467769231261317983670285497901109102133898497312014063656286254803101356266061006411512534422676734540471081727220453631776466840449953249546401368864
62 7 -0.026946504479936760250186586144515504672265173961595547083446001714658210011170294965630911033723964435105269617481970303518728167027051964447541690813360969675302360458389719666442525673195907072607985735795393141651026570721004529615533343743370639009441846980347539679384122892729296501642
62 8 -0.011411808410177433143128773593735844470586686059756903391244515560330282824323791727290173231268866388723870647788786782940078602773540109035730381855870191587952113299901382226084142870413878555349587013209565126975181388549143779293199418585462822117563125914104679261602356361978231421964
62 9 0.084756732393717254819192895734357121476878655871379299073852446482033568702736588284991072412417074364340154455646906243211972912991324428754048420409801644296289421494852368611636536696263266578399902578739303231614276827061835737554510875639850761458500005100922423945711357440797435052892
62 10 0.06752047744718935805688939873437473638458927348949886373629770187955655095317140808608296357662754665128947529927706286924109059031857036209976260056345188687202758912885963668971587587462146080266161293431677696658081682050253419181202736456629812982956019501603125613835807168670374748144
63 1 -0.0047012894001163681039326754406862472524232955200412683006513478876516156447545398489952726767640726829888971617712147419254706943495583976857150370239865804300413678593193469516380810237899807218375036483326171177135432406835751162771717531054883371563462327500743743804384930783616194678169
63 2 -0.0059288982963565995470773512554568204813649989926824029997067756303049791860326278709952433280810366367690904213617213471216817055303576509537769654972238131307979760319362183572213926803998931648393600694834199856191814534314557484341246791357902085631289319692449978996089925365924858122909
63 3 -0.016629822813987686587243983769615625175252448379555227428059457605869407963778499854926009227528478324548462926265903411712706132948831489890837967796087207515356787158640239834088438060992031985855593219429612851206294166140375399025241700845648632654355418345581381473239941034758411272065
63 4 -0.00081721352341119758848859665463134349640222890530931299271874119030947203128229583999445787452113391125464478787907690117404190810724627791142930835872613741732214609125110306195664358680792447545456668857433528231348865973870365136114101989653307918230147330934496705292833910505770328049061
63 5 -0.0054477783516798985272369702246310297025971191830848133856307202616268566914268218026272498029861972027129266303234702084413681826059635586474603846188204720533078343993840921099622723839903476246988584021391181100331965939129921679722055325498215522784931584375832625562498273356014555508446
63 6 0.0087425496059398932070220218283460397917738897339959999962643021555696207090700684509427985865903275410111061355812558140787147982250552667803444339346130129287255595983798360005739815049330635336613798183502384376096865199602472896758294647041431602159034397220008258953530802700172324636992
63 7 -0.01363714560471262387133398721046063633605213736880406976336624663198046988430446284567084723640222350411780822967213845367336360581372702770709047431561997340960650602315216438964514294695945696948311764244478671606128337106931268283496619130994553796745147451575728543249411184077868214913
63 8 -0.0058138363864713347946588293303420480363436075027284033647108058764059013991174246442029221734771010819503061680500499988170143672431876337730046747448517833678232750174769101591000705764858314361389142356418220339506346954498439167894182089745324296861996523625338862709138803018812863768597
63 9 0.043160580461682570716702735376685412048545552507694077789726011533901854736991111420130015002254089378524053072273758407239844492703702253164611488149837155021925467436036827495708864999555408346124254343132253305665661788566726309538386316350082613892772713047712671868383686263661879366997
63 10 0.03433936579459470945928437337417446663167308995944213390001938719162065525606472234522114844785062320832930315487818752302513933945339298415630438694594459049495494733292972403505699554003767229129480976620588211057696284297369363773611709926397805468439260432820685683331467401130296221519
64 1 -0.011024372136454316425896338835990549830263910169920161557724839406686332085046998239906271686469747023415342617296514802304823557544455429460297816961209707652871849425204724285473095296206417497835323906927086629937561929059503078307828894374660386758896980023790141242061663104837895435021
64 2 -0.015488038913572835919429105479316908001269407064914145740518143332342866296546732034808889318236633765055474593364274169354936720194598650083934215320467142602339672584501318130909017690720315323755097325121961497214688732819094827766835162618708220786955929650689159605215750090746210904281
64 3 -0.036388108234417238583841195882330121593015130146340405731393661658330439198317362039689625050221297764065682580379580165965390296856067544631560722035093209065126499922996273257664731876941885021789014702886456946348452614138513148110359221803561903734401632780180589095530391504287753918039
64 4 0.0020176662428727784400508468226553132231440298383893157161945271162874528211274013171648841295103771243084983157693097850140184627690147241667554081821504270168245627317748380625463224597503994861603812472230248434506913151023778041846749206292293533443673073858746201046836419115206676576408
64 5 -0.013419670258425580097732483932532870258620706125972488425237455809030091000417046284965924812370306891404356479023978136317165791330916332797139441815826203297233247683138663310605841625997433827111456047345309917530888454105344668414056967042042776461270730719296360284021071330306678433317
64 6 0.016466873803197553251014731289102092004985921291856334943039815320966749375031001188569170052662664568179695268359261975242947054817901079000892723532999516714996446487945093209591128187450494556837166023815924004859449039027718381227482423809187294450645233561756291958564516725145771744049
64 7 -0.026851732123293678832778690881103106987205264449107375640674550039220163479520265138109566179767884711271444663210739719672621470501902139834885754710113686184104582124650210069504415803044064881764590465604112526942802601219920335896861370441393441986135525024552456354376632562925400859407
64 8 -0.010253120679196754630495750039813537279623284699935866438412898467167208141928237956211727998725062532193447814736012113667186187029816223910203403151123881789888505095155787236341053180338126283674072361968345734936241633933213754926813671407375124776491773295318517213621810192932597963967
64 9 0.087590683913672545310171282036655823912247098835528321882733716948626002722850480564503766365798045566176692298779799583112145160189014277277998853841696547708961831276943093612657186388797257021335377363392442375771865528985515889309528383847175528062478543550259504222009598802058205558642
64 10 0.066249074797873448246169248196961277009629362726757074492191974244901927274092272748350547170563326753470009900698970725750645977720811915040093624774161981298863724207869196005018468166123131053741226988792561876477959796955551113191692373195272888179925795451572538529293500454428630458018
65 1 0.0064098911504017614615863155649484407046373804811608025762477773747002028310152445208638290873944964189058323320323864773649825467302386762910532279687690330628229755930407539634215634309396151883109177922494253282006841404275584700871663078503510318294268107172053366194889823025674055023449
65 2 0.0081014512360464166866965797067373134587317452863891730591510039468184441656386645926421005789486527252775928546476444644679517716876763562083559310150594713108166518133531168687191066894355721579041695645848346077941638847278571993970242745753615941239767344025563402173374316846208871814506
65 3 0.022567858597172431726834431321009303882171644416133987924799034721377001507818027955984647847880687153997799937504064796842010064020416922243027008621801447922723253271588894696012465306979639339009988812343433990044591906555846654102967658784979933856636493790479287391791531540557502798564
65 4 0.0010096736269280909736010163602390518368271891358835088062928589680878172037907244514218981596182429603123042073880776321222896295680028030977853808823593276615094377981676569568670168115225977306956354794969201582913540885275410298192405307407298992893003515252597279298119922267195397158002
65 5 0.0074309966383567640359399620101471649594970575212251639162101640480846810322513735474219070820658552417206086565185325462611819823477250901123666404277038274952255383172692526598406145047920916970502244686227316357004039131241792462040059599245544159155113320445236477503568792488089338658116
65 6 -0.011806162686849280156465705105295326323803104504213141915718992991688662628397433211847322595611329134630765464453232585066142402098625883616165795094655157552469745706192706678575953507738670664932601028343502798232763136534443758816693445638922714984135686316464340548692477250567774871087
65 7 0.018438784306326365306330899141864291855179291629818105219642258739987546553133755751423420738654997173761604630164242232237068402774082466588241933873034416531018427593560041430840710870036123074573003174759616733394567977051470503097854138093470531275726614601999473843756414193840871238486
65 8 0.0078262368581361612413086973696159150238153149904255274534081072664847695627106667372923317344452954355643137187185209179823038193227658609531220148261735600350341446066600333270883585115647154379332556919150434322348114475748926276618262004020910887902418439263881321075878254559468980703105
65 9 -0.058396705673999179175042613505470287300211535721780140128602843034352280121108586459634851873616006785873181970800856516791818564860913533182285203815064316023022260588339698828776251524754087512207860724984040680788025770597982244986387824177686271378286050158168322401411858714979923583267
65 10 -0.046377137563269589894350327551225873704330782637431145871375444443506851765022994034999953354347310706412108078619659028537633495214364556254083645146022384520345036630020120511449625467674303380421394031064238781106820849576695268457621494887561635447471225443948426068135995717501253533255
66 1 0.0048707744702332040693446527609873329623701455569685060451638464100652426592926530592435793453610038285426359812955020918322475294753057740621904309223940777412398197811712453789917915355687576514505401161489508589813602737758917418755307541442560662223821009012712367234715376424135871421254
66 2 0.0070308991926287487984039165915720677877871868076662057554520407748459867460001571908493892757648219000517454173336668794332789770560691015439382615977293077862156703434096700744498813877989032073076161551142960697011134254022149641044568806354766678732691698438321206016322052256958534972484
66 3 0.016011515809594037083275127082027472183523792844951061958718100354764243961159305607479724854237136009100155900541230005967159319017545801919368111913061721963860733385851477102712594502409565800945779356445769061763173909434769685047649717246081854595349283136514294033888671846083774792157
66 4 -0.0011577835335675757425732170432553614666341495694041007116076806491187431432407089292388977314017765941319004219917920759003928987455404713047965477446651489800800209760315832200709097431438275336148344904668204837037668226872240111255582823734239504906629509255144428702847002488635844852989
66 5 0.0060147128853133984379842990773595692758321959659547139554795519247256904187748199171514660575834589410856470012102011889049934073391899309932220688976166637256879965644006411669618889378681715324968584037716168905869159465626764753325134805027913125366168085062253434214924754318390836171192
66 6 -0.007040595985062286758446106039178421533195487524983648354912608041979630705287448908242956095423243599552521483429010009951344341193400011518195438760308866128934403616626583549488872114253274243853596164254698501953544250459034195612602917151134840336706552215373587316729546846494353578491
66 7 0.011586735557917380847801239658430565546955920095724021763333564248140841574061838808035045060857071858610657805162156015254313563551218607564001395888253198517374421298028657931994892564460083261654121591288377221600539820349827095470970655698582725515976077358261877365608653543213962252788
66 8 0.0043402650420576067062905795488108227891898559774119079304812938146946057753472146770284874581427404542806412334143354486848260464118144480663650121510917773808160564565505336825061295362819418176329728898114641676642907958858857682645317800406753588252362471885842722110139900563193712752683
66 9 -0.03805572879709548661978266912618617800035219983908672918672213291843555482982517153646507399637447156622103444873773871325304275833852958585710320077366688197309245434175378371155986212847184394556019713106409426410281073805218331867576944849218438198569715520756675463035514787221794518107
66 10 -0.028517549616175241561471674384693558661836445055053457773977127372550161816423883685294406440114393042349332562825158319968627033751707015667732848493657714876406066918887403110745522974420361106750240556756695450783613307215858585774000864876349723327549949697471898633717049106064906579024
67 1 0.0083989956566359079666310384804763361099299989259411962264757452082022091059507259788605298693191221156252120287176605259254311041039020416390887917530260764101098501387560297794500441613119789791997188357345462787924980159866119845283738465887573954233395504243162868530654062926118425283797
67 2 0.010518592015490578701879360156573071651141484000062956284790761779653835626601170396729799701583860193996209359491206232739627636423402460823915304902078940397921664693831453710084565810899782638051266064316055154118760046508855589709393810129224094215994174046737685235401341835837018568602
67 3 0.030160595129829118991141311190652907725008154286948386978620447217644458984250908468414652891092885475701416355311999250531705862452691558946605737115341879443164635596374953731025841991939595652997576131767055500103521620106595383234437833341584443573690364854392776150713309087977812062017
67 4 0.0019112550423695175283862650679400893544137334484913409040774555500966062061717862484730115443764299059158085648634181978125015079918567884570442150589234218064876547221007628974821219673652612908953749385928473436814726233048924771962323738945977276705586781125441289620072376983402711331402
67 5 0.0097159132904244441659537311013452173130277900336837558174799224688725219847859407933921184824103552713224632588101232454012914535105210163329072693103808640746879335432403980345040716456662783813581404040390137669734625741292566377773997435793609430935707168752852697076520108962048882249437
67 6 -0.016128366046240543270811512240125869506003492819035796562615339216714423568639339400222362087324101343132008194855106679856519152155646559439023345467150787733620756721701887356744926196420861822476555630845148074037804953929988013387538658857982188513176702287043336055498795251730986251223
67 7 0.02504271023891515988603788728285148988698220278866826158835177852761559196775357905102124042356824321957074590389128546449911381823578331594089476887448718014404630811170514271185268381961877535037274709037040187824746982822461417818036212865608728706466223792407923329103704197619817970806
67 8 0.010825710873810193801147766270389137153781266655093573874242326040786140832416882957841033591244654590231025868299612114238332659076517172281197219236623742758079356995649481856048307064761945087483381379800596431265701540404316315323010633430123120570427990678704853878020163198339798003266
67 9 -0.079047224699313221723268445889476970683755697925046913419153820838193155242996167401900614261116855226294473702501583043495797380203419309412703640142167435629480437395887989684723353067826123649569416734404123795102242447501683598550275311786900979330956840372741415718174324084485045146353
67 10 -0.063271337498241861868141688154835333413412096323872947943394671539980592296395072927841301285237279093660122517765878193878807211137544670638489845426648435834607714425095459535267386426423357784982187355441233823390372927140756599226164527735701691712540528640725344911934306420220056077392
68 1 -0.0075801012505646240398462289283259077089616262520197474755271777418804958449250130368026193755596897516344221644384636851069748710651104496881949793205915504432272541324878778761421300181920328107532746679220776271573975425172029051431763016305080652432330588528858630243368123599689905370398
68 2 -0.012027126692325757273796376206468440324152254018371009641645274803892131401364106841570826043024213006854995752919999912144659805388503561746921045591629487390103465093646216203338366298460018709823216545639288593687776127003635132038752284670677189379790172693438622062319487288936263697775
68 3 -0.022956044107442895122339141402913975447292421815024276002483357825952511138261888501098757637241225717899962080124403002912673531290271324278066987484672557921366371706766562831685560872210734043340670029038438472042548197915099922882910137336828618056392874380246265727514403127354276532166
68 4 0.00465009971272844823343205602648130225386135050015432618472076158240861971824184467744067813262120331083170151354249375555444608964570564575104074127995466212204228251472986076292112742839702017336691898981655428696450962290373505404368656088173635542055354688144607021035334383867015593425
68 5 -0.009800021804056517576472612443988834874727204406506550784287593194744004245511652318470529786826811564166466608815209492737851752830326847410450597111153532519622646123091393345672600429752934209039989165425364715876087415028515314755034085843861084938458094739956000121877815279515844095548
68 6 0.0079855167872315460385601760079239005795353537448975156704004142161037819756091155009618438047445967103388250363814440926431263434055506876504812200064630259894937586098839404203445021231701321262918579451880843638912697467282221996578149022643170616956190648034232102228548801642482312249351
68 7 -0.014254077565727684002023188389277926016632041172101200505902654820653725522280186040784852989082729636482053291262390288905783140105157030750751097416730608360259065866548545694872473066851200644688212606452888805350126189092369370854864060104887406352984840798956030255740584952843765282025
68 8 -0.0042728366254577926491629396274774160196930472959684993936067242906251642669450763926727435590063284386751364575409896303848046501721699740955460868060071542450302498098651608429110009458274680819294438295143918181385544025930841019087088655607468248165622775593845453377384379006644134799739
68 9 0.049164742540316976408539444527979253268158027074451991302978425507282512445557381606932610437427971819807014404542706489445795946638491222273034376747588769388850531154428320011519647102914496553684738456025681516833157065127614983051316673416967560770983663334794920247960266918957703489735
68 10 0.033872987997065024222704015149069501479083311556222999969265188048822111973474319982204115960657274888477485105062445873744206524555539297281167304612463849283689304959351334613796312479758003016459238202928496633338337951519873957256479900591660532895717399720399172715532997265994220825307
69 1 0.0033037187496270080008194568312593913156933684225004615446805333124228068029343278802415500506679751937263549296801656442240195781964639923461179294786013319247794296303509241208824410338652723714646718275023266081428942737770802084595485419543826661308684189426076151601367484860445648400191
69 2 0.0046757447785201494213247349515039634374740544266744299955150277351402037289806534680477253180851458357511568343320929074720548202573828261248468970222685010164838640999632484318359377283271888070082971693142582702862117389718799667389171842750899525256243724501655087943577317704448609101001
69 3 0.011957551977862547792691807503189453310522062935122982866098215211561336520526252526044930953295045582518295422841334618534585875208224295453890477629236549002801983921330153879437211782321053318851134001651958900555666542629253805496241354390479786717235676994423686010160061778793793459837
69 4 0.00020850308729236148667759325401690512492478138167859390475938809456392348167889399067194941558631202333453954594847613896673947138109878858668164774982407581940671949466346904047012240332344333313219585359500764468420663411724647270629987519083978343592694165979592704031204572736847655122015
69 5 0.0040831302524663801531498361084755232602558872642337890361888942459064259089794233443361634476588584326406361151118394550312442026457244893169700726712917668375507620187037297256498724305119469231293808991732567680038815443227907494130723579578092750907476109909726259885477915731037741298797
69 6 -0.0059146667974840359014062221620946552591754765427854819039571583655318931169404643705662501620143637731560604770691191553530859722220884880383472801421226851378699320010692888482748088819095925720236156686735717759760529925921567414725547104179985892189537912756111555682501433124125498797298
69 7 0.009407507096840920026306162469038334044042727313164895541534018110043752487479525253310692213691698329553897636812369741618734712053883278457332545489152706944215188763942916476222804632879433809600774798376109446438191263376914330212650561729590453857061558653970226952090731958507021186233
69 8 0.0039414358628796678819977605387781938381884545640626303362242549086130513798258467270839282959798103688604642314142969003435043367598173936993777491005894872956336717399695418736594463019388388380859142490701678178655787240362838890157934941615153956440324717039926777039771489318667848026949
69 9 -0.030333671136878929586778843350378141671256755858569264734779466570622976149648997947700501549861718457139012958033778274063964219777023520864901369522266049832812021206716555266973801933536865770160784406704766665412532626159711981429891073760977737380522339188442457621900052807718407405872
69 10 -0.023755808375404539966899229814865771570234171757879711062114751739757673752082482596557551498018850536015755678792017960423750708251158591192536876946978567794603383195492900369766518663485031997743137839005593912973632362955028294183389396474017739514172638271250007488849979724326743817102
70 1 -0.010290139169784995429124944163208174319970900274675776060450379963509398041686007411739287325295030211101693457656876161749418770602559519102086993165522534923466090170697878304134669379152840924566975152852361123347626627876074246994613371515355107412719719432839012519792122488392356780903
70 2 -0.013339371148931299864147355422779890984561629928413477004334065031013512965310858732347671098706850381769319083762672527667682826674726779737296520054981206676091354820947048648429392723330431662470518157225956198888272034138009238596926339514058211590134461589812299547520863053785832968918
70 3 -0.035785774633118888422850749202384557350720108998423434128132924233200306318696576041763375996261831937894789810182113842061843098612783214486804459782359184915180291424931622225369394162876001385674661857482527307117195362659803623954259144566117141754064638606492618909928253027661824387428
70 4 -0.00087718420373546627301540070451598091287753933016087208283863636985605446524401643730670138412327138333430446832991651017940962952333962270286067763924424283456599448661176075601307194306999446567162013915459561590011611716082811806012638497680887462735471403675087367501433757195523184330774
70 5 -0.012069722817437539257842570872094873776585906232601362122473185739066650314639752043802430357522875366640050596047559414140445480334429276911522142200505942141029293022461398325587144504568254396371562639687832012667404558141695440527335213868684773892970225159890885716146015252562421047436
70 6 0.018201971989931453420097531775354033291194746708561652486499065075027379714090149398899676012645628636315405514866091337304756763969430171834939663732073818076206512285723055869593094765764573463724753563575934103543162724894152008168722791110949022994176159743056846469981743549870495541444
70 7 -0.028658170644194863515440565610352081143930008916821740381827506516608351062736703871351602153956523643195835095255530487176803677221997810896720515249086835104642880797368290258140825366380605022003617416349779588908675761639299571205068282799013244261370313188992693125084139065457399637978
70 8 -0.011940213429219292735402842214884230007802617094145158003143880313495184399018688598102164079796934718342840672753115476733459133977310550878537842700713142745897557439043253665356726939422702118604220191229656952103824761494095488239511572997679031512318736458829348666157234301247397393598
70 9 0.091293700471345243133098475204541171801284019642415348758613046273291878079541187580690267113042326093960189016239847647695170544287141373875783813734777616542589902976494345801289639606380250327361821608659052260942435879526692476640099557063313987278811630159956394190616973852248903863885
70 10 0.071841587973176412595450964477230232825264592339507583838092016919368872892556505271154835586621939699794214626096974740682452535485371037114171173632869555298821998839785282437060715754703593362355061632487658489198223416643932879607113470714726176308732113590244412051643635847583191050846
71 1 -0.00057595959514624368683396150712977529240979591885463125290134576703258463850111422161721475363159299663792130327348442943715480769698250326157942448761748562676508747663148499510408683797779925563452970608588891211362958844504332060672173369668722468950014382951929015958231017825793147759723
71 2 -0.00092354682195237034987265047185623075749022888354900449791143518201055541734269272886944881241984230781486948467271153407677722231103097141738286500858593380717851670420716720307194148725593085562641626446114916032349425755780719798999893676228525649190456283343961129122066422865531958674859
71 3 -0.0022831095469434124796861036810882649577322120498666745038301242507572033731244355667546690173509289520970467141876837717082276943646461945414893787925653537778259882122011509319087540577835782525839947863524556823449394700469727453810600578450078798946260667924814845748744392510088878794178
71 4 -7.4512755503037150670032182996571972002626705255378228966170844068241582597127125386266745173414212660219054620318259775118958586137199890900713529229005664095136956636502511318230789276847150944019983016363490281631702241133367952270270775921041265357952515124494072204834640116298360887975e-05
71 5 -0.0007709742855809185698428130786065777931870344096488964853862488166360405545081316860514352295965922215223393897853982707493921783446969074579093064348321800953061501696478226522335559893474079697944648711052560470208974200060895546172646777695775389690638628063232142393793733229384203050952
71 6 0.0011245257637270746362012740894751518726667617541767431568162859193794206335755310522756884518276898002366133631550838667990091786262482327602860325447013154491922440689423374213963484825171232878288227952806944697743326908189563977434914337945025994690463471754746524189224478120563865986157
71 7 -0.0017948712391853428375461423676262239008182918185222867193361463645667541381121883593460146982205504720761708126098578025804499041788940752940176147101762155782687619208127244034472497314848141563324701945607823072680908949888285839079732252511610610691129251688683539286810913880698809766133
71 8 -0.00077887615133723087276995769259028719424950566748427481332852759124160248008580886492110899006544626122804925633888637963057075151458591768238191857584653524692863314048890790423277223387671482438878533030881955299539182642114422987334747292526082645043766004969407181664661990411515416401166
71 9 0.0058512848429168514672957788884928359310257599347852421747880527844476094055204456886470409593967416812718415899793931493491375970101502713421045161739297223153226800107324614016509973211122735851867247876995271883885808655051265502307416768226811731618142648215196094299105093330517255582289
71 10 0.0046067249164108988922328984620402343319518860687001308263678917229616895064360987061251551248573921079033830230959516938037329481124820860289568620239346508524404614557350032162644920515384341140389164547545853036297925475701510403675806043185561006658581306721475772932814569141148397357828
72 1 0.0022565694692697405288652110385306172142672488748250827129250438512490000449782663793811460255999691277049391836885698848900814106008946405228190973260516024140425358108075565899498595832006760027276641547474382523265303156923367693259299552146473772643523739943035577616323965481286428943165
72 2 0.0023424114939703255996881404743992027978306183962672472966807603069719677214665105744523082466392480693163329832075782660098444558586144085834027914747590188931359683514582898433700450051164328167326595690532289842026859710227847783473987055804637017424819467293919961846997714597006980021537
72 3 0.0080594148496591305111112762174844376264662736564329843143346388123154964601629180899330132177232526912541164473257530958525942052228958755992685949226944986960467570672660363436717139522337356068168719394241740419405489268370838354196189168143117267613400915296047238633696157705449918107717
72 4 0.0010300620482043485557404680481676799807571820686829280507301349147459544731013971276360792010634260945319597388989995999161948873850627343957817172442710195293005989383077734531151014972470841746885198793090137763935324901126076083054615624292305969244464577027752242830598487235966354132788
72 5 0.002379700679481398585711189307467628649092252873773478249046922917423309344927514703832437555480604124477353168927738903806036402747963139587692916966729499998500664238914396484945943211593972295150448767780202665226150166271814032237994020227941597797772822979098113130476756011617928719233
72 6 -0.0047437356159645218891428612576668212520411318601834309304021772045048911784230269424659042203193313162012176680972956049122106756521640175092447747833266647981504666643035743434940050423762034229087703059184401532085485363757429845196256857861780853112767516923467338514856338759121266370386
72 7 0.0071683573657776137062891795710850328641580864380867795634139852988548355722129737911660076904693953027575374607583604354321177101441493217946167246219728511618195764491768253583420060862358464452179008797333854799495452667170618463216659624330617779247148085160925788253723168934978775619758
72 8 0.003221443757555991899609113994278461216871092177046754975440607616821267732825481436509311794636884777550056470193302371881460551549481237233897740606236935862254120456803724243946090623988248051008440416610903400258523305704744647251188070500562614008160228919946111521875604862019520181852
72 9 -0.022065719395355180315182035939769222221759993650729711837617171809082377348381823731698846976104871387652379909579027808088812302119448388225453101953615495906688083948726091311334473088308237598993980887008437531480426399108152643416173732055332139083386473164316795740656945649225820966741
72 10 -0.018146843649371353855956911081671904217363007593235088557934000297324643760097900111182722549859627614584223139689277167107255318335089108431625055111508744086580554138705705438908398540580986662541588561695335594380387740525495407773452808609776159806370778956817585547654658694497882105514
73 1 -0.00755028762063574666603116591549736879084783143610440374841576486249858234796313688270319058750779237679512997697975088366487812832589836551816256319795907922255112503160221819392562363148586890396278224835620024021053475557197141710133145816122599793736742219173770150953316567807983342348
73 2 -0.0089389193458845740015618581803659871625249563489842349450039000103814493031413644373664798256085897393724831768639801955092190746803430623394461437193852642302113636499697153574210565232580181793121699757446332275475819791074715413737070629271291518104541376735590301772480256932119213537125
73 3 -0.027932898120596283880422825894090066364071202509338721302392332812026777279823925696568557888419932445281119701299228976889437107899226462543666170376097048773196214121047948118779593031371864252525749826110818660940755628672412955331760219198179584060877147270846295351978268784389745575168
73 4 -0.0029820782445148241426739830014847957315333629735235785383838331704239719276962513706875108365543154529538067562782251320928578407158091246756333052100691285323857352923723137718381814471969780043216042892837140674477191250747520162253263300072787682920416298603393047442886925518134236944748
73 5 -0.0085198735471618709118162274083808008199046504742166943630402747047389820362970201689706848550429731201374972226913146956138835677718196250168299898578697212832606081032218242111133495398613477399248972222280276557582191557289638480046433826152186317022218578451593511495793498333552438075577
73 6 0.015804155823365345617121669156427586230970626850323627140510097812428036713753356984944738450092171484374898122158807364591597342715916651896834770619410354544134821915020364846846418432858979920588343841913212550462828678185013283930232612727590039708328754707578696390950744983249831643354
73 7 -0.024160030973727105490534403565510650817004909506900630595495395066892350687291496263411817523278918719353155337908741618627591932733412480245532892815858939125503792845168250142712992661600923402745062079175229537964575060344777334746694786637417938549836637300869849087798752894308988503
73 8 -0.010816785541147130666429862027829770286517019072647839272847007351330534668612521582188758361357036872944875212327428637338255327986902194106081649960858954040712831465122053108175993458926466751289832985066513822770796984226293228543388761850963550241027862010127626358401761069557770118168
73 9 0.075399233954097951015803890417785763381193581976276031665705826569505013181003464047413464526488260786838631234391481479668847701575053120304001464423921549162642110842157214349840183921415110019300765515241536029043914860623848952921031066076649666109059467652889192964230258371686176987502
73 10 0.061448456067632085713070319022549652339162354885036964573912936432932851612624679833431361573874687782213776853739392181887559841240780577395417513847229330948239783602934392517158751903772892408919585882886332673840752441490837986595871302738252694396175147494872059014720523111977772189841
74 1 0.0093490293623548358569291294230243543027694286588032768968509787993352057413129388288992655099011755553020710784883680679333098102664540603102852080993814208186588241165221116857504591166949654244280724109407133215798289275163261912062992087211561012515559926692634960473935978225062728304868
74 2 0.012759527616856400632112123150165821305802346679367911418879862120302503706023296372498106849206522452675254365588927231986794457393064630572063158784243586766928655904495579305687819825794869409017840978976691864173114213851593987677733678547203152241304494035959042547406835816486789877395
74 3 0.031193026186942925956358901321144622913491740768744432689767387153066970180494288147982986431232802481349803660091263304515493630651115253081942160952690188234450802895803030817728038404539127836347335904543576820983203805957292297113955874203955124504129855777664180596388825640574130987944
74 4 -0.0010160327855741732779970731343303362561513233907190097475753421677036219396569313325315480036395144106440236233605464193296827681188788187116726523340310620252240235716219011059624649432496299814219758653223861438676888773725088978759965325090481243459073690194518087181660925438774602720921
74 5 0.011219171114665170403819173844698659425756046450935497901919071783416948241194299903022830040033089466007602840702561847760097351037349060616557644241288310909006187763916961387772964876445095759788207444787560736059295861361848005155917368349466894712560722985873473275330297367868705782499
74 6 -0.014624317619498264889589822749053590279223294272922210394667882251791752026519938494091652536500694385015864706127632669463721082948765458926712713330302577746974284413641125025591544758692978844218328018400946858447712266622977520773759583575069179306073612443866016765173492483809210331196
74 7 0.02359033525345658664988845842461560400055566698810954002754405355329465044740798578424032496898824670735147523229433430944078558811438315810651676462417324525978710991956302594892842093314255811613604805077424625130855880988697902261827616318223835343318995765014851093132159152722317761054
74 8 0.0092447548917001706245052286891677764766259044670778598937351636097919725316598894669555999708919717701164509583657943215962073275650420114117276187032174519668695959359439890040692464659684219671312230917839276631933533449998405457685576104347585456047615556725332472361132253938682097092684
74 9 -0.07636447834807743658816358535518586986966130752468251416336166795974203659473091574319825409560860761231332610594620617108219142437483854343517416010311706972510608655065517319838480626338279991265489207508513428698472454871987251224944943636310306412745476916618884573727895125476669049032
74 10 -0.058449667594147765301430130958247793056817029326561728231538217071078541477056869709740545656157111448799639141039753919133058441034826071745150442185847083790335700659614117389873794152168262575150713608537875578344935657355966407484533580835185794982009237945661615430908681390187061662909
75 1 0.0042890837235181086707930446838845888596157010335141569210069861483254258192730161350159447338711065163572325471517926480370311619884269893539826718306664727145135588762205644877131485098105660596024982944339720819974839615626073318710016250433654868318831048238708413616059282792275971382673
75 2 0.0055900057179688204297972734083718187277587293993394104557349236265876223417542845241391473130065705373060136478656799401078872241236983162763808147986708974683041045318099279667378353845086704742190784244043644348816132471418252267235781277479633142751622643984826436729182674545076666227982
75 3 0.013994342265786312739483315088201001595885686263329724975862462653582667261611559247439654551319051987061129823738344203936615119126097900314864807379564445031956802520486989085482470792513888174076924733022955417374080779051728502396545578842401982632349756714486609789728887843788552148475
75 4 -0.00042058646258782482876116688050753650830474556268167770591650477407827806563118566665950712365897565245321419629730802055157959387416737654297035389710028393704226275830589091342094398854936014194562974278994180923733795511368557722369881707437767945451910430967878188232033904025393893923855
75 5 0.0050081808923164536744784852800358555147871245268400525228968597000325262063940375296975239237128259104617777572749087386519479932298902008833329091335677007760741284038515359582817581211988766943058188998706105816453249771697581689212460515219532212880143367387742729163729573829953060333349
75 6 -0.0066534815304606220435894596602639665517203096613766263690711697224702643794461350504534419280597945823420336964112991413759170542170737044687933801961863825783208558520112390919475529156095371998046597108263923056805714869038916014316528040647952613558844696848649540247718566384623367946941
75 7 0.010675879767408675914367933457609840395197255229521761874791264409746409073331730136616147955173769012268760291457561503855003366309614583879252738613869367663826504859786095157903693247919742482244034631909841523923158741179756755109356277649489613498489948772578730017426979866305589935052
75 8 0.00416425136867293062213824385119482729631023086206617323698884726231213519213845237514717249204082985018570576656348045884055824245601443238780831025772851344650905824741041195930581715556069799516588628522390969508150573125923452855280043002188069910678692088027899975542750866861520049609
75 9 -0.034333421426713226490863281129562833972344464422949054293231797751006213683553912046870745686885975287653717161248146044892432790697018080822271413315147893415607327872825061902277950014671854973723790031783958137931497981492122199620396146776125359147729499503329740822278572363526176916046
75 10 -0.026333979983257174743708673605688101021786234171887623695105066266350100465081868107199657266009556229620268841597665788260712685174232371658730008030691920139402511471081536921611611712181735222088296350826568499674050443100780000550557624045062463414107678689129198943443839478858492577755
76 1 -0.00020824301922043982082400320510384179559419498733070490519734790501831322587998049989560145669397346326768939228999473796324373645044382197314960343634555302614377141514543845920064526713074653454248996257744025472094576270181607890907139425397688861869989310819223892818700120865027674421076
76 2 0.00088696950372574301387053318877932982931520309564188842956623706259273552125605787310733392554238760661710801975573659106518037856836868328900197948307491641959330230615801070627159856517895993948651016919984933603933212756038590157672807278251382955602297122049408008747434603394013355967092
76 3 -0.0021545944704296173207928457275469875455156938027441216018063200572491735572102798763332532036104560741879984147854648599421360846834009581940270239937804004127394353633658847838651750405952780081081756386960594174968227497688343728964567914719545185805649466622847493687759047593321739412863
76 4 -0.0025094760005751816467302273750275057102709309949699305351046681584791268588292530066742547023906384514825549551968566487636061878329142077368202669824873712600672976811144225195054182237938578442049356711665744241800645829978397656887164435706327745772564008695267057486943509943477953714302
76 5 0.0002484682607488037866915253384032621370651859623743407534211947055567148006648691619964361760596979049561491349144256941205471710243927547552896574299763987265040525241123572755484655321031920313504471578161531547310872618935892665991023584853989469773778705926793947841668163404884996461567
76 6 0.0028690398766829509981478558933992611125493235605328474917291326210088921946796501438841473526015267775372211857136802936544431535652493085596727059787516954963207663918566018561695454376668425553328410395586990398267865490439271298262627602730969088953780941505124366164921996918070645136103
76 7 -0.0037038930728570985169854242209203077664499705779918700912528720434363696292508581583509925937614576666298245332738742809642522120257741995348181087531650820895162993119900951351332512197138555943718317171258267649180972190436192596525022063508404416426838138624811271079089840810558648164217
76 8 -0.0023120232618851137219216213124341600930729397335427328895573038303963626148301123935711972171513220575384268766002986619296849510232100366790399193126737027236946277478289679032770600480710574937014711083670055886281628501079034991808758926344904515427444834801644662944245774327525989499599
76 9 0.0099311619354106686936699172737164240401467958975968168513422029423957201843092074003874149169968744976783085710873187273387969748285196397175970451315563142753756280219837858254540353565794589562344824260339048166298097332666433162465979493822642424823361043579840846665982334619166561710173
76 10 0.01009546862501541723832232029926959764126861261597493684912422214596616310202164033187845185967077051090224111236878618474507682128657460808871487648006271923924081780137009934474115434677147690166255608268871611025902853583099001131195115397928567135583483480821015158953712441468671150689
77 1 0.0027379914269672553159722240007145390045812048228102695911602432536323993099685967421026729220016074277077680541001896993304197967684359012032549351630635439225796557311610306667142799705373088799173633105847771063778350976960053351685874359106931418260960819901208164372182063939464591381371
77 2 0.0038129785824871394339426905716868039856826288629295080218283203137228321323560602305488902149359024811599179374088747849247670530344738457688768433993993652809905793903607411725518770617769518718259568970759344347812025690681392304733012488548510981687166334338632039989242484098628594256536
77 3 0.0094899196568006862589869724395414877195482232451328204660794428109615395755686101326925807887201508130643640640185085573821652823468390636054931235555829677108581755714294565794995097121074116340674640825175786174777169176393864582944351038954107332485759915188018857265023313272797138916221
77 4 -9.5597554672052429169920686033179186108820656444709288997829896857076800736956297900927738626745336266887821756520517693356423386363169241862535816528791437076562315313333735011180275346494277922403052973264371941521022534317837460373087261445669712194921629528068407305627965743240497634347e-05
77 5 0.0033359402746461519278778533101754539968831359796419946573197778615910484007592843569336473094459234952406512929037022078781009478728596061176977175187610305201171134512609088273550477428007960401894063108679177548970888747714829402589990820289357226259969340023750682543608011900772909795761
77 6 -0.0045586483962364371371270273805524830109786193428195503194257129749232907648389535646970394780673443268288157254167352929486884809698079087093618089069219170219723149669139413188561565318959975512001662506320138443719334246949341992870140619676497649516880196266782183783748519915306220212763
77 7 0.007305462463868088149434661437169084079403733839437604502898394991034534893986296045246095112210678427366115187759947692299712920875741830484974527128835620878402992958660259983473477710580170858605544346007140275178028069697683221681862479580915621654892532284387808038037050394610377123171
77 8 0.0029559344492056496794284695216461244180151638577018150950452556713581086363485278193149395303462093997664523155048506737621320970288104016958079287931104725926861968016553277817469663179457808508654985870952351675496471996161776899465622949329083952445067629583346750649994918328632488613187
77 9 -0.023612433749692265956580845532684140800760945076116469159480087840515567002266007648725673510177303440239131050001607289786155894326165610072339523117356496658133995831899894147705938868543504448277397228676304994880187349445928753635303559055616906085064405304787872933142314382118162304721
77 10 -0.018266444844152988491427863468908148485590653627922691614363415525124089294488152567393220620549188335688663416502558922481290651734576630857437131996101288441453374972794231145602631545270682112640917977546883085738472480853907528097432874255012301210535220589994088108490007935382106705607
78 1 -0.020423451273959123747270948026323066052140102477187801759282378972941869953182870472101926987596816354738169068356962576575453698491809213268083660149565011020390798886324782278178068863459259045837628227731982115463477413862615971210421829020966507007556928681341945946386599135314291681793
78 2 -0.02631811671412847417411418536932549420977662240990634614517995741760983681755202637047317828002380187391700957273014846377687986094245937124978504501123841645673145896123753864234264581112762860413895952020142634207852438448549419746726981723644235916696263919236870716949263024047023253106
78 3 -0.069916526262857120802978138689216887498473329021586804680843133299361165374626710801651218296583494943888969066788129982846081494593242130017501950138192883944453953808046242994628863674198694279206395395392450301820949089236111896506917836121632323723157320989986132206262693513105145367837
78 4 -0.0010134671008093043292107782884092210816140184070905080183672606441305018367086321490852906463404358605661580655611537833709594571222182539379995736516829325910502421362174075711579483867411329949076451558432087485057730391020392206977086485402203065043443619160081000051921999351975183977543
78 5 -0.023837746681037116926129300047047086727279080440758124155049153394297907307972290627920957696643388509876516859943563295195708539261789626114941244250500798464546116000095192275694065444016202817024281321388330499910028562122097229347647696971256106963817550688602870277904203396876941202808
78 6 0.035178417543923623260766947183318783974483831346403887883422174185754462681372155308158066210951269599810923128531026937359207902599067040355702719709130758351618235510922722571182449113738801441798014138857535851016679474409300480198511890515655935937209214922651868166673553311235824736356
78 7 -0.055546321155930670777028092880549404370458117511733126405813713341702285592072215304434130032670795430689231687416725828306908757514416684301066319126609649501109151958172343676007445192749114623953455363603737594598578430958432028247765684583727460189236403894544226700777808349084318659017
78 8 -0.022857773659278646310594094938966349565636495358439018584127177287528380582920936891521903316596442560369835108456224989349380284136719030615655328004462423839514172200344135276266677189623563675067585924552268999017493625006220659804685443368778276321698498515735635203946452847559419029131
78 9 0.17711308911811575092825981030365478893633810394971606628249164547444487278257689065098742068093857628185044131581919909017595909623415334818264621888571809696129603610201485914001308549201384175034518340727145482386457511631497763389223714345000185229924358318659558347119660436285989749867
78 10 0.13875779250198107386690977495079171706019889555023607161299134831592043748110906112169039390592346464967818449766156871747579601980667826859743446723328815101796754379824538280018883391031652669009678051625203081785243592175768839264430922675811411561184800247937236794856735949809059025923
79 1 -0.0081118686762156803698893157563122639838757774363255425562584469542718309335228859144431880448656302652014630281075694013373062686306971636386511715470540269497418811067096875869232941399456136754853466011987694278403500826203809380435633285237904233232992237528947230587603874980761051886383
79 2 -0.009119065789789736874290437900753705551566989030036896789851408173602682479565154180792650045539359707859083036388874340679667956639522092250879552653345488494058335617926585459001882562905611675152366419493262371484499485239962514402878207390989901930425891979708017695434443697602627758908
79 3 -0.029457089693939223747362583107398065655872411966501196567735020947337386164673896309167136621539646203201872428029220998497823294441510464038430422662342951321192433346943166001627827528384655129855097676559509881125231697038418402905430818616549180435588833224476848550377199133730800451275
79 4 -0.0033024546010351814225438858533305746733686514377235844597454228739573198473870509966150110897287185412083572000526392024626949746866376421725547748228256822064099745170166161840257712938607044271840417635140444968697492186928798774994177842825506074535325463710895968105666676010268403066786
79 5 -0.0089035279294239553534372952128714285177912403163476854555340437857509527918052572287078166156716418875086788086484033552962044605707911659801438278302784640669989083214130620559773344870557454398945711393524668024219745086979298574696075293975718783768103510646172690537714325413008680082634
79 6 0.016879019381754991867184773389615633862142832137814258053627841488467773187186218572270307423537849277594319723955715196811170374782889998458844277905882133223324042927330005906817568643308603786964648351404735120147032617983151196404760656782842302636094095894004221738646120065270932180967
79 7 -0.025703601366156726517406154608909924421280213680021382871684754905258932548830153260007624451099855696520966446839736092932545057549670538062977773025889395733007600222481177533417998083447138099522979567918283590155525907498749746253136481271781267247645758174541477542045037626340628425572
79 8 -0.011492493105073985240665390717367567944315455710138620988478953301780287787352496885894129687690313203268765721478103700148132670638792182821089761826564121351281630007186640676377678348536505857135840796118294047890112315390245579560535896741809932064184887617878263850444919221372717799776
79 9 0.079804494041643485936058334752097333682252863830059728314276395770605353293774495259425080865320132924411947056805034431108350653241400503387684285487458712621679497119567964156782458519734236521295148511752077580834901052861408255333297519666292129498213049255110813233531498961825637107582
79 10 0.065199629964087469428249374965007353836074953042940636802480569868396779517798645959477047155291380267764597051936176864952691562338300671020502628745223650670432141849795425915020403474602822263065452175688851809027882136839168719700159061305523359691758876610270455181037183700855793652258
80 1 -0.0040246923330863781841076260677445409373303755181986631193698433823569750339163403962406266922905818190258539481609155899480708650926791731337778424606854243414617974026739768379505227234418780277791799617478122271671005128846621970499023889691648401790555740897331608277927199853226264917204
80 2 -0.0058493846263079886978795535307006721754279145049598976553898168504093539356344941731467916169941710683432619144289443055260024859507677591910395692183455649586395163309383166309395461770351437006856199177772015645916937473837843535547354144294056753508135029866284621355927051283861604969425
80 3 -0.013023219184999156728203013469137767211612515629523096798893086196222935942281901350918289827070306779240397376897945976468776270253998649764075172762998665105482717827445324485845043760104017667378791524320783519487519682404583281975736341214885515187893802300670287205641646182384889790946
80 4 0.0011757991827488941669384982647599894955194336714093087658382720694115965444250848414756553131634470280765203420783156089553769128803081110212721453255121964552546798804752108634055328520089088943798047348340755010726911954330682146289438500694048206487252010597658818850156035925557874864912
80 5 -0.0049825298199505937763406163046624345358873078580937176871603670963519326206929992638723107296444006652289468582751792209236999256702037440339219302959257466499313304727488458908142750951982192011424850699563698873268670343645078830318587884981123042542398259701274428399546528544324885850718
80 6 0.0055610587113087689134374545111650296498339909241233389641814356813743479089570589498605736375173091810922807075913184905391699828635454143507070075060844215727011521287431936938568746496679676631528630262925059365935082179919188733339075776199543805496420217319157501337401575009249787748663
80 7 -0.0092411607053216846056072805758229140678091399090456937342026860512680272400144705927249047857646440554492861675187982816333366567334426675113352347384047377926241082174140542294815869882809142800925928149090534305250900991117921301121707915432957207477059809301110825960635640709751291691143
80 8 -0.0033726608389451905316465445951529278831644024596380601011782666487389158977274157557545020042578022575486807233591743322791365843298609663086574396301497913368975836329282674660496646567821722184040600649986208443476582858791048512677320109731285521504385605601508402306711325295546498715605
80 9 0.030525948152564564880450733558350258560108697610189532526714106148226741153550403416983215333250209727808064534180627692622161418931116692147201481932728574652316777418024482914298873965206942228513770137945335147401262384612040168743897355860211396017478616175181239923710358438206097421867
80 10 0.022637295087149229994994492540599133210140332506015849136530464299488183730876265992642782375818623068463568007266095497420593134641069346320763223302275448372903301339887698598092773582740455643774889739168961151852470597380453955985008464773421535550750704141204542342217480753110822036698
81 1 -0.00096815936819371024435752840687997144287976540871735954587739161870940602657969156966056128857321253709342073867076376869169014208028923392344755670549902869529448266667767833273697051404075076081849432031411733248533525700006794886626058107880229491730793706443122506966930619695301399724272
81 2 -0.0013788888678608095428803190064517879973709948344530057856892040562322070417489744770337854158479051988370888105361624703266109554498784313750397940324889266819602204696156624497913766060789930708947850948208809224080286265794369199342645902433828604201772023845508776143974483353233020590593
81 3 -0.0029202596598115540394591777306961773452940832995309005689766688049040458498067068497362775058516178744557318304305457742154748428821571541996880525578025119211890443592759935634895778832739839474397986126358596797091475183551502462228026956800257413208572093439859475755217528961659266138284
81 4 0.00042206588975368412825333711650086829449163928082736939192106767727309382179638220789296340468049350311383894408228232134768648191929054446054691572820929535766594892958748561234076367848405858470208263473844860908836300413094544559056900954317470581843572226075652358104193292785034554869739
81 5 -0.0011759521273336254769318042530991992481550662545929679123709052987529649732276705698697597510850346908079353310125629087123726805189210240703687819451696914403232870400554497800984444302759033210008784516575707203709595267603193847948078894193491136623291301076050357397664660107646550101359
81 6 0.0011620372197987406828012096476664255198000029957244922887898158505160342574348313967391303802285008472963012176825300946050074258360020495918910721318993710129595418307867623792136234610597253602642644512073446154170373430638009408473896122614094166606899909048355311351325483699463116682691
81 7 -0.0019723083399982084753954654262811993061338494300958905399411170370963163647150330168345384249004035435862601997021164721233936880283518851247118825070199351415608718548271301974000592764531887877888699269571221735132001407817587211759333875689062505930970871024334926621098910169965257240621
81 8 -0.00065239458129440515393503664417401316178285502508957250251427028846157546032679330235907244270843146579182767684800510881247748518140632284294542964958914442626852211762781711915108084604312331647898408249788464648685166846339506423881519344852340991544522271700136296113304739097871541614199
81 9 0.0065646526520802472243976112042425463663825980164412319572649746951469191010777803377194059580535657218850226819262288199889412924654081262169734772508491506912305487188112599792083314651746230422535485011066502990676868423742897782680623954885087406397893436882586074047320329224043478426821
81 10 0.0047190723581767841496631340927797592317981455886308315543137248748153863915697204942172211641312753141017959746369254628994315144389361977097774006554402647575288784853080523991381833350407144122435179049140731742692823105455972227369160986808094677885135312010354018410078125721133442134731
82 1 0.00097862367322963282820708958959178054079894161549833245913963118057339721392599937748796231852606774022154607308768946795585362357777484420918882502434496267871321349134213365450738375215269302391748621256861949411774860080651278357530299527164074755103218455785961926009013966264570506704629
82 2 0.0017211704427763702586061561311705219557318812375761561260033674420581932907149267726787209988283851964507573337011763338387672875001831366676178217447862779394092823332943473940385082714715851966935801259009816342725472482322671879103632967206352935344194053559115395985488952552147819600954
82 3 0.0036467408533438857363237080137543208696428868990215102728515727784611880461775182824975769269845846826773855797349193036271581663552349907125852063860646348285133915316729017899724573100680925463925955811929787508968208830922115525649422706791021289764123805440997455728093412210024098670577
82 4 -0.00023881998163328693590839163702838024461509645555677232313957524433129949246128891116222175719337991486081396040378154538815088356101399048218283006258036337752378245139728741156593064198924728035036815990757718536214787158807161695071760912846631040508074062476461356192456261277525996556985
82 5 0.0013741295285897745705399988609099050932225587840265486370394495921935698094419625644569316433384127531783880734542170385653999609936355064289628167777960466936340025376195231723550045877995701547116641965341326736629397738768483330035772977318943528619866811492524531454686706461293738427557
82 6 -0.001532833795712532955682296765714888623350006285143368441470213479505801249843427047674325038226836668519626484827932579406136952716914951482572060396177550998610008816497207658468986330315638402178012322963311469169793444598586898980696849142540975538435921464478843256751354962906612440987
82 7 0.0025751504973164393753029486688753904127084834460291664529357175058880216384200184961756387364978261642720836086507558677679050130584297428437504206996206090915757743530982294378471546896732536062399125189441570223880971975735420402963705791181504398370054499568657220146659808045861028629199
82 8 0.0010108822798399585090363380225896678995091024291028258541648823360231911352231453693618423769886502657511611393898621630618896203143371847951433778865791333607039102017484560030513834415970133671664665317405162820931627991332203032872597090908609844521782373193418776129785384100701595702942
82 9 -0.0086974441465997148373810586937622562321542783244038297288282644752771602768603583900155745349068556881433953876619019136054180176137419624829697190103525113507023837262608157577980793468829183937550548216922192435616873019060316975841669206088191543027670451283934193543777215863270224742
82 10 -0.0065124102308425851655926128276166900831550654948238432496630497351088224331683511593209989870047927825878228742604860497210311009588120336119982663449502932747035289801347601871219786623847252984659072373945281661601776676023819051605277142600585811674668562357613836160643414744440175627266
83 1 0.0071200127555171849806948279101231978851429982778470840211286199204436482944813437749523415697563503915883893586479702874920597073386452957910361210637314857991780318262149375715340117221425428990959503898926374759785909627193557547172746577076413210131773553015225671120454426411297871080589
83 2 0.011228114850112048316746921116253671316425566417036435477540958071457140086090534502978934357159583450729119690729790133769268235800922151831955965394712282766634658905794867288762873073550340266087828891968070913014250306804294735703147433841367928130815148970311415284275084444284761240606
83 3 0.0226977393919446364102984719032384842424273743091739583590603052181046441429918408694445733488188774350889537761149526972524806967310090739947754372458522253189594943256218686628673587278965457701509995059864938070208079957976795813746059755439576089544376829842300451537940714968044751833
83 4 -0.0033634513944790626650427045273362253479783560428149859988556492738098239081363668518272515568904159946974871887114725552366443122631331672591963620556338296548857902881258632896965274982262149689419283019414154702494042838094664569238456074957069726813637625360860300851061449866577156183147
83 5 0.0092184803589479995469412902958908952264944332031068494010750905865625832396908246564900978610740898020918597450161477420750794939049632327169617345022405691727985184487560849890349914399551438040699581693015538621503179638833790035822842490713245938637379242424293982289150799420153187566675
83 6 -0.0086790811429717152553016582800282633389746748557793638834041006287232937585461077102992275551191424132266997895821147573373517138216813747660164226923951291282131791630429244097677753674598606080798423025428687920784915159241134631946317903642786574317359371281620395823536221763551077189331
83 7 0.014984430175474203415593534179496517890770872432284627337074532657305075623998912858150845030578363838438541461356589524058373763514574044475661926727868866738845708667659544053176789144938065689909125378271743727201145522337604902444295142597362995716839610209886387184173619816632887003302
83 8 0.005037061447729123975859931567278995823900435944523470084639584088574088094445366655134314093547923895024460976074770180202472227991515618712887757713761170541104043135712408281343776090828592279254327325930701175838590408263222516337610448480833309290734620524404344635314419424231680659225
83 9 -0.050825571866614853794730642211866973199089996500787375497698971402994197427539708180295648091992453286934210896738842577241320589600422360624428914210659335413852686504226122738060121808286078115814055038989647768759349791496913500471869317834279019638763322887031810810070599329820613925537
83 10 -0.036348622097654893038542579992645967430159931938134371903477014983363655405341071591361622363034313761284891037132071382555636948423206849612173911486459397410693875326509492354854139488342641047897355178941585722867973050912753755556778882458973511400653528722493515951447946181793120256074
84 1 -0.0009079513497383078603899356595771149200397886144880180259221450795002314373499506328531796205037354654299267897401849141446855353849362498711755534437141610675043165603468360100670233477828345528731925055849744547130089252560134487351183069742906121914665446899017929820427467793006659973735
84 2 -0.0033393873292440481224952411967422153189842011557812127492249319676027982181385067640598666113774969544822315734135915935452125113973899186291815094317217831540622851497962851560641506199243125050386965176393734130253816735069532477197142457495811034935219562866714214039322878013548849126182
84 3 0.00053405302449943252645736144126768925097119039796933449787817326731907900546793760135511789277880765595646559470067743227670941722104543240135040759931599051820467247895801450425862349466023897260191385815651384322304941737153482963157037790799452707169419846626900179749607180923799317453835
84 4 0.0054052723017780036439381657329345465317786633740266325283400540649386814275906001131944915598825064793469538980400679399725493392666191980155045065056280304063874900422794467758912988150013350126445516556979261886754234446230748010058189512112292408424511426763175213338551653040421203265374
84 5 -0.001942790691352929453925574044632728634431016757820955909278406770754717128289293260151127465536783952500418729878225833195532520958044893653977266521129907643940703012203152563636954232144778934626241430764144092272514188402368645882541451076741535075884048478050215603365442161098809293886
84 6 -0.0040508253603312382065815197000139919241728060144590610534747182626970601957946205334854068738265273765032749565533118270654179571510142547946377849502444201339209034863918743966122697042118527473296577546573898899124086095382855455498906479268678100002973798126185535732427004420270482014711
84 7 0.0046636354049883441760128029682792360746128801318809622665645377793840560387675488880018427995918650757264340064080916743707904404069990297511667208696527156024669690402905008926935625852139513345408295214355012992939416319293577790413716113408291212057305357728172487970960079195668140595895
84 8 0.0036821446564757270014103886576557140413219564233824155963611760986394999588287934660037140925548208148452993271731836420841409146042806304736442568331285359275934862172122738560214320297625674918239396887336284715938041953620686361691464343284895032921283400339779905840819492977938636974189
84 9 -0.011076327101721102252335937766634880323231445441000785825976728932381707652197654726927885325271804072491605608836030392132582480541668268344934516496843850716020646499772352389822184321443357964393106597609323796038821479433597224792826502567578683147691193688941124394722291144483762856001
84 10 -0.013683454251436397414542342375578863085723494757006596849680595439585569676081035681227815754974972767851862607704503007653592519178499549476032164768231147629202288646537971420783847393720856922163295725097826557103103490788036311314278097463654199215991908443202174805637687710226748569755
85 1 0.002611105396880227191810854273181738447202043029135728286520753108548085377560954511672833133907825238384032938241655004922869263463119345860946663085314626629194145658506448562611997751323745778472572231902007674464831704180261546984046151161968181884794087571565392502128757806371691913657
85 2 0.0032718615838580050263024743674898745769786148849487536302893905312801486050613000116433943123904798800151618489221076343950291607423307752773897734849624771040997343658847860995156076519587158630873827653449594835688664352402526091645716158138784683181566300794944375622657220506687234016895
85 3 0.0082173695362999376343693987659691407475182066284002310503769683780567786780020694996303973687086514479107022481361195997610117768571141533737118279917840614148181290988752777367077116995885978093705547804490631724845886200406527872036096368412423431253899628380538786549525632520161276561106
85 4 -0.00034979905494110092269899307280439202564659235267410057389807535192082717549883271948200812217764759156329448851711770688106124651222552824507193090082346639822333437695696296870109527119157803140722495480578934411233045906005795170346348032600597514831311768432605855147510229737357985561176
85 5 0.0029732253860914253969235998952927355975129989518617025868753917059114141082130395951480586539061995468632840482255009916772590158404998435220495434374192220151908433332209903778000367340056068675272437984462255622662322148637058500795517481079694381882817265728846531030104081039338662130601
85 6 -0.0038862838785247036488341152890464984277273109985423172516122130184329218283036766775497616922253407911499802645430968494527954302506609700642480795565385940752654176850445125787926899509898842890462693110658899063003761351553781325527702499227782517712434816380304370460036039521807251709379
85 7 0.0062366145729265970782562306913168894476121939080413043155311772227398320604820420215550857894040249958119770517583026275940691128708616847054729453380486657124617175548869233301409841305672965162735994300278092621284919692652049163977097775552445659775013069200620302323497965857054199084314
85 8 0.0023751344342189552654624009047257322502163137963913523096544367088588809814079492536066023002404369915253865186445187520770837151666752813301848123005728679303216700265170543900671105910568457253616290971734482291001278778569619635904089647804878725901264573037078446204540993044232786246875
85 9 -0.01998399037744674090616808663871408592518136554446083694229793586636414907205847378309845286404048869615756609922879017802477343559840813118243942135654069688958981143312987657122240490097656714659723152249998634468519865931376306872246024237654478897735920739971337182429785606883457386511
85 10 -0.015247023335249823801919159791752043434397425664645598039760309862047293084372507039677949351641939157358433092523749293506540220576735471150801850097350036291080158984408443333333510212743599780070141191492709619483847463230115580541563953872802986128277310871633612538248504996692729111297
86 1 0.011082233254960640611861188173287895053936143162027338042662497173017077405135621369374667292650558636373064584259673219238668886781531927954969683253336983713849037167949991433758896045023935669723599001040946583970472727759059231252726539937440123690568070398432379599773575069254336493341
86 2 0.016428927396414888869800555137275502529646137210552295260101847423635939632023243592212955950453179888696776648053415458272660320767310822313201018013870006013158376884886642013636542422749503390251173099705949430311332425012878267377181817109055413189484915827962889263300735629455436972482
86 3 0.035059874739687574178480753655227042343761463225477738937634077097886511735045445908000176212864835595674479838384878275121444534801908090174675207796137819698324515075453696907398324394241230525137881009928920088815263891412022821656745663123838013081737746043879363001209840787749791763367
86 4 -0.0042541071230327501495441475815655669248275202544764937241494125390076045033991279790967173918696033744550736510624644903000407619785283308963632967204326433150349615953814429478049221030670467019000681953109772158150460455378202193491932587345468954781398956281569766043610607743431909391073
86 5 0.013838611036437623407736129436271405599704263692488946808948974969241946275040013988287660824569943950547704694347154193449564573339547389226024726378885046418937535095659461934853387755344221427468599504704610593587231127271306932177082333680783231115035906441424501354988505157889100432571
86 6 -0.014239953744581975394089796860523952152070331248226855738589271115011098917167614096209722902794361720900575149973498970915713296307508679259624847949275944242846912059012288989058122364751049577726310167240607775359107588446679910071513110697200540398918115236183266048297738170293533038418
86 7 0.024051993089375622123895136575932148011393866776419755571104466908391756812845254028723757820111347951644419149325377754644863962011746833538092492795065369658178147144323592315538972847656498476406334938434788053681718475215325026297709113125312280332672452621277330517675189539366349995585
86 8 0.008373662503071380838990694927072729807138086037328370488000592574239722449614625219414653278792720326827452934062405004151795538308259731170056597271101630645764885671649650277327528739497079341209105928653528640623725315385725809591277829917010026472668071118286389657995288088139561544707
86 9 -0.080226494712548243042545811570932959468149457089846404558428486735329874084824205175735859241850493793975633119701507097394352547832693067166759756251831138133261527429307420999248003079463852662404261460200897176171708173777234024945082877132932829701548474984938544838976792728904691703001
86 10 -0.058416980780796131604776756556591554476493430788354491828629918529980668286909069927182222396559774072676156301601491931485136773845248774142755531920874136733010404981986971135033363834203210229802053916335773683631016499265747454087223726300433437957347236328348154317715391126288820048229
87 1 -0.0092419045678560477351928606313345247030150629715099608030895857290709446163045784554578541074277317117565371262179743095056746895846976749240189410385381694006742616011198044396140819811974267084659316174261279754033200771012271686889819837283478650563024895154682523379025919518010449537725
87 2 -0.011582309105644857785268337875572679714745531968036331980646350975565687614779175871887510540972951771949911589776464583455495999212983772570328689262208420739820413476345777165751763486206310225437754487443558010323513174693939718196957699253380274326573304740988830929098079804927834101864
87 3 -0.032757331293900444692768376817762825936515600192312253511726776664812731375847997963865761362718470399368169099010278070766477840508148155210818811392602891461170978762248927022515764427397838107263777460166370409812381538962550091913062508486322236909159102702697399276439371319978553045499
87 4 -0.0017443984553490021745731343501903256718963174276582105049764549684642866849464049297582768074700508448233696786594488424163358011063063959284912971507371928132777137183248997815462667583622760262650682636575115006918101660590326266846084124988405061672742789374716219773383728835641447903377
87 5 -0.010677155012713269089895805188145700978893220034085746272116843880264987031253355908247223211681921212932627304101367106118830029751942259467074557032756620119625690375795273249587407642078994093511157145203912543556610198665261465370647047568380970783233114618051786245880435998088848170921
87 6 0.017322122219061067748300168125861754038469020656305553897406779209129538387012977753556533955540816642725146791834799014731956274718443720363579436159087115778812184078899528853263073302077594073462123891789434365746867862023202837188147275150776215657113938814480543824184151161535540641844
87 7 -0.026974365390079276407916661921567978569319470528440017458194338769811355653552039768183891767395310468886663295613000619145943041631088801331216348224464537445440905827721243960415582324248278986442494081395123827269670085277571999970570294896381704634298411284016766710512727859464420086555
87 8 -0.011539634817452964351755184808201891662518742855740318329113774983355911996751138887214107995662352924340650875624119512406891042859512176103442705414902712486787581029743266778757390503822649711332728621634365021960985248085147618068938382145047295250746439864115400540247113916153456921289
87 9 0.08526168864109380122591944228297410261886679602488436257680036857886603896546781574425324894553024493721886534819988124909695238799551825033367913409023251861597025470221573876113557628771803051470538794890321836357896027780516797861668346371750329279597340486719652905724400673810865593377
87 10 0.067960475903920481901843523238580436501998449546434297851157527130635842111792525533574556805374983457921008725276372813359440611410300971272147411129573853450470649035703465511073788879383403814032242120105497962777556876010557798798168130617301578107849637188699156290148095084305522185914
88 1 -0.0012938025146245304285915764695164044063591711959075075918136343453347541887309313459710916312276508239472134733369858449066423293206919724224788518932254815345638364164918907071770532242429216736591400655812109610973575882684985243264292029513769028757053420228307936006713485546278127569899
88 2 -0.00073364097754990804306407950393061294369557666307198010740089917438559270146895443275509522500651535810770499069945885726387176964093610804732165770003392788664856160732123368538225121935945992421550827849175500972500827744512394117583917682859467940796675118137095562903084790121946366231917
88 3 -0.0059010992235653792905512151835038703406710972909277505249628622693349330230242429510738130713353487754346067789712177488144434497825810138342391247130243824338133523628054014514385224703606200573119009449385418666233244879102570711111949937021237921827406694533465922378271694761647187671573
88 4 -0.0023353283550847308450083678692909480395017036141256801974916494032927170869025066027800506455337117430623605600785863969030315383184100418042648583544772915515808086209542025391186983156901962388963581291516402751801877021065383744473185627439663899284061716796198951330221850914212197489593
88 5 -0.0011245220462961075784121168110081660332534483972083779613709083677394314772895886967055663808064002311271315412746633459045451560937619392495487504062739701635708663579706996944059613257653066529486196300673559913515458479749378694381955826703456925911167094425772263215581183854481626961036
88 6 0.0045624724631277378109975085234880861667349969132005650277603035705809557941479572190105360995794650129132840914729818941166860082101191537843500123155353055940209959248562664296773491530784564273380480630076621281384650135924186035677933260237376686551372193629486621444567339559770636921609
88 7 -0.006469785940015356338765305667500147898961135330436770288005584811503127488308267607021525874296717692409071037867819061326585022502529181668514760561462869436673758964129358046872218001782141616275384293575695624491412793681603043267193517210313551591664335295675608322333413514633091886708
88 8 -0.0033930653644936988348889692265614013893889351743280431616587755725133897930874232778485080149742739977032289832084089022731086760986394453628204342767849273544013612654738933027261357464039034463249041993465175133053480974360244437564864345382021090302100599941084800815519041510033445202311
88 9 0.019007557510323454942349923841818495696453868522131431919987686469964593632715244951652706956083625230912841843854451420748717851371184201835211893933490172510665159691643471951365997706649711011614422988590682897108836998871922250051347908532632014002914266601328907764106458063178307462868
88 10 0.01698642814479899784968141975164448545002382895189842929454626338170453436387339720777673354031282506024479670228728217476022717526499848397653266386392304578262371379999050552677010616157156148249248191100826717485179972863342092925819204597642204216772967907120669653041936486959885212232
89 1 0.0031773634462601900257750903106030596965649250451533435735499260816113627395770193759312018645259133986803541702105207989207212811602157570961295425024097965919806518346376454110966188861655085211545568765099005570130017070340010517451577687998952166641452732992053021939595649708908543931208
89 2 0.0045593319565318787928939065296736478470187072407405732367370912879570458174883248108777777766581892364059269458694323665981168560147002216384663511016399758710322660215864695444165454836252211605435351092174317085538845323893015099543130258152549761868113427358438095168432277328094918798731
89 3 0.0095046295418959654985140045874087769668355488763050682028432883082105012229308367443831289955595238911146736637372870424626064179578142204940996684783843922285028741928665817153731823066068734805104166524331510053818711700100861774998916140523912115354650252746273881136871699707146555668074
89 4 -0.0014945854046124859101983152588901081498947015361094201514305961034129503876567631686091879129431906064974932550303891394847906591219927970917875703760398832070299533728054780969682274087032453129316372288948109228307902290066404644566757799363846913971080466028613436572038413323444034088387
89 5 0.0038745391316121846784923976550816953958974982050306937863818363185896084523745930883734977001060244844709978307794354590003453479492830127529275108355529421073714517777652661131770720392497856120191221445570240538297428182960633724108924165890095751654849468811482797979261375371119411058278
89 6 -0.0036841200014530291074136295028059186813331362841973590778256477469651386227178863828114600832178185482755311380739346781291578623909879164108502951025546352313442737687321029713084993847377902418951310125484817013537707456465632246033272526834081376868696917398749176576642258471253421127938
89 7 0.0063139636276845846676561292090133445095506200378738260326936379204482920479095064902897210741569123201361476637300252138570452980477663480643624676515063509861515203480517205424532270091410998125137015078286830006903872261624178122524758140857354944781721338532397974736346133410855151627355
89 8 0.0020393411426905731336492946947663922310770836008506305419801351835087010198676870883509148213921222602059297203489280246684236983007304127214821606830788390580317268133672861257190656912201905854262614445405966105578294216890008781589979552037623421121510461946363099893098028785194660408766
89 9 -0.021140261172388853661704512383706738547030543450533822034532328766906126185104011082429976659859898715765914590599169919700711424910422618816126968287268872121458200435837429042367889291622826424921900230617413247376160510434246664003098780514010044846669123485159178596180156516543123921915
89 10 -0.015059396956041759530000547628300844035027811294112047025478243460644744016278187461528409279060511909774958823669779357852093420260759303899607392213535849211014648541251744687269771048921969686380844764164365513398817590615909889157065907708193294469924195458284809155499513284187878449282
90 1 -0.0093484932625879743568962026250457496304538107377207529515795748584776371141283764554139098977273678258291495964079848563638422882215216943531697495460111200919126894770280228448785558245628250547053143919367255533011423184048818821949341788172730780876014604540520081846594531432795571224702
90 2 -0.013360298640823321362072572755611038112261943141289231482984692651093113683254564070000874488573905734826908408193073970595246959232729815392068386710916377375467058902346694185060354471913008553236721597340461820077491476485805215012826297031126489860547854340829193250646004699049280260664
90 3 -0.030092173051807853113898713992441706346122597829258930768956229659440750797029846561813907531816650340991903540950028734601622344108239931318355569501365741895925303255341287288555378323323849241190508141325439895920430890856386203612844955756660316882296099978306510152411741233930508231986
90 4 0.0025968366064510491934089770419345592570991028851678220902689462423508139820146025245829694132784587716448857719355016972590596981765285215275605602649890573479071659067670492220821960972750315677069396450911473228487002125179372073358086416717521022428664039212141136755428086178169133222422
90 5 -0.011458046474512130459929136426707208160020233157561009215625541243315803820917191705688566969253471415639110256648882418603921097890529354872138097043193863904083378778839728349945517341579354073239543231571119607887749716839160060570159813098016201427846921639044981516022401718269500117525
90 6 0.012989359678813776829679204212167913401484935734199937046897854212770974364569306033188369971826169597980449529180447290169619563042799555165884461043532518029665946965918040421235869240916457944609062843773093522621929389321241236397344848277163221379840150974569275631721166944929207406586
90 7 -0.021499745688440411925342755906592862518364254317090251255770714656609431269568223116597729811066618828396752412729816041020827060265471023877731608812706480767114477269681636229533251806927273659057484811064956331197343896391913648581069570050673870226250041170697323914013619255789339089642
90 8 -0.0078694186415571683242567335973171373353147576929497666431812853364371358308317337421699265651105463820495870262299732781965462983079694986725864596026262196181345110846778289511386311460648722013948757655341499309926536713996155930486128293468970029244154421647075718169789255718457916816683
90 9 0.070762109459107581725636668466451596876629213129515130171523281605637148040632686157003462000227217044354989399631386826247832381492072264835550939873300719008814339905133758507464007119367265814021106863488704785029492378746193204751086765175612930869408841554832939689502928675662837294984
90 10 0.052616967544647341045510212419691834157505453264642022984478940555708346280312130489632121732490336920547655974012649135268216201508157315741116450368819963854153392866719462371497076116737718449418871949600855353909352349717163440989963512911553894496397119169696353091409664126848307509345
91 1 -0.0007549283825310615435265276636449869693435436430996899149839645585829236996104545005306238451530742235880514461431950319435192724230851190676984142137236335936847249639197680088261668901934497828296376385588789966028865028811783248987394757168271336185256310594788297545215427991975259565365
91 2 -0.0013173336981442128989401974649118279549144922901100915006903886478726853633152093736401282890575942379571623890391100070878007158095518371911737028549629445897500160118999510107461987240382016744838272444711232282589024308821310115485876788281278629608497586162819634772069768779916969909441
91 3 -0.00068089726839246556677663003270867227400257427807461912817496790844343615526387563126644835053139625472135047494021249080643613209206773147211544666141566287599901822774289144990320703587348595651801169711264587255752188043857897944881420175781554484870231652361469474092674140817694178357467
91 4 0.0019102653692798531346644489190080295770350055159438752617975148701222397993687796530554411321292310750519807443339923961912327759270635138353432668460419127187822584839367025785999202761459204526455897188580174681393562545256631024374820535062607458387469598997011186906239773233860005124351
91 5 -0.00096870046933492716152967546597263748545581020994118840077864641389848624598429903678525407065626904778061029922144280970591115860676981027022792792351407473400502043658527538819958760091340479607960300155854488312467108602602616161515022549670666646038050345507077379787133792065218058100868
91 6 -0.00089646449080396084560989408756281504341021520457463607095891852326764409148615742230518397096199055989401951395697113880825017173736002095207089902086426743094296817723535301798266998466741738384719994078971363914216377848672273786016248186821265991641548495498275470003336421006074408212135
91 7 0.00086323688387318889289129869847292318940313630264523266322081559351643482337060004625816996777888426230420108641203276121979855475767032881067353921067599680522424252513422350057044378180018289587395550646902219499955742947752733564372236767651546725358210099655552368450420698206538299310323
91 8 0.0010399792986649746627223624101826778662654257798264254534546882515834381055852272542873834741548761449183136571919655426884313544286256507395635618372593914360709020326858100843384828351354033465198362890222084168363064732046588019113661992103153361054852362097520091607188888054006558231281
91 9 -0.0017236320853020323734329417462852589102616497005809721601144011892378598565218538641812808708528110825634775184046545291077159134572045239348808449757529367214029648025240322243852143940589565683962871505365519762018757657649455286832941646516122279365924309905143094534052253756347772561789
91 10 -0.0031032196438467217548333393571374479729841407346812794426346482424074554307804210843794586050726437677517582508995065369700371295533785705041969377134547141918859112304046169813287722778507076539826816809508994764963144448838211828912992916618761387407056749421135409086833825340895198441103
92 1 0.0089312653485272375665956996400881957270269135723917270964289623554980474003751770888825082720954490309759109745055522439150216872848932090014515695258445524542699279869595262987659514780915284720317988284678194698020263453619851592097070605136784289468895885624247146604874596582849550103662
92 2 0.01171051611172428645053070348000646390943804061957621901919329509217104515179379156679479789114217449824523261994334177402807560902193196437104460539595384695637518798464705672371845996376545211510253049535050641094478919286898980721174907393422340100061300174284444501483032191458852005667
92 3 0.03035358222304200262303705871274605993272546363168943448344557231899935857160841092804023511693675012198016115443122441418500222512635867234993881285129718753898265680829258316296579681200809762579165578063186649456516148623649364359682887851904344943605859712623931266565970490841025997036
92 4 2.7672735594665311466108942838012272668402217315916720979531960400995678655268827827583998060162084534123608217791742844561326032242108698478675625747304907352163280056438141225837281484958001772178495549625072578881792338556287341101329722137022536422319891273113052133354955370811938864609e-05
92 5 0.010513449462412662826696414678642076094754518354267677895056816106361496193325229238023466733058208510428729729131964728006783958872540330473211947858193135534884848271847394926902060377446267485796585570133263110523033021456595381994136340372119639187106445943523646752916861856731493992423
92 6 -0.014961332825449643359788789226009822434504756800269307587932782441485372523280090665518179906195109098196464036935480283027144786912066037645794174886463197560906712791519860552741802128193640274239828048988074486963951692894425367423002255373370891623105288226372615885448565913425291430769
92 7 0.023772177329919547139951237398625123225753311726701413130013087795139384769334131664273479084802288752715615345091219750937565312264470768106729221235724680312812336026616909779261395359450284326234149836506642012425783196493937461564048483371089950917108914741471580493653393552192114458384
92 8 0.0096528836956308567622890701211946056056019439447029565983239078073645788627526532367702774273095131991319842003352025831596331588518649882333380782071011917053506932511986375661752908400900983689860227514283872784917840225288726151083190141891261751705345626732901621341997353420254234924242
92 9 -0.076141132000039733877518721993863805026449649158659750765036182782453598314196397719422282855799352164567181568499048865250075020228343204194981042057605363197171890118677880162997343643757924393308073447919305874522807512815186595928434394760895879259590264748788008654323680440339289537757
92 10 -0.059258188284382894384888793633045170779532564225002490162238481649152383341694070932077516082795744315987786537230926669576137693326079104965303879018525585521556204177339730106596801550786374046747033122718075323957728876668776340285938297901487564261298420476286472849809396532329219032787
93 1 -0.0033727530454706754506887014915247707106299068784029162373146219700940673171795128575718861589077027779500470239982624065310420034861496563137709331137292624222367379582318856345622409423271868174313444597479106326491365580274972107949950881626586599479085399507874572772873099903100857336749
93 2 -0.0051104037529364565732593754790466015445384082900907238359413468369534024629959845507586673006124509433374539545935930243473350192320673651729161684195502195817025817937127059082680545528416950763394378620563065854250795729645887828994949606708346144718882255556786539937651150447342292156346
93 3 -0.011565368741736552220113213932035080814292706830267777602977197098277461126960946765369848544918591708396122129166362330698029447888024830973986405578368164761928693351626380246615720930538374051653246068216854226005137998002394217630618247965241120923378864361594561237524203472359286708377
93 4 0.0006885141388740981861524003182246233321643234994617585755392020548016039413991577816436659237070739971172289246551077360288279497301985657686082911255124068601891778691701984423370943313675261653106290796499923966726839462620479664518898077223120282808485861545859136508697874918244351953423
93 5 -0.0042993055348835835520544015694254409002709487626616894825440065113081983963924957250336056764007467731074818821295567509009752603913090725472927291746671906034967628863698131704808527111206455888355209565788742491305667257009605149319474027986140501778278610146386254746783246393361112192508
93 6 0.0051159256106879863211464178236345990678432001388112383237576901330775001141329862598282784161049750048087993980576598950939219441362845827416799255775136734410990785200368191367535944862392514534372250551925160626683427919457754377646895257365058671039201711623632033745466400077247085786432
93 7 -0.008414845433229887195235643104665215649970899737523346801513673991071950020182672704342108663881907468977231269527344561707659290019625127338064519351514521567937534486252814002362162291579768327976905512836010222951681750966311282997488609362711314974245443218985370323727315641978961972487
93 8 -0.0032397146025881426222925511911335339462717823323511167981094221734764676101278982592352257257648626963209503718817464701736155846179443537827064948831967705968611696684512468723239211183810106695187015092446048539608677455456479928829685941957522036012536702474831585732378994304049858408018
93 9 0.027745431403435376991602117409481782093348727147525513335595981523389907208225507280011883151845473614411660321412186305263229681204569060253246047615605601242250480293439362830238768974699618552698849210294226205339050287823508036597422866954206031704418357761730553525052486851678547999084
93 10 0.020916475262985227995791585483786554861849359684504912048156525120564025826620581691073536763925076886546207349457879061936675038352253456208327177078256137595100284003041116204143213500043114411693596180227793650260741911880176909221207038688447735113734138692667349296305672560176646348531
94 1 -0.013620561544618773163049455169201187561821118270320828321358746618037255232646797687409458046232550124818982321860630772798045627847419108326214422662122126304897116820362059537874361473505931830868338775743590900869651155770580262755849299367528632437401639190395842381240310995411909557927
94 2 -0.015873015958537069615887337582616340919454143877121843587342045413378345409233385385304687674588886049356694717830098146977518918517572351732097622944436664731470356279853824291149781779990438037622711217290630965301206865236712228138595574749493503226869709644296606122177538490643800121094
94 3 -0.049259986386060717498088851311021098220828130648601644365662539931237076469276355228185618584255546928046156350447675182031459277834137190701618166334739478445301664327198559617870415315897664408768515303955282203151668476234500929576508491912732462530699905671567893547776199662219355237365
94 4 -0.0047430188656689466318578378376926828211728455055646251761471109330053398914685526985110255614346942476356551071637131611398422842982143934032583824454832806047675995987205351740161148003580394661699932482297300409250620332169345705211915439976890879740131759022763263668368053484415386276858
94 5 -0.0152059435689752885566769629052114419198649304104967384044539657930692867141807620482527884374497410522486477475977891792364912089020169809059329334278926944710285576795244131406600266025714895732543643467153593178490227132738551068077886005146637789751210081898804651104188740308799622917
94 6 0.027627528947565194842259550695000026904552808216181490097503992471847119786823044498535799595007173754846790793992443202900125151774232440968655768871130799633577225513952347949638113016988692849177524411125819169349512818154614812695301766144748148782293922066034811879785109745844457707958
94 7 -0.042317701118448443373981138685374417285632990898176504490747248516248848559559532212157985806333922738700699221776999260079944803511218552293928879347477170461981475038775896162923179671614252648786883669080809742691182975302456944779155860379051302898153818715810352462041998854498869431585
94 8 -0.018721979700459889677600144681699355018972049598841288465324636628183991688458519978528182866917027053815539346634616543910244976818447340272325169133304110828461217545979351399715281940620108826173506722300768677199505838448409847728315171350841773727796192282406812748755797128176252588113
94 9 0.13204783233031844916844736042418035326940063440111931708944978475425588246123080679773911267393771622877550546709397605408074014936675181567716758188953674322863571531378237847060186839085030668651586812033004175586479772590099111976883679947714589077079626909366667619765672465021788103955
94 10 0.10719532510804993409419503276646307230041244642548978363714524346271173463078191288783593307637624022289261099338852906731894619721397566941853124547277822775713262740202777890085420206233602324358799547357070090140977662040146579378006826168254606931933621874402866773477836295268122495201
95 1 -0.0058911763903978044114701962491558283508765852196298418459452488963031411237421903967148562090312233155418264993354703822197273079760548098539928656207982783431963885844889227763249479862663937887288392193157346442507044542495394389512847632349403702903371392656253461789421350437609210552137
95 2 -0.0071362455959774633624354780021510943286847347134247042414962908004495143340121055707114615715688412453940825153474447219552210982849379663318172726740112460078615952151066297216932770620515619041865632591777525330630675122904824381609450112222312890009941076910705539279127052752917010712784
95 3 -0.020636005141119148010079426934789754061602346871627560619580467350998241912546076771501565572879761708351411856126304374221222813902281220629814034095431467713987418487106235490052172568167626094904054920438590340989371385881990386165533905013933270481039718146088399092879068631231150504519
95 4 -0.0011929892636109576429530231266298318087507905726975568113616022608088101975651732962899797833860725511238203903659967355999162486175536069230914654742447769822548748752127842887881748738255827552108258706437163436354267501976560766339478791694520667388881673812580768196671982213899950806579
95 5 -0.0066795871898685646839888059447694510075193460516868446793052978485699713808459027163008263638655958427207960479962437962853490793629617645433353303024754895893435642964415633406449357280226103967820544080398044609755371038531073821292613932579184436700496282132274073726113945274937827946921
95 6 0.011029155049932243317231002468820628416571498466032066635169929356254825113155153146381287931283876665972856199948566983257013581430492190899731412817043269815625751160481665456140174477028306140410879139523698373043455718895989674253717478394390327696001754999459463320667147304968077030028
95 7 -0.017116756318391346193142092037782779301315596780376421847704556455131086714115669831691964098766332797220492548103085046170499652909333919634948606899368893685604742784527988953404848936716142428484182112022670415339894408396991312586116611246541075229142581313202956812899680269648743738539
95 8 -0.0073227984664436491903041489803974329096865401359347258401346491509313405966915802322967898575816396589710652890941209332038760258403256036286586181658221540511716039080917723225475034130593342458053765843199800015560189205273260344994218640147145057686850741420286642910769574492582156511255
95 9 0.053885786177926430629927028370398996871124757828506706435636948907963764100665410927078093835478980650620647815085944787101680679556319737553375957406062039616807960127543911238713614201152210141095380289230034592624673049677695392241984000461588786428522791214924781895145699007439697120033
95 10 0.043048729849400056063366418890620001472267836542364549562454206800839699845346823974126173615548116290422368352301049345904935528909781613151448069835656742653878827520825028319486324185392951297951926764255174393531914347352727949114112903738535255950980075709462484658289733558412766596798
96 1 -0.0025265735091260771915475923343562665546988985264485601018855449208268007023358290834262800353713382538910429290888255967869938671381430855676539474399936004818941781512375462297729112452526571090805934392473272307818149983950912440480922642594032640478328763585436137869984978864739555961876
96 2 -0.0028777977864734072680869004153190895260244956640588220995499278402280664234078561745544243231721146574352448671381752241963766289164548032683263623850641319344321525245792382425700343494979583248346867408021799171587581411937952217092927820392632082942592238267700564459046432877376636873632
96 3 -0.0084932059119795228182874123709534558858594994656488749068396534459128485651507850537155664778227667512336222868613066161203256546009144200787833315524257518810284876821086031591377335819983777813733406486889950794793522234315836237775598027613892404758711930909396327546284231570590869692585
96 4 -0.00042818251606786494325160164769372048421712336515353990400366186148573939561193044664263774815552711723349641950520235296810931465850935163041260137412006339375928279642072229403873419282460954190217953478983969902060512929405598025653462672774440946608496741210153036861231654182243706613139
96 5 -0.0027642266030239213617613192825495901502694374094231347013312586490101669778371680027251052157389390503344816106137203322184848856364436618831918604323377804573030576105215228920905211082098286487175851103087567735730944836679753340377406117545834944071098201073636455351984552592968828702017
96 6 0.0045479006205020402099727463669096030309865082736749971524900496063144167615350670617560016674829683467446247689646977010149556634736947293284323822656031390155524331263711829923029802322929696504741453035560763374898790999134983239706898272889615306287476062487235687895705219147457688247634
96 7 -0.0070471882561872300388941806117820242458540168057245370715011797303083241190842707185511802881556291497480556157966733088513055876941746300646053084586043000915875702467300211408372278520040726898481559496562734462266499299018931561877079299672996539723277597157096224097065187668266726732617
96 8 -0.0029652764915434392404956392561784471876305806104174067310509709807406994466555230855685389278586380107915153717893329292433254728561871377118656986220656731310875688530913696057716428589034425593660727647375297776299936730622508847758898574645326994387332556340772126277301195753515915248524
96 9 0.02206939672792052375057603269441974795636590748428560421144498227820691648565076642355436020600480246526592971144313363496610260773234622436116720931965182963934505458541529967240767127649013462929671056608742312704275245194888823443783107982019173830709213932522201551501996309788205772954
96 10 0.017587766528493377975914901770286304881960417877656333053132641110569550483779859889585832034356443068994052903437038555084309180960122203978621761527261459598343120766700513140418825831082238623380644651140444706473385493672874877673923460778152892512752958492472461277538652135040989546233
97 1 -0.006098528079555199865059247369078252044043613769143567671898677016405570708461013055777337057528638166192381877930895817760103716123592928159101036101155132825512993644334816829519841126175382647898310893207381227978571361278679287640065004467443697562657258106185072189657277672437820417337
97 2 -0.0067850741362022866063408792773649824804988460742116967335446001400308748198858527042558713468677652997534984104527947673389179750761306592450216077297995592046521160928373815945771493808910431285912578110228545829298732477418953856863973802710401918013648533569127808619156187654527876429542
97 3 -0.022575506025317768139562678962751373114627921997924293007191937960093708334582429697688259276775393933412025956072457487839322314064677905470148619335934556988015914312063660212858351324562377956458820124086640251567758102889729414211549967081875204602699538778538335023252165817375357284412
97 4 -0.0029199552950085390523739852090843551820303369276862687734818724188889540554481686978749850476827374988679790306166264563260544709343580580894277043970926424274068445597246338048049514694026349781213133303859402389260850291268125779823881415004094445926032775323859293628100486884996842115386
97 5 -0.0066741129150221564435990736267414841070774555788227882826495041407247907772599663705030068541277992832210334422505430889923034400977409235394323017450793608409439726823235383941107819805925321508151252403194737668174810369839881095085918853074319910879499964726740215238185198829688710635188
97 6 0.013197336142887888887475528039580396151856747597557398796850920557546901766638790887985720325722509252082573233635551675190433984877541544496631363703187100376260836296355853502472822982916234193858734369538082441904045267569267387764563209272251278627166703109237435857593920852814328585789
97 7 -0.019990030592115036621307293175161660801845189126427158532178653037927656747463231268310712076434331335936853742875567765964304614167723165156008211614990292835240142173859633062057726523079897523423910768925422617077727930206953630066237752323456161740947744830696046606950226110908861343004
97 8 -0.0090683598875666603096827413791473534832925903805297556929379873538935811950788995647791585056152273153651665136340036674444750159787228610705962068116530369973805176034681027629212381125819559451289105832006464796607039374759782054800915225688993231517967138186559293230254498627401873169051
97 9 0.061867588729869517476515456023281209054067211173277414811526930819246334768119467811632872232911428200869533203353839331165218401383797301101662901530112480425707751331318561875748966681580885739090298517199038393742757136659056704225112675070888425577226204477627600200603808209938890893587
97 10 0.050885852060942000168358821448492765327399575469698678090973921870452565706271409692291267207499390657610261614714913415938262941209571099561274810953058315115199774537612495268199959625654133059986300658936658041557264164766538948990696358320332407060933789361866158737127811181370970056088
98 1 -0.0012286135929779031604339914695433735835938042726963396672516373188840447470802246880546165127588853543955928735092344671078657221412673400309416636197624778955841495886708849281159437785419787286243356117863670102536249425239724648627767992276043998952902187572129867265570967424457037998316
98 2 -0.0024102176493779389946921397777996356623958110222231469661106269233817839945000891874085924790147753164911796257725098288775820095958362145767802415873980385757343915489426056624036139861331574571572042462914178508580131060877600949231065203195944649045858570798390328093806920770762918487546
98 3 -0.0020394873130444752370745415774423662761504231763133658000340043244723205313843440542240348899632693823104631733975119905716156202898943204136462553565389402636534288424059378620575516355003587344408924227684997477252749708344469625789602219662230957367829620397189960098486668185715121060525
98 4 0.0026495518539854043371612727116167468616385735902439706410162516864262960404685863534679744533347615641644639270834683512844606795842101394059423190200180099290086546758353465311258978041590976414394113360274019210422089456001798214191455621518825815650824590617686317307797894816098540044678
98 5 -0.0017386170747705538284197465109271659228460288291906889949644656911990976926276504267893041566997041507293586878045035221972227950232113097867715269983869609176803080962417494079821774386529967549533436066676342351199796162737243209559823998945281227515318152910597597782715477798896330322472
98 6 -0.00078173820264640996549210264206092370088769072954720934742981479930141928539586869170769837432812593508895146524866593345123049415865404716690841791276874227701806684797944454126015587685556357181635426285779444143308826506209502393717943610827106153420897206678013396832010184317740396839586
98 7 0.00041742150885973151930506279545067030042219346201773436461483073064009848579159923270047196937384918369865173621779659102220847525094381636433132227033333187777898880982071292370401569179740868737819597444845895018648680911969816013325366427589220760396002579684661243008811976255851686302425
98 8 0.0010806633883524866617909128816109347254113362923263010306166504531704993948515447456472155482755587601344478867521356369692134946597633234712175577548562026338770987372593667637926947197511577103834781833124306279616708673598239677816557938285130372396705914014762971562371078962592870645995
98 9 0.00035004280248963376075902020807146052490210125220437938919387558298635686035059626268990460374023805497270872520272155093640256687427728889039387452810875288820160291634898671123642704959652474213793447483273988263713363746265491593522013545886682192932644122406390657932494445492975308179601
98 10 -0.0021889895916604919939333565198239762747739987102890113320348362824127367538903925045262045496198980041599659122545494824181123414458134017163708937883800057862270494324968268801147879845162575193182602233169792337140923847460409249392611545205130644842698080017796849458715650766411858329398
99 1 0.0011218483422921728936320633013171456567100072853531579455647109168343153658658246504367899630198465707380902501277890183049822216701757070569625359370008134140667364529996973856594723809072958811297441172420689822775577612528602119137756874266817937661316068277002305883676767765519523001754
99 2 0.0020370689949469287265008567933700550283280569896354294005473555001995359347039982038717365963209861823660317542242268612667576018953434467864660427513298473967615928935020795991539908079389286110678543896839852214543345861348207775800759354041510443309415561821652357363182629557525500059345
99 3 0.0026177685708834229183310664399077397616040902598014743254643869438925513682233167063149708081069400610963726363067700777113289066854550820123938802196787906538615310107250638663314980599600148252549028204908462675467097713939429242246885100470186541327190240073243657572331912646900816160763
99 4 -0.0016256112224409464141634609302437554693895097029285658172289855202555867267230280115362782228037106335084305708915898061981485632195929421817222231596801869343990926242479362609088743611981783187826799456622763782473111927723540504052712080104473529316226035718216393339177968494369125968672
99 5 0.0015447423694415530473192684811423890239258735017337357365334347917021509307589713923487190263178748165821735015894678364015890256110585453374376454892304293653429271853858837301107687160903238929903249775601539789211725002822026379330046615755984077472433699529368090484508597168523614114634
99 6 -0.00014987921287681950336249673833781111952086642706632332194633986553844594446617263552254973368246990821240751441374459838604966741463030892349432933270743810447871175252204390817845271864457619212084769004840465655364932385729093364461590352940398089449914345742513269279425725767741820790275
99 7 0.00077577563193035129349098580095867009105451899401667161736711040833514108974324934958918872508169708990280182403420683017856065622428506979504534043703797590134961185380278487097079249396989275780566912637474204527991942379969135658564119817390063480846535692631782355182432526401375748573456
99 8 -0.00023408839791340569028090695217529609284899583246741740100917276369398562965005248159500666232354513766695532871976231485337506895933224435659459037420912151587306546190925971611960909151246918161881703157351149336351614564516510852291063214717851462231795834378241028351203029814794062233396
99 9 -0.0036251415025666818552150052533535719328116135576808201731207236925315516823449461622494207010140460523758883206686015569050787501888727679308835144036180561517708916476785298261635925115839442121781265668783159324916660759193322858050010971244277393504877686755987300601203470469533388542698
99 10 -0.0012877448024948799384757523548077060415067590459623610843212848832601419870303290248990348062716673922961626272146197967185208291964788994458096026041443232624847598309472517249928492717811847512297501971523746966097918168720861785698429652392270682748445490352142050817769486761749759731841
100 1 -0.0090224120828533645212627471638755573910890853257376357827151809110125983160316297579885509056162307531158873024156742824806034633005023262239570447241950804107598145915216092701974799016299945298851634161775638688518560688563404847162947221194478427290432101386468892289397090678477434834636
100 2 -0.011183379149764552789145799231276217055423729940082698576676028733990835256221421376113881252186218016867524074195768208361976388424691449206746780359930395042914532713826383445630040074512078179829787480116983471959799672475344318829465779060890578690956721202344828587239959040759945200639
100 3 -0.031504160366781022030623930393717380442910249694772057099477953465194697082540540731599760772701340765230214174276966345543944607527941764481100552128484565859924760812136233077222568853393477178392504028989924607373472908470661585364180222072802939017153260432804975501189602820452108678054
100 4 -0.0014600428487958500810143471764488939835927534999224382634152465109784469010405511640493211060108918132621228872721935455856346094754001133495638143515247296383910319795777803239420638865606000438921465914740085684223279547516887150925647531151631766345975808159687456050776919927603849869218
100 5 -0.010343922514129543405654674055952624891096341038841185879174672987040299409897659571559662787385646678035945446256478725022548241838767178546870183425208457882728329120061183700380786533659913651857554037841589412753436292790490075886295288670500816283343002452349143910650062714702243109877
100 6 0.01657082836292814042603488953059191725247885484999327588708340764128239877167891145300789873903393507258006245675489131659101151596333755576344222603806551090480201837695370381064757245860507948354889762776330913008679571665224159849473040823895678582553527636192376241345966730654198383122
100 7 -0.025831587789228682791960026243770524930384508828096321425039393557853666247970021049801343372423383635240829067453810717463908886469944946767651857088720969680639840082221137542071626009969158122939179949201801826118342168045899626389155614198817878007476869442110140099213952546923780840022
100 8 -0.010952124926589793777152126614763255566299719491189512385735829172587696105759353375267285749012943667162491737026040578417923376259829748778826419384803807803040539192785902660763820316737804883279378908156155400807241754361254283961651373584716251196655365857888865229973283615154931624075
100 9 0.081618782417513049811420593878109443010318046889970393765228764079219174431261809313809127648790020064062637187850736381630356140082671890962918956545805896595815744731388988554954742872114450102024549364828196017754281774979368829036699994970345248848377225590618887884897595571821854383579
100 10 0.064881191555300746139368479555984665619347502633760019332315742179337784839573117346494470271175826968941401108682352454888604866169234694554444507241727625137531206256513626708782143186617871161423256879373044759186800943699967880635671358398150868499931768230866720504353897682348866842535
