100 10 1000
1 1 0.0052990221693462277394229918805360218186933406152263896149280856091106531450590946756670622186154150135950328595652333987239039859900958986144403937335671113338524894954674783916245573265334825998901514439911974105547948546313742943577830684454495378952969901882302776300288583139939520392331
1 2 0.018507100656932950133847855480065769649642198984440156265611435786986977337511446748368035159771160452229340779913738221436010905446283502073914703359144363728205465923971770535589834747329047427274611303712741701037195166678597086283800603739940080133791267674358850208279670238059464614594
1 3 0.017192042452533841348059537157123102008446510266893018241550469069981606839276050133582337814477201175508861078376276600794576852891127240002591887902429854450981527941221509889909321753068166091540836467144366581839701495026726178108915858640301602196978189986023031132749641277068950042359
1 4 -0.013567097782390726353970639814478928321191297205884948846369371485723138279191813318886391192573707638481382093709906562534546997512679549999639343983719851261627992644402584024131410930088293751089220041886086625237689035093266062247964703649287193769713275759344428686819127112054089035279
1 5 0.01164792548784778696623520677582566607004106788645928574268839042835637262845830492255586904935895217318310852381988706022258718447763654726675113417327165028641931853812916866760204492387809579040303077614641833759901940858322079585113209128078033817741346901548064843297133163732908754548
1 6 0.0018165894175768993031473372746784148334704524079747731499775490243012774104991971082043706436699265162126320562908908839391324777275810564120947866636144937323659909451732668446990426176949720833292651798965120062759194302406821681576658626807847266303382018488766003415571801479471393113448
1 7 0.0020030876461533870611932400722606867666603777644281602023558203082764916018326639708711001157018262388413699535328722507673728892132725791026833912721950015473126131076901633104577002069437147360190456556424900227728648303797471337106156741139724720399793096734934555835027247135969162835032
1 8 -0.0028717044909296295082312204993079292326564353124579671866668617131558399601999935779780525074050180715258303856865015377302290938919781249691085964585575919679673012449951685758694575677296631252895706609776849302485200604934255321516430115666290507998327997695632492968062250008970979268993
1 9 -0.018885519323578331977196464192554871429227472853513308486624498487743416573794913460311234282164348878725408149881301316456950099560274707299329986567079392815188537525497543809529374614820342293287527534868448001039237662662827492704731944349679501578414446079189554082340643097929811322769
1 10 -0.002148989619195217403711856321256528409319797340009918798118057351775517660647430288319636040724383450832376826507882001991510643510695606131663472450821740258489934110874044928686885451451647781422249940406450592214025478433434274446870926961302891414987614883373326041745316342583606479603
2 1 -0.0074751932463390626192655835858205680012035899668425626156142354038980636473288704559620215366824792773307341422329197626164783399965525113217733133384879729405838049334954013721199095050002228454945096684039320894481562833814916642464619833917635896947571088584055202882543491168142741079349
2 2 -0.01099127142823267085790666479024120884189589497408112493878561328475819290117802550407541444253845374203672860443720037596950132500923835697453069987791828993455344335953747962959723098433204891729990871541686091544936860222808475322135379395879411012353210639788967772145186417620023598197
2 3 -0.037649819951937820880166182041339677346965813373613692738542375399860893624922170362555983013647887616801319344172173407325483127194851533963237161792069498937075009913050330126904605512750818422291126279229945871369639844911177950715877320178543227842202392577206785476816822474821639622643
2 4 -0.0087799623617652283082224635790322981480972930347068070661280044119395248222679971505951893828362883511655868957921259171364513805815466291755533320196224936470019700670534957363632629978937558009723897104602814499773321757365236046421552841031768258627089382177556563373928765412487017585573
2 5 -0.0097943552228036114495791946358671373434942156693703883267022675357283660348262058086478538407723921605869903644352710620910433693211645444494675166346335368171141217988411287936471449333943245686884153719282147819767224878839558176263720678311602159523286406157853156184229347179322425390426
2 6 0.023860788428454844879617840579236716325680291270428259485926843052099490800159290388115501244739946224632608329821199859168547132534053154588402732839086490431778413755135284984517928147703057834107054464221104373845660940060948965103465498803806694635488502596312316697602884227781876124356
2 7 -0.035494660273535228470871339160777798216127444104665796240839251591237755135122769363097739514686313340845677493232145914800555575184074511886349116044735614553117578978935873726404251347838905737971813481971268938853309465439690299868754615476355963360358881640337969472736600394764452410765
2 8 -0.017921489138288580255210247655433733904441303503757349093738324229045009363677364506027984235185238596740433034361807310176372181910832946575419694242705918453107998918659868408105214885436087619801753907424686886290636770088123652632018492915530571612088684449714904156400035531629285172503
2 9 0.11027138303707175066654101460979176517080429786271475878206561538123668803859099616149026052028917842297308393452119865377826670922824980314246676634776139824230363130585617810984940100071578013250023668581162460628016265469875359087104673040552805048283867513316191792105070852152175859953
2 10 0.093950084242405694510688359933886646296946341613776886129764651139684093413309814552195296480164962115394607766284710358770296185278630234963596867192643845445978598115992497279120174435625311318881999517589848059827809995045603797265802788649776608239447502914051555385740785323463997535445
3 1 0.0049052852248897737283189377435576405594215128900444666268409749764043300909193561928835849665400750885582213021196856606694792221605867267208871360631366175545184353426927570814929726380092877699690767777632595039131852790413133616216947146476681814454018227792922904875348723591956935872225
3 2 0.012597776010338853675902349396967119165939084084765304337036991558019572612681935176186830197641929266513794558597585500915068713693253633545860730725924018504842638861125821200525696333826297801628092395121264157193665928137476617030726836933591309515084933671945879493054057606942415269506
3 3 0.033852010187437862336854241513897520020126481714957443099788973722979184901711797595218279091540285168446045197881771728425118405666491889660198899144468778919021252690391606447935431846090779172629820009225953923774756742178390545176156435868513413699145133301602953192337295005456146670952
3 4 0.006980004395082921368045675503357608285503938897074932015897640599185433791090519157366020579914991689634928720954073583073741688914563817845031056439863538580848280531376824811335370088323406251609018201994374936982899253877144618168100187852271810811828835534694550826780698791826115576772
3 5 0.0093687348996156270543783441108558242960801989917211653139217201973769782379278951714832410707635269129585877606341817491214491759453700810941184843416821634464456850366337312849778568724032046474509393033186655668693880304857316305725230501263246291449028621172917637794084590134399324202288
3 6 -0.019213161255123217977608739280254478839857014636013232190457052926313706489002408852920848489850553166258879928375415323698100783240079678256714705539659056086087854565380378414627550194841039072664379260621549024094470248418838725067126164116962670393978906310528606237740529382458018036561
3 7 0.029680543608107893915468520155112106236932246712839269292312253960262987055303218980837943016065638695209216134012231300687085021677982386666097618165733209619341914263975897097807723318960533058053352321862872108197461502605669000564694102839945665520281615907659429423206405557094429062241
3 8 0.015530851278288429366777249324236792047171975060514498051607535604526897725000664519470518414233392021081322762504231525465208487031662379555219062941663653763837492584723100748480757393746845469617492481596006608521226246600318725748467369183689375230766445765544203734339842663288567787837
3 9 -0.097184537219694610553847248490396696783226901899848074127774275933783453978798556376199244591853970554122749236943291498235483806676880748884474497030934159248572639171495762320860842527208783187117333807465621340528047433125275746758816532723583042836504098640046151354374071969031825319349
3 10 -0.081449407588466912382594656597796679948939072387229441197828098816743686449907765573631654630134950827746909396936477434664785529578385637691124033770979123471525238975013057221857469442118242239792123573290838788315600865952765821930649241649607160065920197693129827045882318799997444312849
4 1 -0.0014372833585009006831147992795534146444702038202984451919687748901811947218333931329437242353821338824749243572344129546201224856213181260643506465017836237765342616399447015028699706182823161387451577359968731866249851328790855108646065661437105004957872893084409244623125347679721239917421
4 2 0.013864002344235198105656146774492147884715071966612074483589049995986676706887680101080218567567402644048036122835873843228446484542702980236925052993844282501360210233571235580665338285846302365871006501720274577112503091252012653926656108951577699819607493258614759669102359469739516748504
4 3 0.0094035391870191514716505170117069003898895479698840486193370805875591478654559162941019229084409646537137079352828938050492557618896361147956250265077373349724357153220905499692467403888446164894188833108213920151430323626762097535420532957495654223401471667602814841295693490593556139852493
4 4 -0.0063017036789761917408599015874523758312000680711651196064671997078910547341370554335031712052033126793450938808396316427580350780275559109809093619354960518807821828993479956533527837906587596098366518555813828497907931059040905132395728807892215941838500868193350072814698283647790692292011
4 5 0.0063839795675429877858591356824058051712125363244982779337298181302548325831869056913006357930724831376552802354973714152734122420145240340253144161324002277154368544546060735297395979692925471885970592146923945659026938625455681487076503534600369282829598870165869848679240924262698545783003
4 6 0.0030379900452591017935001363857013899153891928333651501110916963026256505663909394321436168646159838900392620474442941047776900657379906328441720473805818222608115446546299012022836179594235968684663143830330601066160231577053290088268378550476899772311900430509744091808596395301529463638816
4 7 -0.00071218290930914133875107638255575197064242220367461763415289474672932079331540248313169023032918999157953194831929181833520956316958937274923690028185615334249562461610732439654228275824787125711388152367042957789117933089409843347259195623169599243249109970844163763225447457070461576161368
4 8 -0.00062212712238002650160191871188075641849353524000523648488888954335005884556793368961180169042775824373833505235351918346938804096974254375061574662545714100341275147427824078219265680235234588349417713109088335833389710051035873528964069538437840298099154615845179188136741926789176571710947
4 9 -0.011900999506546770361972772626838014888684109646848374040319151370249027406771662800445138255756788255835895957240255470293540970281000347578560884194410189675505409453866651425367420659704883355032195345064960211766877603546949364728563445023928291553091840812615049402393498148334204137454
4 10 -0.002528271186204041868767107926171652058301178267152143791762059491704598138203532091938924554475237778143351455315973320788235100806302653562945543896238211230548465223538973113426821072749594068499353789471189400449750175750264436598357010800627719435763599926151132949866242673904950376742
5 1 -0.0056544428826315708583288224129377667312669252338448446301382804216367510816142006579671054991992216751535319852217271787345729341070976966852998241324567512454914566518767372837757070232501003675544243189378605668108065741570443922949595162292795987946494130544634469448219713463697602095683
5 2 0.0046963253125954931323467005296814741052035554641262490748526537461192015769369617854778758164593535653746572585212652141247196936021174651446677689722758103451288496490845104897778123451306558410706959140308847357429010698371243306746960150975489452152232191821838481753043133807159455170023
5 3 0.0010743347086205807228523252738312800816186186275809950610922446097817832135309697168675733625923512265314125679036632869365938669502850185389799699182014243049505102342269041959853716359812561572926004199026603096161056374765503126773494579557769832944392517146917714169070906302730119402592
5 4 0.0029852014890429072728135740729647467940251006335961268427100597116127697464946252391752300855118439880671001640866871902454184262875964114470801883973515855489806244057095534003255258727189550716020778997403672992014416715024409844991065413532058524836319623187051745012266933497432400842821
5 5 -0.00015360011269045611412166353428663932753762250469297048383408454072093427363274009444511770469912389177824931963550622011118988014356227602900154468064222611516716901664285981208294876012815949103410816470962450052629986119299266599757518973676580144945167024069785314497845623796874068616259
5 6 2.2860774772685691687110927639114515188645515967452769878637893995676910351209871480906230952192523676731378837690774293453515396801921591497407749184969045326671851384414297881427309102951317625299197853938614942635415198910451041019283920186975931129550317339538219764730269780815877529032e-06
5 7 0.00058337003704618420047957846677004564280578055040648385581560352459416630532149125771679991907591790570129266278863649484395651186638551889746741422490625446484295417397914041427576060833787955542038984140182835894916423719893158396575244890523605866579559091148124098477543667915414052539433
5 8 0.0029782207330720781961799737129863133936573422512638806948317857186957491361849264583314542430773326319597364789944792232631592971621138406181543466117413212176077115424790401964922710480899135521366944094262906920778835181395351171569988984917114045979024845277264573232732201794569679429558
5 9 -0.0081040103580898258797275190596111084013098140174330732356913789789463409518557601796844372349612154673452379104654812799771229154472806964879299202759625683261079394233890077104290969096142072184207455161730322282050466864952878241344219879455711454137464815501442860879857752497873747261549
5 10 -0.0087407929035266053854797804896504175820936230393853758040404525478741416925916566701195581783890108173950829907410065093083820260801606212656793531267068035174667459336282555572784981289593118902441016576212882668409256203197229318147144576361914187364432881682020096765842124096644427894815
6 1 -0.0051864090094909675521024832276813694101177983563119666940539055526758097404936354570385015514234351115477023906956966012214025177610757790483240456651434499040821798126483470373465340696898111033096176567637442171255818234823928684717054659442339149598074957506026157980469915165415073354537
6 2 -0.0012074735040395190632619322333097117508721963334971004749994160888003282740031061741661349383784768224979126931539486759367143258408311299938927304371408768223924418070470548921132610559152712500123698285956496217214591684874238544700060990602964326741512520500854953731939492177338703796545
6 3 -0.01025767538485384644689636552342181487109661908637555093370823119881878158104168731789899856837883628046169351021455571392942051359336378988152330317851620724476396977067767201881677796552937489542773034702347741196053159269178476717485380427131357769191557035285449228823266142685021348067
6 4 -0.00040037751684454585403643084803171401748566287629071932279883992163831870287219215506184691100929532665697979615548454131655323069196758295680728171991625123644510896700686519264740686624755068929987864706142993249238761553331378372674613705503562168850000449081740300896097311422568394762989
6 5 -0.0031124119377426642443325324311750154991109848033421748186193757632970527584399986704860061521772984879130775258109002926591652359148543119936325376741940328235672987433233584934717570492061055456352205222032029276735885113453236912873916491772658775787762855204238462532854311210718439526739
6 6 0.0066333392203915867277056439155855724877279537678275441407974402542274299545527049121612083816038890124335998098438121116273442171349140176854877230933764573368935101917018314672722119007549840913236768377939305723342967965045195682846271104811499922770634142795485720336355416169647898885083
6 7 -0.0095684789202040817900547118094193713197339028441639637957354539025713772355046132164477505109584067216252562039273408965674607118277074934930502289574584904508918214550179173725121870221655136833448296530678285970297687984464468321011322008192818710594053347796023607524635865845718735895929
6 8 -0.0032904843023744523421964801370607966817301759197267035301163301510040317209585743642041285125326566282130744268674653515389952433042151308531399521555173647373420519435245877021882305504055079142046887888774088224664660823238178726204874943232631486025397500769797845714116573998013837009369
6 9 0.026601245167885033267150821389529129166328343723630037977627762647393889601229498455608713843292330035007892203183477510964777923141387354348529716620910822510777786981746757155222286898973051766927276687106540650644391457397763207626593402001804617204679805338177472925629901624975873272586
6 10 0.021362966768069703507387118632585266035895834298450243837396182389679353754221937279048325846154294801721289379366311280333977613316201252948004670870754931895546806765886103720849819191826010065537779473166770532793431499008746819892850626249338394744001538985221743997578440110467619760153
7 1 -0.016688553716618308409891854683876243130644481891921807539578967490436956617466831526080126383381569462135032171850418469992271809920657132203529505095390624634180654636050929161781808254270910116851352370418113970299869380224804207534520846775254574049161695979373273693785342718544914939432
7 2 -0.017675142977903002830775960255911445504091928790687456762384884622877493253044552929838677744860950843414747162000794110080754962226027112860694388788996767218498446392649464227518722120128521361991304508284794494701086325778362914487039041561504423090304628950993700589770168048944506160848
7 3 -0.043764223922894859850758129850334857091185123435265628587073324077965491287503553302360686566969580152896548494429194567396009040711735697250238181862980158510323283579371229434915734849365938233100918980119346920119026727499816800087927338697895954799195853115286226057289058234994890664075
7 4 0.0060248578013281855552505899356034361095092061230731345691663204117946625585844776234127748883781224863999418491076601639072534950585982039555074907793216022644031253934346516533507548846087129127654076342886605967645669186491359710384371015247012427247786808655410150791920339326931086411395
7 5 -0.017363872616991419339652892878065511279288392463753875337773571890536265027303184919816452847497999947013263937940521972196491820631275245548318626622422647407926266514780788298670670256240989050601316403650055677094415725480756711629905523939281138428791074323032727770471548687967569472792
7 6 0.01814582637457454306176130919061714727514696399874566539024140666183217047644102218408078370870479046488719871219673818460724569845479259268381413522244667134284460423176101591999082297977628981967274742623879040084458407545291288696019463297353024214562355019458446649724330621426257490148
7 7 -0.030574767699498345842550093729358178632606879793135550733356641200566575644993333111736004009357141073310231235812687588684623326181869428271222236636065027622068058567042578995342012440176442641979739723280064849942803094812777476977008826700425888916271355432849216695528262061830091117895
7 8 -0.0095548289453097718304826610716721435340150926048146132576344499898080154915044866438552321180111430111320920650998505021681056102257555352248370878436766453003861993499807285171839113043120242213958603214905942373895070067058075124735006084807123735956510939494811788709882202393940176107939
7 9 0.098565211347926697396677141786457370679936895015301789453194024283044320346688680064504532993233713964789120474445552399740656477440052534500317633438568830935024559036973336447423691158152948844669541111595083212389836264092625427808442638301420336147010162092481976282920308080254070431361
7 10 0.07092973762589588114169623652457101799742348817907830664781888815905269856846509164100598372286415787488551427213621536958319457500324572090690881809856474327686743844864801714271278528115406654335860115569984664844286422053999409438234408207747735660252756751633230230482912722099538316128
8 1 0.0064991439958485232742255574805698702632530030773565260879556645254739948931074234634936381445659182482530238824206247351341549073934115464790948154541726221177385533961534483175760982939533661699983344736020733012853377482787102740104107546729187646482280246657731104539800964815588496318298
8 2 0.0135453760594944662121120046190240466234842555212382171763100684061204726625111540110483423192842316967990609457953249855761657061752679783740804997660649710912252499346096727501771591104668878257462197780443090796641908654184149379162172545055325574068806756685053895917268066843349401759
8 3 0.022049055214758475808380120008899640943004351130507922280156845784398986561515796472983005778049387095951607983169496463750845790954178289052987507195836102752472935889657188454981634901666092059791137192792478653302890900654051650907202984804287330954783961154975911891451418025239565893258
8 4 -0.0061212907248854356964334665956613974307222691292337306105309710281463282972554400626050978045929507930855215948238883819959622949487158035627550224793687642497601081273397017505217983127835007837138038416039653641088802801192632821857947817550416388466275360113851194699738411025163954619153
8 5 0.010284860387868035884658843157653295959073111071121759165581054385268666851223964776952012325633016610432511289106514428337460402166167193176264796038979029704159015862580595809395271162234131571366517870886738802651532319876865672741218975986321266223526125337137055553437899921727065836859
8 6 -0.0048457694206827607550655221433819976446089812974886280045616470969808006076201418918535578919311699819619889784618877158724603082234246753182882489548410969288885939899481228099009544920038342585702478283269345671460905897799850058406375918240867860188131397703630084233063580280946745136442
8 7 0.011068382052995664100982973049416304817332925066808225596630780214582999718587190814440156889744845552983164981055358541124801908254481242395151997371474382637214494661977989234138534587665164143593088090141917915995504159389891471472677717355578106468840015839177488064820314215893067897376
8 8 0.0028290008015963082100286621600174305858838758161551088927392666315163712946871442808649395213092994551636915359976985200494785697213276242175876833871217450225298454566918104028178831429500347049043825183688866110446701356425505939482236631755054361782542269645575961425654575787271770969577
8 9 -0.043623848863199205108661422179025419947189070524729066092417833628494392424102419681976060567643386077202079626503053275414141440207114470923276081223021846934473354322140979862715651052671480186082285536467052511056817133772540512930206554539750242529563109663767210549842817917317404589315
8 10 -0.027299438794893915074304708590715986083179409709765365398230962351496739993333531977867123739265559622307798658797573431367869509768198922904485138669883033358040659260564423666324036705627756219171541595984807138028595046304372173740511028448468959373348137890263546676617445820367232658047
9 1 0.00031070648514020885872016335863812824424321332784981370427133825838043944648329372141025370174383724599288765230759666520830360583186112071101389410784678183130165181993912573611807035092987274544407385064627973633412272480420448134735470815543777659170617207893284487053442533445037370866114
9 2 -0.0030962981986983812011591148880408694536641748112060896083910729241870382366270766421910296468049009915088372787012654492139527861411298037989938158871012680123369708230572415411385562158918873807771276603639997280291933510241725577474107296963504441901889830572377592533696752375484158910896
9 3 -0.0097649582858402741557653308076687342683838345484912512315059093981494123158482956351330900273679311064113566917436440786716900854147447973898218889813140478192668736969592550351848889670846034962861891933856289591641433536448957455608712516802774573127537631501945991092895419666384416128726
9 4 -0.0049113738793350616481300369362951055300743553429903436859892710954056373980777479754458105143329900836318988851954011648384558146545713712890167442266777161798734687597729133854601088350238908657516866902450508463298632903740141248571582402118573326488963169055939812102040240030859440934841
9 5 -0.0016647635092199418868780645322724196225154832421218490408662295239039392507597755342548011826315302603026493830464985951095024810265469165372238495762678601767083891455104871487900493477148734090853461985786186923169105210530488276052032353746980542652790021058628337258577886983813710074765
9 6 0.0072137442481211007524573935704533539219784340117142786372354743142801817435948581643466832251976762474657958780913036092897508461976239165493974428638205149254469018146884346962121175667944119459820714063172497181270383138938859878394898519587338154216047742626876869270316600086152335374745
9 7 -0.010404572877471781732753337028841704618244954616376150115886926138561591232312570599879151246932179815656788023612653182431389469251902052402641772055627697136515741804986031539438592174499069406800413118127487034098574967020165806393825553591730185422387811722739438862869916778315155960006
9 8 -0.0065631580789939917067487682913631510036334561642219174412137044681631011116565701833770453575668899779234129679096478185074714666471783491622667567971384490144467085990508371602209421741128820355550536323774134851370806531712845296949525666971187275338764655600361805772159185702978655063084
9 9 0.033309863484467107796014635385056434898375219856904446301670362998329622073655286371314942919431090329870107602905140444775096033585989817938282495946615294805671106706381000172767136653800362166709633229689172034757704244085385536149892818260149088760885552176457555783752897667869872543381
9 10 0.030384397391208089634671924897118914390783390132750524382619215353571438606451892259991343549962250676583658503766433255638296225400873825905420370434434111189904905099341938921408186345151366340362636417154970604632357045868040308341659580784655764595268114380858310479734210362040559747264
10 1 0.023880916413065961668079749914832297910262261991101316754302665378261052427585062787629393699483383251941955068379119377580184994667886049920768080339967490519200633143431344216737168199209593336697031231073615446988906603192894375292469886810551058994660121782562893755481209972579265541425
10 2 0.02664821331318716572958498180452757699121813104196604303309070142188393370894030503799131168353925709501492102006812237378149866492952490857715665014181066439340303127142281332459767863238360808287298964740485611916652616561828357663109642455301831396452421246458522716922229929532401841584
10 3 0.079730315034390360151882099940172818958109827554385747422082759014444940055791540127478246748405898836912480132597158021260406452208048358909210265007041952605911214842239913232814422710023517247213716646031000895463408230251426704393969592929720389923845029544474053716480054978103726090476
10 4 0.0043712504224779764585792244384559063582751708269647875147801336491449903232049335154722893010383068433526326553465332017445762768854262832607754519724153472719439253029953812388011596315286494939072705117113415450914352304048839515673688698091573494303002830975265360848854530465589667174325
10 5 0.025794609838341688882836077829183495663872826848110839035453309653209022308033615459505960053016292495790432366944358746482257843153475420227877520587177458391848757474267094723075274961614674599889432921423952672518478570696365343099435963795323990725422852625738717766919320002146773613732
10 6 -0.043399007579254267565011154882224388844548492697831635131914779967376555584292776222282203536291408577701919688894087580489243800405940716357576544629726014372434643521455333813175359165973575428640501561670033473166922775547333923597721337038955263579057560673712376115333999182918433493633
10 7 0.066831050325856289005432894028932482038526246220034269375750009901480226323769859249021688061786692726305647487631891599766779910211888221454925775449315878317178094881931836807762436411628963983339845665273731566941780588033770161399245722500841452507675809217411247605297343504920295107696
10 8 0.028164731665639008640040240139424087840412289594625929590205533856593933600026816428648442608647263142566481310523740735198265802400905848678110397802433310444435958542215824315876465572232753471337932564469808298263813599519201876035190721050604328628977657287464830114065990652359109284378
10 9 -0.20802347588318648899194495910658090097367057858683094315042921993470056371662438714469278254856848244552506117350308763842453784274400413762415712918877499701421610050658867472923029954154063885503310906422652566100924900021045995632692907966179712388528084987629025310175156932216543749494
10 10 -0.1663753211020642879468015065816707352107465118141196697009529766504424631955642987654938153004177524493656181387235409881671985326880206421112210186679432294689307374053757880008184935455035872703382071586859330947293643722027815462046384456080996873402101910785831535445498491046690407236
11 1 0.0022990145972233515160629879145712119720987305239033836923149945889550658842136284910633140255817469456282550613121734428703300033103090964112096492577305678254679861374065522045004915475101536506152006839465584713321683986837921530093532978912146400431864467120587913149771956373096969832047
11 2 -0.0047123073692790387358479371469843154100803284818754708454241003962051091892063079091155996081416094586952045203833237871224400584443894975557436373963215475487186927252382301273592138943674363341202474187786141608306389146487505568141774402129231544477825060278502899289974647360034300360097
11 3 0.015327433239860870193617945061741653803644182130104251422245402673786088738073011242760624956039640706419900899374970935292292797528836454345462902705643777733335829143808615100465503277143082810418183072768073937053073214701736982751428176873226601095406759325931033329430807171257961363992
11 4 0.014923345450426608294684842492510669528357140683277666018012406151873117392192798889015791127061015809944735687929822572208884357956791867260404691847831568079234876671467770039982387141104427160624939607503913624212241593957826267034327414967527577268245335709907889360125280529695792000949
11 5 -0.00063203399022837152203058933996687275053495422098625750636941355724962716683422482025142081832543718575255572160232584158800973171608010290828350327433193058394417539791376606837941406851012096228613499861597899235439509893396948609833153190362257662851903188869691895968039425281118966104124
11 6 -0.018316479159610681153198281157315833660849594371685778168954412071582432805134566492990890090124702372331639119486002981787024998224382856559320449984149162595342111413253399422858677293744773293733751721812923794389366037040981065402595765037448183216850230146165982279372578170457450659507
11 7 0.024052033309326437102430840176211183528145836284763778877507421110431728257862757010248584562679213991136035691851867399703314830402471767025247024843457504654067434101895465167676323402888321838625573559125384609355400663101127293401894474823171097267070943319527232411216803942872911784096
11 8 0.014464034525036880964178875954167849712362156069579682352521789431292630195376161004180392709876914146585880783864292446788268712749618164585697804486346727883856413784423524478456651926245703223522617485676693905813278244978395606222202519180232085013981322500520942604471998965344632212627
11 9 -0.065297244364644308190497506064318449318494223423450264795840972719243527083980537085852909898851913146324058327472854131429198564811978740766149947409782161267781634202116527767926368649809293560078470474252320818782934472984225460386784326292602521291345100118343310901802837799758985675116
11 10 -0.064809504263564315757530022693030587001718161198948976049160795871067531144455657941408013701963502192275110535201705397534916558205991792710770856765298291230386076198387555061481438429206570778431138637863437021046473670998772398440294032765236594462938600928632761296884389500525425867604
12 1 -0.010806690264177974955851017596639274060011512732930882184792260099536407768091060529547834928156611702845036495116652891365296737201101672375223671002357701401112460284938525264391883083681513331694680611398253734239028311976947758297143309043945754775225728052933429126511156630703956139038
12 2 -0.01992368031253985940765579243389453851960920262291432788031516450214373620046036969246433223237675654404126018088102231432807100053185956044209870261061932259049147874606712382830317095699127109291016093108017184017143732715704670916810009447386243647090029797529586921387978573574718075624
12 3 -0.040685405108346246438208719596664277752145191567303779538431995665834735099555046463229634491595122689671722469358180130098766862954583325804360889566253677755122170053671101281791721507145745846767663602143443721044334007250294626421961766105153060751594715228625286213185666387098487786001
12 4 0.0032166392033675269997426763695064905242223916406439490752978165731356348210999733202526755058936030291843462591101900886489340379433162414521858543188468847491076070270022254113731263327759822660405639272414101365737124125978875745114771185766490374211945622931620627469677583468842350586719
12 5 -0.015453292972959792119953683876653396411395452434980934839229063806744770843515057393541587664445690486173305163267524302429684477127704862879816716108648444325638531742218227084359233878021471266423203264904134335146785933909936974346309458176482405816075872013574533533969463487352356776624
12 6 0.016915888398860466017011488994848994294021277591292747950259029275569008771057480988465149350072735234532674200692762688337128345122305611674725039612876674773130123403137582673982924750206948793258982832652330441707231504298154656406111465476634965734171308537849773310172100529709855473348
12 7 -0.028291159166615324811056638901393507674458550923674680576119534185928509384989629041302516367510568495958153113880905137763060037646092629455535241410759885961954555838536493035008901528977756431815593879636175716030497053865853096366380891367627569292929827905942636311694625619903909214086
12 8 -0.010986032323722889637459036676800892467309253923845967852654835895587698114453538166170226893214759663802235589829339873915572418937416141764371328821048231968997976707683111828550888042870378733675826307794580178324077959616919043349969540246512216242685495991482419151482097090298561508658
12 9 0.096225561949752052566265057523111171294507964318186620894491230631319045065367070565902630885199408787273544134451328574919874084852489790182067656315950648217377793785248801312816948593725213251369238988109283072881688022097398620959858046487202931415910637909605252041714282542171848299293
12 10 0.071667089514402136595961113182023872363943731132571644668977707830970271862239956420708210922732178495029149793906176963181416470341375012786361120168268729984309391139636254137981214239308603501894612706585823415848058414373771635740452994551945220101883544329457374332939832351935156846848
13 1 -0.00063600239701550336626067293485562809371477964623851087249207559787341485866926932263630742950294461909141072045529910326483040637061687801436843059293899001097038570023543119454417916707749094480249115407604142546747273441941572147323278965445506144404229099119385941030971660002973234735026
13 2 0.0058192609649746170291163924428730640599541537372759759701213802265416365206561060831117155518324451616384039344764489185726126349979373996264637807464415240797660592118535220703358101319938514956040370551990592105279249414740174691580929075594135436611448994931389094441352083395600216629088
13 3 -0.0096384652531727257946441985723615301683474611470110486696146483755311813663049197598606110895069547791655582903669521247719107736027358596224864866067268135976947399308235411692368393486873339581278811846116881557023404363684631434522412386119650230413637505348157010058977534412101064096714
13 4 -0.013495340043553961226224270627081067914536594193983828755269944815883519614884826617729343109436357109345803577473764629417083571663500989426287001563751897054570721512663133431819440980171977632509297812984642443608245856617649535052472704030032556413293612402469212102394121530072090902055
13 5 0.0020297135678807653876026449632133803826699522455169136518932439205787065014341966901436367830555396669649985113427761116214924599265514790191444000825956474808615923761492270244866944762150915917262486685202565820731441049476420362089206368030160284427504985614410967107556827388670946803081
13 6 0.013930911290462742164934358974399494129054420189479847265140930646376119670631370155788174699819704821951412964510498555064822372341126724533634921315823197236409124483531230715489069153485242472549888907541430027639590032968905217722081329980398773555672714554336175551302053083639250397794
13 7 -0.017963857947470125707075106927445214862995126198181551036194086558429660148800506979088245180650612418037783612191579967678757754145114451181923530025312818827912830052343283477559718315009949771894732244634465175252521740619409186465444477815040290890072809875949966930357297834174973702606
13 8 -0.011592086610912022583187411823804979211575300104692321989551352150448952968493991816303481684853287510611780681905798636900679380374660350809062747905971306756868076906158997375624575114157503738005291035013548911258118171048673571918248064222984164454451827357804161948348317844670161261117
13 9 0.048205830348833327178729821668690968291149857119490026672221248025685165683880478773156257789427399934228153943993492254277803894915694161648740296681456340504203538828871998714606615380143846494206871633048202727621839768432119424357623919963943302634375904352188677189328483147484613732401
13 10 0.049800620016724172298437802891071198245407067756503597750422181333630784969868090483878888922660591270903128083459469329674303261518403392502786156008673257239136349680264558211066983077337678434341508990955975805812905777175170440963935840184519831756786510924483188826650015429673654750163
14 1 0.0015201753466944773648889358327528697853790556779555649012125250478548063858039463106784862505612179852020487842057770628718175750298540214200284606288135637559666465266209943810367095066336076054890494863216199671374892051032450026697578660811426222160847750299158841264628613690548147744711
14 2 -0.0088110236592362645800094823036988334967302274599749517608954447997055105485159034893315436333896426543163284212308089819644463934292537831398727313610456701217947577045923178564470695575406687705992230522192358964985234934740232138411173804686289793888055010425318475941359887917822408154103
14 3 -0.0043027522758283953964842794715950001235267194321843929623312434123871757288175887637173562890580473815021243841782451739227197161875639366195390315693665126757094282811104863666326702190964146584942862765661068847224160364912749787750714392362123679016266128524718100800665167162048490851387
14 4 0.0047452821313126573813619233688873248508386005871175116724623218863819318460037055149121235430108970902209007312334891478950197980802511170977828973723708187546395879253498459653379755917760480189104057016604809603898449310909520279936215199678833974631691163858923040671305273934350562870008
14 5 -0.0038508249825710359720839459651395098585491846061873293537093743524650915471816910748389903527670618458224494986069237343362954459124329361153135574514279843978515526169006710714986873614325804209866050537550574746135145468304526439829147810983885033781963588906074914839884547986389902141412
14 6 -0.003763303299231322593048068224746571604975919142796976495313459826106765884833077618286476842660614621485473079106553214332324757698733574340662540152528794135141729204931034943063295487526178976391470858780393610936100158954313766846119089707298531586061927156073911873655526614839911610832
14 7 0.0026976420900373497652196071312098420567313086550245942241230018928569459965586130202092664876626301820202990989076759767650043829630029704522817208214537121205195704879427848900749393290685883189934152296079376354347506845197727695009663907791381783387381473873374805980316791393254959571035
14 8 0.0014756146740261612783973845656102317342586728528609790339155971041016541927957157075154938115502017216905307895389418577427873445903796093524082419615739690905157671386320012217288381239722911038208287063884932098864501072524424627566266425198699517504596180683474324854475938138049327343714
14 9 0.0017990033808177344855351489646803168920333513160854665395414187409315857014671695032639022085187044615369265776292754668566510638851171285194219952404065494903004092758332748829900105654774646372396309225461500617341552364960744206591856977016656888808777774635254528292279008121810448400967
14 10 -0.0038372904557780099234567280121864762714739163162855910299409201689100155938485180091423215534982584166098152630079951121783327808866347438161566843803999573373081614294747899302131500126623752224046429552508805971109789449034981318573809382048291552321710426781395975191319965233560800958764
15 1 -0.01657643580653730721595687945676955480159021702751067567562926344521942611224737478756297501285122194933406014778871453798063453115152977070156333260166975377851984446056741377211512811354769254086033544576558574386305858433303734225861728720481511770016346317589220842239531501007409619836
15 2 -0.010084228418467699285461867576177781724540268918069341677247077645281703164902950171606949843246891475498952290718016462997063472375024977065679677801954503678489142836627827512960154569251311767451675590245785366208615045494497473367637029921175549145536369459657123949113086970154603893267
15 3 -0.043021366327058018471494656649049570110983379462114962835606518741696712408024915860719168602600792464479025281198363458364059358294041491098813089429563486314522003563826401618639911294150342479583814190421533641365011244728789036242622532124258362767166807722179703769587638578302944605651
15 4 -0.0022629268095502293426151830010351626866711336828074979757034882619056060696425820300985291340709072512904377637895855863496580329905144472319411756061236208051353802213956470174045884951215210127537611605184336996018163139792724274548693245119949502027068739668950913777264394512012998282824
15 5 -0.013626969825899704041170440397528526679785401333822642210003906017099935211506673345020503739835713900024743794014600291246261793577121455042501303808493268298824135082936726300115044021571491592936255561222660419946890525130524108173801596000021112427260334193630992238437967023646284613
15 6 0.02490103868278396660660695329222548660544990244450612842663361009065549319963270867488022939670229479190946568280156401480340452466905713257856084250467564618103910818153505641732910223906995196347184550873367088185499715379324491010139911683577198167536187151690641269783636845029766112746
15 7 -0.037703760360760778399439456219284681263831866210713487393239712318159052086664611584583980412093428893221904342675360039548489175814198121835104190003833377330167762512120840308297210420856575274285438790512101331486295839560856303348224754387691253248605679196481510321240444590681010416762
15 8 -0.01463735550646706929037048498747103345949367511781259987636268303395775893199089036368116043817421475287659559854778949075846321517994307599210499611116962841855426218933552002769552325586805231246312732529513575680264826495544794712173234735004945735021875541125736042992168807217211714078
15 9 0.11186406809169071230909348888620678307087138443125001303249886130683790508747844298374391411278840605981809097587881755789492652962206831273760118822223261158958339646137918065059496106711794401244031410334225367628018972635861341105522034124788766422631717476206607182187160558451969890849
15 10 0.089511360114901534431000931360400828224170390873254475665990265612663144467965085301062490438435546944844781336121406838699508956323026827314468500102030169516448571514562450979607229699263224196548972818240956223971741514165200003218176187336282747265973712364096954540483195595978947942472
16 1 0.0061700480788314516916310078198835685859242060045466793009339830128304107534574136285942137593752197740343683017020884588770635405145679998141916295086693246778666817129956799130143319660365748547380557091323862741477050099902319715794325407235841243158250151544431684774074200185955622097771
16 2 0.010198375930435284323338332282797095301630044926368045034994533766921340127893230605743992085406296482348890760375093709251992696410122467345008044196305574016330326311291784885429531721553227658393471874280133192650669896987887311442327896925114745663406488208205508573623292100517976934898
16 3 0.01467225182339110505548989238268424917039338127641546937700081442193754091387826355123830985157223946680560078786414986784101371964906799910350148933254815297104850527458345508761360807546082696890855566513522410630819777581073776031781526788887911455654596588328064744264978749583098554275
16 4 -0.0075707482669454168251895358889149985042763432143496719461800064887607197059284840764755079244050344358570059238744486090338006525888516443328320289621090076611802856512427131230618631074584755103816341219960527890887363172602232139531636188153243725195374584429242146610435765642147973928484
16 5 0.0080215647554276949662382165867479320240803880275130961228886003559703415694207087036328047637248616300964361057490708767159639075689821478126522914727278665400164306875698810595259481936105808415629869049091664697683958287002783343900114654073939726719625511485141321275592413930192304470748
16 6 -0.0020150730690699512607387690953811157775745343784405119609247825999059576791981649630458938084615792134034974232490902313965029896851717942763980907275077835742544033147400180531885204314665982037194775079586946989944321740484064062613547901238390667797803429442506435194155252456819280085963
16 7 0.0056426735510360666999336778399323451294719203690261052859123195755801203424893185538826425943268933363709781892828473868062754296091402277217576733493808230511887993867486007519037999947162978952933207684114824701492533400140719523131595797828272155622047656156929120721005215396262062131003
16 8 -0.00033727957263623189834250182516915741157142757444999546982013062239812730087342123321237088925810884748203894747148902338546889797743587401198180194867899005740247293608104605526202730288581191159572401018654829832151088375993357538203264789630540325369938864641861408196331853802587222040767
16 9 -0.023105393638755150275395521201112094768405454418324420690437116865830840247845953659946016780386526431950191980908155748700624349903599438075556267669767272996741536362325352991020388317577452311553598783800879331145940434577636278370981820087215654687942077236299499510068875168249351206137
16 10 -0.010841073883532028818006225918097510774515631722735151139357624687181019512172875677762488006912605616436157627369808150737610995348439593457780477394234430736454450472042145248332235734028803899839837506213264124165104009934057280899688596830454005101448384613904582993924720807837203289697
17 1 0.0099813323229125201662751838852819585933466322436384123765088848075464424591830013552717889870452042154418186124915602790014048348829442736961201643682202118893523723467079456310557321685053812425906796627260137379914825701599182695467878948479014476950840746692725207983308248957201730284814
17 2 0.016927688737027080658699727628746544226990355867008559003243189800136584629948001266078698107543802973508554337703414547305243974712417902126288201867880895274542797997292152562348559976705999331529621289125466466229528261351622591733682764438797697810104394990771148826169562687222883595281
17 3 0.033781380009719573967387653021193462449211540717700550671031105475661398812647917380716385360557043277673974775302772247722096003149647470886595155890832756165899081625815514028540344630151742635995673249006929404067417984148579201394172549746862196042512487799252237694161206704728393581696
17 4 -0.0046114626315272089874800947035089824605914527622643046337994566845852994557998244199432007808344043156126956550623704299754691262641434849134659628919038417552455916857915453264914267852072527371191022408793535744337490790062044843590477821146053298330844378675093953746564525232194889482506
17 5 0.013663769845893658170149223706606273567468726463002141594045962045067261908716253786776760453619105589355794406385258057047704452695441568373421356376536511326636250256376273634134248784038648209755708304887696756714561311597435265650519117393681634142202655901973244368766565743498085451604
17 6 -0.012548571107942931388975959216230001200028908577595752914177956476200016143962755831017099434873813656224367297002153048661868092279019093712701317968719537109024804188265045999298666756002435912365670416959939175926883500203465235037864989792286204948404002090990130480553042174013689096572
17 7 0.022085501749059631139574969832612005246325704845959568667842103263666877175026068615772874985743840139182699627338200418435598107331461721794071842193838160462074657726620503055871383586922224471258253510474043091961128879857143982189804490976890148224465086236503554966827909406343868192857
17 8 0.0077037158322770529863787370279756303915889333261232874282184473531010895352054715899490517763537804148453274009609865833814459636784060117032998326410733175415955085038624978621861488515556441463289823479590619397636157515060901137554194929534474890848547968630094782471849047545203117646379
17 9 -0.076104770737635852596825684337700194650782922685164494949904847777079238060408500825102091392540723359415715292747655730963131234272300286452744879011035447290304434765031195951777680737229675069964797430139464518758598560865105750374712262325990372441330564523319925046483966487316588038667
17 10 -0.054515898160446879255079783487557590509240355271589907115914892086491393372867111369371844984300636182308776377514887440474461523649294564617282645038166031855151781683527954806882868930342970380434895824032990648230695917153700652981827530265700035698973809551334216256288508760270727616817
18 1 0.0031124226152861605372851480665644953674313228449278328280294610212764300485510216103210166705819020508932320775944461167678950880686633279336077529916967051224530776931410844772367107328363091723025283656343125717622249776659980850053590953423846225190160308551141764853945072491102771629973
18 2 -0.0016209956395124314635781075429918502609545121197114959698542418163368332392026410671460473667833907008445575889751512740093678462856782740963176898392928218050003182915592092205140042271771433235512480465121762609173711963571149979441126003368323783563484164857811167081422389418556044996235
18 3 0.0021082533868751857885506073046072081310652970395921134993015588525162352314935406645404296261740918580723962837496378670823548927438982393040939908635026418259016097158859745797903056260957605949427975403937637729231078672708435874502410985542209137736569920976121226464598387946546639646325
18 4 -6.8102882208290697877504503538190313197288554836456867631996857260097920905596920164905097120398880569498605249677186549325744492918659536233911749754251023579414150035480239818536620632220335497412955979338532070127364428485243265405562345098800780086928408677519213929423919876102927676264e-05
18 5 0.00041527385655815757725881747059599306220043017174782868912275804711314122557256123531048493588472866292899879300221149528340249371367469102657000307597677859661960915432287978023362992280763788010525181339870812984294558650430419177845683777234835372199884114613608550227392814523018968086302
18 6 -0.0032342351652740855584927054244896495257927811994522342163254810262797496317948829067127964457521526640649333085808613487899525946534519956896285616345859052670291058349413110640932229742495192223776352087739121457261355264862419542142674405403394685906183826321185343299275335152948968520018
18 7 0.0035666379549537323454782763167295455389021864505636358171585904063369273429003294308173317364167660608810976943156686947779035735769660641133859958435854927888875592750479485138631623280350234581647675416498710071912853445038083432441564054034187102719932989734909037265386121414141545318834
18 8 0.00064984622399683002616000042359744545473439052826175647070023585895749242268121204643603037065117577353651865223609436243698310039617555725286136595308349480943951517301497626715694221284565362063582798646354329847214363252112178430893379360499187538856622337104656696307830918518952893771293
18 9 -0.0058040747919410672362077952135900162546026940001869965936564649699661607772117218496922784627043990206752023033540521955675067790165102660722111143918545065605553186471846219143999663976393240558094375831212658404644263527742205451633693669638178872731072213538080166917657984367026421221272
18 10 -0.0053810323817484310255941131323402207948482512201421181977980718738019411382527233796279855189787999427971682747364384534232191404918061074764467994538015440456265723019659915231007056385375636059141644553376567966558955353133520775509026340779784594419490486201253448868815572432408548688473
19 1 0.0098904132303665719973436871842205819286905258504040879918931958623068800046402860519385777073420054385234019456704682292129700954157497687422623435499609683698436296093945040116479963421503684958949811454807070579654643208125441823543383843438033488895258547447847952318407551724955081952998
19 2 0.017135210919772677043128453611215124724468968322246023529840063356463686910776145281248617712995974630085259913463203996335381498526752777103481621479894045191994521546372006342740259553027979949191571969816415393740779406338899427546674540887772959564596371328277830602631358427735028892216
19 3 0.033284702821762641277533359722000476002823360841153548657990445311471434707806362085871933657434041141842198082612864802027804941018364373853203116645683605949502290058278963775857148314756340389201034654163661085306912154855250584160461554797695257686341818667962271845435442858570592642023
19 4 -0.0051841218467459349171120472824357224545156342128166788811183024719534989605667794572121058500201404926279740910390957349876842306239905701611110528821957253398403084432009666019268561620471905938081098584481136815374843060183690342325586245241807896165184649550726878085102601708866779666945
19 5 0.013600257836370752235636177663255604319203732135835454622991131571067743225543559576097783350811532769647216476585250716299520613537956550746503291408493759979968131788665179440372311010794198130037353479653365185617063378340539370017196757700837300641969479678832475092170612008458398798119
19 6 -0.011583631816979221479609048658838834648723032058071740747768926513280626965555832062791120422430338522680562336391182719795816524450813729196142270009780919931710821482245465249016041665025467545607790673699759413303424504600099618958267580240898635086815898918308433199709923527768137062783
19 7 0.020853086371052247050001118684891427672490003465922751782891351670249900150459474954745284804738262994615764029426406720298466656323932821298737152807439865882523556581451006931157381236348578129210096675494023355965846404028120575671247468037828385640623082547733566700383214390517640727636
19 8 0.0070224847048384569344625122394355615989176087440305310822740172741149916396043670847920667579412703959373293992218472744614810946804006471403388537942632189503673289780934616324158598034803412838616848327137145854507851078919513034571311094627506029193234615547308626962555185512932220835504
19 9 -0.073798204944027649059974789933946240064574118352717776019039938279663240179954754926177776194982596853895591094005620075858679571157081897846344096484413553212853843662318039697727550968860121758391381000437463670565069788391607550745146697432714539628140490217823143506784363061965108515392
19 10 -0.051897503206741933346269775647104637289415028923334385121160819610334285029122358532370610884774126436438090120437004285758973631039045069128638792054194709023805473332461075402771933935264523859899481832314269088679054520878910675793889561924337500027188363523253314923806479844663381521442
20 1 -0.01384478125238631256826369443290916172810626916008622152717913386846132996368114248607194445655068246300115498027379997197711561437970606708279481519401962210162727901082711887819770396560196748302040431577219813250608767816976823825539027115838539997692013481645879240793074804497073648612
20 2 -0.029308990760670426046424186922256666324789901431635189358398256058272165938586131065766569436997311174540557540745429446454496699817407489143014790732731624693016622279878146690928401735835292759757191113509808347438796577186696942739711555716706758009555813008545008764415492015217027380003
20 3 -0.047515763113255810237047391611160791371221213447173885513976780388388866709144620801629429691884176732172899617265716113817786224883145374053755312687227005772387426301359332486593502893272828175705459501127843189066955001662725764032090234190929113402275245848639793408618824827677807933846
20 4 0.012067161891217357437594391711939044208280643535752802816848667018671872855056729501504945950701384682976257086771735924769689926454380420724022199502776455322809831036178086207369405793118622834134240165545737757314516796165470064867791470343315922401921120315496543443551506729723044543904
20 5 -0.02152433723438647570801838541757009348127157105512334751171546405819242411850683667495161188211493604239294585203165533213484829408196109360459099953414279165007052398979732547417102553364669586798382720971427618374026687698141240182224287944704755143393770464170289848147761473162860320813
20 6 0.013919582247970109545510255732017095479849668141453503589330973967884264326176022562774884418863160567790888004501954616722948476995730914994383763024336954226257194976405049788351989430914033363570052956848439439521862553798796145898501840244393707590345689459479163291163407198220052104383
20 7 -0.026638277003369081854350498527467207165892658219419581620621427054524693458816826096163552758343306656413956279586669425069276997311661505822052346633120849630296331560167110065626123258196591888841820907048462456526666607046386141286943367342291677749535761911141009734783551642617551658092
20 8 -0.0076402708656824876626531170544340392309976579640929559275418846159725331587213651155138956626682447042041331725836868650326474889201432167469547039849040621981204332008643182942709135651021648485126933414206328384960444620090807756277861539560846952478550438569967077623052294105885721120951
20 9 0.097559432313911369865876272240008334514242349120290230280741603929980377952199339358087300318030355414635217475986145266571922314757935388185042672476147068100721704668770248914254946914371175845636032715980253382544342846061549201368847323162186926992686485950397635825039451028364792929453
20 10 0.064564122239285770656773268820777110288907347772241929950946021714255205431635424769736180331828319634491969681608730329263562983562027300634860987928953666565122609062533370145656541558932529548225461844794481209173792812543558404712947102693831747523697300049383915079691222996616388638379
21 1 -0.0053347671366046620395497647638137237863395067859697431098405032808046265039285206821246244784306426932895111384351007174872736990174977762883919402641192212483376911577175060445379685249987274587895936374629082919329123655549409929406583889123944690829630305357417357323214999766736739644765
21 2 0.0022421207629192227470307831611964808480616209716445505967834467386838226626149743518174312955413685465784736219712381677118743435521246558228086081480777919478713920008946103475424945059505395472523331506537737038528919130318576783591651181512389928348724748159410111575575636072816059710325
21 3 -0.0092628447751473884185215590723353574840914364816674159382183321382521894411221126434624234359620418694774492526821327900843174783688672959871386300668195446327456105983009674193979476599709715430091024397467572507300303792664529173660008627432498627305168308393995204754041959224951176389445
21 4 -0.0034813226992160049380499646916221888676582269097781396204841284082529118581243079587589053312567291660174506132342687164055284954308565043556633882939327252313189513630782430819800728525947940024437933061642889525618941963231118476127041779736566927103893657327136566738241661204873058780969
21 5 -0.0015866206836074497283913237505293490952547028788969383355840916844916583452468817225663259600822865734976531463881443203395077804979606140297535593378312423566315034765494312248357863987884963323274783276702280656319070865305138933924398539742921194494739564645746873427323005086734271400572
21 6 0.0093912861836548919640522462593189190328396385427093177297210619789468447938753947861715577469546858909003445698249636379973082576249098571738053695672693905139397495645894317488778428636229461524534657173364223793646340667486215815290912743751359236682554071712767157475450036804526669199453
21 7 -0.012362900932989780505397806777279696486391489124284086372567502237922023666229656926608732768898229254059128531665121356003123649891641948682906855635121503169087621964986316209996447255820731124733922767665539138916228434011577401632387129814655641313526947821062115486016590974378098271654
21 8 -0.0051344927354715080355776686994751404032104757672416123137861996035718321082424436182842651709255161986364628574549506515860738771549842873857600434830386134759705482595388268921254847578785520885408069699769070461105364795114443040373273033049897773613746360454571322090995398099488224518873
21 9 0.029903946044815503994759781790419022789819008119514116526082520398302815525583116060717117668901651665802171944904431867524084750245545944067736153046679541308049429951511727125997806593674963703393373527093623473866414815736243605330896343273821198791006846770414017370427415244113415166192
21 10 0.027415014868198067197954462717286890955442959343002620562598685344297067750197338088831207080150913000047738323289486724318118121930291953071533888295584233168172884562334900569438940115677970725176219290500674248423348987271871091119110758514921615942662847696139610358344083268141732166864
22 1 0.012759524952641795972579758698823111051437845127799709434678349490095342367616632865322110805029814583244265299247457621653261231208317496017813473634301910342650129887829891340191526055678243192238225809375366370550876914984426085397517211694810689631187747277904133995336574720322960820055
22 2 0.01799950203682806399732312265603057398141392398081450988305660570478303805859072892906882938517232257919278714299452994448341222209210274161662259061824773551397918979219459440310486098448254688082000400866165218335541255159741911863931164133415906161207886481635039218327358951073648378687
22 3 0.050321246796287519114315895152405635234104697662580739820710981283356565731613569168373309525710233944154490021046092345266454402787970853660066950395571764659237611706311584521429406370876392609878523450811180215445780043667723690504841368581602130133506432306898019621841002968454229249861
22 4 0.0044456420718732989005037055379560930019951986143552775288675502561771504886920829455269502456204434746498245252329059196671974012796681934486387585892554182911235556490194421587632777768979832921844089326315428773121371259656948521857093458839420054149088166670666738973946305567015978743145
22 5 0.015771905396433274572451977174494057205199931369777573877391956033481460670273003824527666894859312294134562761054396365918872055832524427884825724759319590744547294846934186087680932804589447503732996296098217347105538075071203261540203368781901890259750541597850279068165875757630968353059
22 6 -0.027629403458532928793611542726671532948802913479148285889839906000760946296698282269297171063411965936965135081896101995632191839426563394180600358022060049258239323934031375128727794985050909419052805703841917181324722311029668609939149609802531976106278122157965415045645006632783980689725
22 7 0.042467665705818568871828401125303747359114901169282777403102825187802259773138522975011051447642972409056973191260107014994625752000706757573088509358680304266618926648340320842564734622545684113975018340249968872448877572620990082398668891394173747300164514298710944538578141298340808508715
22 8 0.019087475816563914642509656000625926983404671125346944632743723708013221824479932867196913712597074065302024095594997071949258597719585481197132745979703137668538208968391622333448348360783448138716483333167210034608788835346814322504534316585152168867844167345985089719383761755966099764546
22 9 -0.13433952483091959203483888677927847541196554215569261202216295794940270188488187918218466781885443069748613319224748056505331045945288350575183308427424368564952126827944024381331619559081696635210797256191721301895256534946180301246990108490577262282466146023580059425189113394181832896214
22 10 -0.10880128955652027125053402341140460827312181911279909981577688751012741683074842775614802793962127467182545935355038987441710348188181268597276528454664404315260871484013199120137147619260612322726888857669312039682557956322580770531649076919672207582605462527393128033633073313008887363793
23 1 -0.0086405104306832187528917440953677411481441514692539328753259897084488692911049336446343877201024989233955080115354895087369920799996216328017570860045650092426197847460381195576018280093629985592975677153643097898286505731173884752743360579727590689511633672764745189680821785677519385462898
23 2 -0.010413729405905242978192094981854768633935000635397291334341436319179813029162632348730047130145899251666755461727532571647677159232774540225334951054461288339640443006940976747908614003630440353416606306749271591502610464492591731204836098607009162346906031120164281835917059879434205560286
23 3 -0.035094156316986192235726901331799569985681117937844937365741468439197893701302671195462870982631074924596973824009810201664984963052682756496054257223946696854819252843209107175397546677112230075029405400659353024445001002430831662493656514145338224041891990384167713380548966993329538771484
23 4 -0.0060424573143535594284423277426680297961762825001812135123021304881312392855532324831559632035570300613905096286839430547796523291084990790897433984808529134759909155370112019345388374710813993476878906022000829239629832853300150580420316692873074556336703556404674571625098143674523648304567
23 5 -0.0098595788052156671525405061231172969462643868139928180404585387386362235751622499053697941679015027920297785049793483620691441967273506390553091064144419474061645685344663555212989496524593101404592627604797736862372583362667376592197613548948078153630251024060785034321162390364907763657139
23 6 0.021997197539913738865709211411502467548649514660821569001714297734840291178443654786663418967383398467380978361284637154964214170432196652780354913558056582771660896239231452031401951575093638530331486409544058485631538816012647627785095765264196264517189196522338060743566168044598634793589
23 7 -0.032550784956667964197102496694006449373953968848738034660290609315506145178244714626820365580828024329533937818180156026388402047762399117290980273485250970704958947913614840981052346020687248238112936026557431608987149772927735586132611238787688295856443512675042481188699017352142038112878
23 8 -0.01539022552512844972404083326868511051833894983191859624686354099868427921045870834978558878504722813385462425645663671729997206070370396193509306152732437308083979914472684288054646767450258684567546110424089253158331772364202832252501762302049367206905883288445460384623320291815988191753
23 9 0.099237037420418103500727271660259390205266010365665867515123688907034532917999711689177096829369090261557590915660141632185527419534194737542899556784156539020834386448332386304977786649631497068169493814972464391546696032765408696397160665532800952232837348215995498566284323129554179924384
23 10 0.083389021851153824263191119151723565665349905649559953758571523630879653295237950043073566713984487861597778911953672758416315225952303544664029921783414631528159343836449132153019734546330053231831529612380391413244313084152735516496485746307131566825815961177897007476566311921739885354201
24 1 0.0038985257026546345665629091826759735851109180685879630680468172790100031835548649492390628617579031873261831950116605854366977911563468181994607983222474037813790133033277434877919084520601801090954298841128353684633416405728745454320015012258061802163908998991197251896835266176142921030995
24 2 0.0085276991175661041418686918509824934137433502182961373665790273755208706479469455629583005879185297762069137461705122095090361789970009582344330278121224261943901433976453545930794063835590628735831226134137061716340445124757954959988624223439415752478094985537170077031186694080029856332118
24 3 0.0086244856707013542159741149994113318169674148673849575006102655638307011095925878143718076703470704318680845915967808022078836067635538096153760850080849511253156632700681542727556637680255805446505240832737533337910312896320553214147829166771241685321596944163349609028686587155820342411377
24 4 -0.0078298503021344751881516622938472151143023110313155328695744975255814136504012830113913495983537212087847339417576181683656020064976035513465186565071103305396233555642390791104469955273498798339759708400133543576952021891786151360386328086410983407540158979807903534489226341648833995382292
24 5 0.0060195039557727483013608595956869445807693027361308367139409054519723428653610106752373834458993286791142890587639762948657281570905738094723896216108646839209626213279073529272476465701367954703961506576303962357972855968930343556595993313003650071994412157437354715839711559541562135474401
24 6 0.0016709648744052035796654991664399810288801426929922164263658562745234902881568858837869066645811609108840336948783811752402201428927333925599121661759840230177371279055047283557588294456140577123168841279285528595441736182754981378935690239503536826690236475912927777606714650804869535082083
24 7 0.00016079085836310394918075944211716558001078457458122806763515204618110140676858552603510622415973356651042200203412920843580919937585035076072088900774407964992903460528027663717264438534699518917308121693606836332854651023279193708891365559384754798564726799733444422381943853454967075236101
24 8 -0.0024872800452175959471118868241753836239756243555475850920591137508617491532871717117767894705032050054397321160081102172594801114519091193606856766373511945210961197358280775125253878875586153013642015804287574503688832110251659714698300663079669028012446662847642820760383373701623191956226
24 9 -0.0072852843395080469248421863144488284045968799209249845777703226584027278836199248206477289478226565762972785660279732819277664117510884803165722827158480210473328062681084003213612339164311447239785625363583627915737298005124728340557556774018350511472179107544152365913064399492965445307803
24 10 0.0019696060160248968826143613052443002335691157934465900344637029621889438405102987843357000114480821577447258770363903373073866312077735808104307361002996174618346183245187681697215738571582532776043853241882903772957823363470685816619423919269235486328685578430344954944817623529770408262485
25 1 0.010374759460678076502457961525858865711365124126086552807701550258811571922700275444600220374724322895018574820359204397467990684660773832920139936218094913697328537952934751429051763597741729561416411247874251713279065070113475939467107320224017581399966500337253110924885578383291510401375
25 2 0.01751784557702930549548403438632376021732822499607133091478164201843194108933442253990377748935604186631181333524623119652037886665866255513193408835091582901354520975035220804327789170123899132110224258102315982636154752213661073308689721539784987028056959289508734739208638569906059508071
25 3 0.031755606687682651745285897256103959335288854427258910484225611757447924492857824365877534548869505566387046997500616915516583814034458678510653310126184001875170221523544327043673545602111719213850667153674836887743564875871313657362282797060041314155253361278129322103991885071566241939852
25 4 -0.00735052971979071708887690744019973468620613498814614289616814844586875872959730068704153227166550824016261198502829033313123235275562532837550929136561420388984712790556300792399112950447191115354344191312081494612658451132905278956441223523007778016740309078211952529798318126912632229429
25 5 0.014094877326438865938353283319780890785378720854989387642609790181578892750612441374143885530214930702187687372431442258600751732150262303623463120453561808171829009159884647259585810726492739463665829271310631500850030474468642240208527150857694906273542639802777476376654305129726430602899
25 6 -0.010100025134016116309228369076304433293011101611166102150841023281258888460134125541911932028654823195975276259283718861057287854795935891957068861527991600232672431343975423471479519814766531798682400798679967996224532516729576234891598100059832876701723877559251964611131450157632084528037
25 7 0.018899292676378029689441433535349731985035294442375353064500148058539217711088863760650804319250446351202854194141974859353090897315223560612386203864622286382188741260190838613204470722124667589090757812988543564495673137928119515571048145750467501827849134508150701674378711598595865199716
25 8 0.0053792540080294713790576727143691432224610446389460600067714196972481848623446402266757898759672238559422024161312601711885493534948317858658493355472566583043990860875914363038292043817533490936645694347921937694817757080186592911697465645917916346912127493537466682659883045136822143681342
25 9 -0.066247072742513330445238512021399738023776280356639529788911430124358827570674046409382973130255506201407145382448628682311212231432725932487124488668456945185969901267108766707551092466433622492801556401216636367494892832247137413729386135223562726116760718494103886481327459653798728714113
25 10 -0.044559395484138416815041640940816375518000041790034948033568226343318673846211713951310904091542871213361663510099982323200117497766739757886549238570139676927378246648853374902589215384976306701711123588850436353462328391264334065027549990123469165149381655906451125840763432859361745813411
26 1 0.0061411450712400974882711468687594505817064144076368834046884854722261932648709537503406808196509950863152912160948209455659367924799735926540041149320752553705476151756109087934543299037315567837606868065636282910504193086687858068236860425880425244548202008971707993381768356903601187139504
26 2 0.0078514824673269917080199257178504992292315573901803098348857256041596759321689726854507295486671776444067652064897423639792719472445585652922029224538439631843672008281305669006989213410429632280594868884956423373358169003726697359635839083447080617524619297651353898406279562694499441642819
26 3 0.032357714457671689841425726063150225374517298269028689580832150468264382746657481697838396280502989440803155054089022856878343776521775598728001194556501908628749513964587361315242577505081735560608602379659946988565855552329645416472061501436864964019494796575508757642847711514896788684101
26 4 0.0094542110491525495760651275366679271216501147924698539247867818963144272567735392198033034658053359834909506380023741192163096244628193244201974613648493931745106408660994562436008879182777478188711692332075086651440549148567548830170552014956350236201061323496151723846316664965495768608239
26 5 0.0075486175678425483364234933710107197736375503087495542888613041470308809760795288184861590390825358472377583105115763298545669948820738404679318911681067251784083472712851375078100019277031295177599647801655476542624660605420380134419887774395829633263399933039887304947342539350118015256673
26 6 -0.021295101793715995547794526193383573276879616998465104834369628633714630198187401982177267996007395848638700084559640348082789104877401869704497836909060653961180960659137325582710551226117371913277024917276011206581382945090472707149480001597735373941044323442697736734862956582798928660599
26 7 0.031456286199801831787436460420983494479789238213117516016949630067747905292618209635671881176216374466338229179763957505919869555885464734865005926221330619134107413680190341090074603037593189770384200624914294487780417430363821387910829313433636142981432974589860750996492661186616317149062
26 8 0.016358942320363962296620220619231544792831647931127751904112369274495183560659133416317216153075804084343025041711521829730425405549100198681284167904676637347602237117182037572418694480550024638823017638675390656428820597678702681847554562944816215166688271525705299291952075715781567986137
26 9 -0.097840000109518627414249054483708492405619831776552276120274308743156438551641098314612368098887033725372125234366102977454255386499309994000161999640467806602987664119584413688225016854788459276929053401826763600487838252479605406133075198442818671935118998041929786956433751823152536922596
26 10 -0.08442634946854667843456043904416987039106813764759199860738192305349702410466769645836534655029761307478489288898727285452405408765322828778306325467152635404295150977087702774218956780070580278140589230657482900957932884284759606185263134640962224737675893686595164134104481652964325459505
27 1 0.0052702803092391431077580966338539601359692277643331339809720339473326449257060653815502480268441556355989624051055072163073362504695323599997418413584051271390071785577062843393706601986221779688305961387713626978253634272823872287503736277213570020353976520178462203456585988597072352752784
27 2 0.008804840273722473647404614950000229063197842018912746018708868318479097487135112532416598397813209551782229733308646958144735441907755365584746923104391756072898006464948122479435589160863618515901769049189492666275226807797957207913508834924149439093171820260940958925734831496917557159031
27 3 0.021289924397827585746776847839355901705602834263601404309120438396942644682849588711056182819106621874446549453209612652495201610580340727081838137539908253991936074853807261731324890461721643749757956150354008367020118294854824484877921170855773040258973591044135819627841410083021348485841
27 4 0.00064763861161432201789620194723394387751894264813486160527586708498429794496282029828063317372253272332330515305124176474999883723467256118489286569380983840530100880782471119940209318187764560566596867670837269369066147022077110243513978990406547138874034097820077824575890601188828194038473
27 5 0.0072165021523940916814294923966192014065998762121636513942430216452673676883199145209637999165702115703554103184970953402532251515244361487992574098219716910980353549823428104237532205034289888749060612063965381413982037584367756686966703814343643574883142834095747672669843582279476274319917
27 6 -0.010410274225000196151001849919516251119560089492633487156339679059392896878197684438242735969224733571821711267608982268394232928216341710292983757445329509837147360085993599988232599127091322970596193530089692148283541545667574949482912345495173921722796440185585043911707392408710879725983
27 7 0.016647156323598635569108007101565170212038704155606540496240867324586895270850558366582107249021266051171734096229254196226284219255659636017497183958494604717110150900019557913984456539017558203530069095379024230762401741539259293794411613937688734454221603570186918787608296665688395966064
27 8 0.0072499687868076599519027833541641521656769777345420916193728546809999331275343268449545286666187267946491320371837503492539125771508409509807939659696757958237211641456953367527132299099893823268915610476810533217219629173299513422851949308066331104884477404510402025334699572162773579233333
27 9 -0.054532975946778243130686466826268294355029360074518113837379453183854181478767529234934272430228753177329671560260637713479557932772222678424270650744792994000528442501315484323841717300650240096663911562628811525032418443994011200187398219818096974748966654113209919861553779821551900830888
27 10 -0.042882229320319122108275658888943097927040811929623899219886351896355608090903344675717506228546504368626262098077745785596162184837793638100841736060530306737912226516047636040437620367992482069628368845923795006829506635554476421133387623042088326543276525922782945788335893795057580945021
28 1 0.0037804905347128015996528576477086684236060417609709090786635850290326052684470992539831636560348493579777953666829358781968930291777990833151534181952704725446322456161915771593539224006936615751741809939115881901002217074091439267436948365712699817935539251663470338404838017630534933014936
28 2 -0.0023900143347005946109026108613508156455241039288094221505340736003905151252161802172429720538462597920901226385185162198315752596274352202834290848711545624072823742837327893938834421047602120108586800706215120286353988957509756571902020785864769934031042992651838708840835775797203718768743
28 3 0.023183847045525077913344051839375686022772792972934724670934021495465705581011768723369337002134942521328289278146356707131790417149841550687321136211318068901503311409536508786104672815724620827221967576717294342125576474824539015500875362211638862672700704463418955594481098971433164542657
28 4 0.016738938771682177598860967429054621572326715393543620503648473343021514650334570037492067218430732210560179721449414389348563597978461273903327769545244453906987763409808069124518842574766890841225134079107792499021113837055689668104343234909641008879235811360306827458633176692920593533045
28 5 0.0015490762466169332151393884450953294101096348328775497209440515198847165884991053289421265394681685784035848373431174291659597732628673912085747825655443896544637588052334596020748444923526355307215807268434203786889976310839394613796314910230954501059449464308005577119769968024501964409415
28 6 -0.022963234979639825048849304572063324988146733793858152032016797165453678990855641668483849451817435691599108827200274247801759179121155959868981476867046196597397173309434297771448145226468635833806744234655839140766047287886186691359482622138572994313623459016204489643449503366353223594363
28 7 0.031323165381696535038176544706996844294812866112146219233785082981989996714703788295948853961338569402707943288979423018197866596283197044596653973792564472285525898379170848668227679930708986620538118457757940119737528854080990380385484143785879696687171940665975287215339715940491383989209
28 8 0.018174184214244336791678744141747234588671340307522046602416669493490484998301918039629169605010629270319887802196600860655615432366409069056026758670392210250019143529435695933360873945071911979387049615243535459272981340267035706804428432261573695099775806182156326904832238455268696070926
28 9 -0.088134701384983540838530204882636049587775273668300507236254873764648090943476513227676173698600479681013494764139259177459445783023003831525022000290883216290276476521117910320838422863058273196793222597113534182967286752117219228442134331310005834080272151149108473120644262219157911610467
28 10 -0.084102340185832911190143381207222716985222685308344044785547476127715490914346474274812875582915063307151655066142778178442556255278909983140095115085320689672710415190418931592169080580117353615803782294845308765880554952797902399321841338532537431939596164111199443547979126538859628673681
29 1 -0.0095160435874429734000750566111846751437665489556104653149931394774799823983480021764987156794652377590252573640398072162488255966984928147120135020942906349428481321009796326275733977436454071291802885544719200959515384443389449396417676947507471878451069134115044271503020167279210436549884
29 2 -0.025169941685792543355080850221546771525864037662521593856146147707459172644814546729475271184096740024382771511092778542908837907200076460241930688055023939846698688646391201588495886990698184540387799638488795065555965063440803039343767681969771134092008567979063418237740243851784103934929
29 3 -0.023565247059620224231690681106166520797981194054533150096585905930532385581045304977168303485107142311821348876519464174722070876614726452821243604694063435898227397409314018721967887327001053916794169188320292385529537050585830589834024208095736862420536488361390024958369490666052421140953
29 4 0.021646968733215245569900703912010427393936279039318970926712599861717853289232847228868407103873704259977733057049339253571098830569006886257138078347749432705129729044634604110200973077178147174524340023807112811885641107164281508906884221702201562989670698155113006719093548701962202763843
29 5 -0.016888870763416978035481519623725674229030369703851222901762946246023922687356750278449909872047488501836614447883377580634898138356173044210640544520754533679561691007472702364417014410323387662529138170911371776718780878246032590208130735915395962956918655293583191463007393393112503459851
29 6 -0.0046845635051125977462925263965644392485158465540351188273692486665149634439307111277596322189515509302301894906382394382035866970949877160495725571581336802106679556783412518717182858644181688745805905705050551671106385164812745014092137665970785560368509005915259857726408498046308647965588
29 7 -0.00037981101697533513141487898818973136323316667472963433753042563818303396571777798207037711853249959236723037251181897556005793893836133898698975160098712616609705393613505308809508614288712406551646882205825690403935615236648943416566699212697280906353126824944227266820140494465710968436973
29 8 0.0064734267096745075632569967710554905853268385121633659889657475207925357689859800488294857000613806851160764222937720376780419583070515868965964768049053057759817696427225756544448624495217122748434560618832456750310366731979358566853456610926533949157103004295727014001094831113189518508977
29 9 0.019937486935366392376550825069151747844000925952032400707462825710644384805080951126163399841788178708411536016439238329503457862395105767941035127801120535356292754368033736209372014305416629822321317694944368731863248085708086542471915044622498655895112759735471521028538958829750014320922
29 10 -0.0051222374627902005634596497446552842224971250902904506551359199149892997611705838562504930031943550612782503363885027070054535889473965509375407801474930481114791712231101634102509913807433321631230730013886170479715715487182985022068989319716140664405388317439486076942046239046506054534618
30 1 -0.0096856334914684955895592765002302344238431545904829060300674450144117148996423158093000981403761432048031780742667411359425033976740559432262436742452867581640794309004833813553940102684273612183303296103332250544159713703459789117181510313117341781166795890438905459351062699395019694121297
30 2 -0.015937388861826918798188259968595848747152931673167079601467093865065921984720107182725040165786311066368656167587492886730048917250922376840012592034982083746179754880169703393409964344396815851586492068284854095217026112483965923313192577946962900064652676276237721219475700904771981159195
30 3 -0.018547329746741119483932645501198492537681821971848497881112177901195746602027045321868936897055426139988827499105539079571320666569427223508644705809058233553124904186746480650217927305595160729303250426121143026465238101792170118172722331549181698942976291082890831059367732214208036814789
30 4 0.015328090251521928674630004832775280131953302010145658039433536417023347046096909963895214239112014715582609227907788040633427089046630818044673770804560492486529812746844434088138902208924114436162700550083976204304897597703400882926222963868349360211122221141995420804088910672584659388038
30 5 -0.012428548673651174783495582452303603337443771887704868908393091152924010568924907383424093543709567292867677215832032232256542418951210645232014014058318672775735524600666574057598988085638214921608211019578260201832892068940211157172919372543850097938882832054886363596066582641456132706398
30 6 -0.0006691182498249834144173837348044319329911731931363167706738728662011325577396434390250179299205206430021861090981509883553329900970251567285352688409438175183419208709834795193344221698522633591571586777381620883479447905470321658144775529642120462205751096438269872552222243778138272403953
30 7 -0.0034633488963516545750647907471623204579070710366176296813025996831932379063611899466151995626571611913620856908018461440838227822913890491436899108354599552381367394662822025308683963537332178385802009130935230616781062680173082252372823560079221623703384506196466388312736000137095080622768
30 8 0.0040437091721709751987733339227344505175132664822142853784499016492360763937464807897554232544625205960240555316096578866334200884463842559587171384586017572666214425388164002728721057173174210178235000911384808157204654977741259425228578505472230646990690446545901230449150068073857765613749
30 9 0.019037802555197139959352544440206644156822874394355621078073999258214851060513400323372628300994410150763374604166330145366564840143492758608434024949790816702191489532902511544743915790412825002681650707119122746648125519925782519684650367288199286293194511178467065929806917837461210225684
30 10 0.00084881503144137533386662932140237317643831902934291719070676871089727731529594389820871943535952956097403215768956483210980366948542860351062952330419170520072542137017582060757063815425726879917042252082294457469207545915182794623158188605509558118487703015056432567340021177081902381066644
31 1 0.0060573423021902278512114188708093010543799920968193700311733899869970025585680414308017374043768348252611228215184352297306236822824307674067162091639431737970497099812925312415783043128259842051762388010196738043694067786964653481394354222861232079682374790039338532866821723852549087723794
31 2 0.0032350524836894218573506130080194303306041593558696085117669650676312292662958746670818993906368189044917226748749883814922180486682619200631598376428988466022935167768235219407606080785412679374997629153296675968740838600677912857038582470546691878851195661347582362213314918354588387482275
31 3 -0.00069753166489701521369240318772231121251297596517943012695469439629204422953067395897468723359480239545981660754108621080150469933694444900451136516848619937242453566280596688136113127184754233380383424222288710628377873384197621561175320597690245155793444754191018660311595537439962575247398
31 4 -0.01177675606716224664641101062019267882371852615413286765629025130241573109248945946674647578392483061371708275245840337108820435455566120344758739447313949761561906911408702497275622904335202284193630678453412798590021381364759766082079483322846330934922158440249369158019566577939750129051
31 5 0.0039136703572379756802668798830196426132041542203152662614308056510772003636136589774939314036832139148620445430622303171530755391693541781316752237932459078195492187665821296739266694930664507859518313306246352155343719404960691589797890972822965998213079767540801465831079156806248482192775
31 6 0.0057044545500213374055595702719644664527164320963199025578376513305491013263200158101279941844025408392107461142085674084614436687563297448543589880354611190684489381353695739819436655503808779662499291162750851172408683841989345221680309459293279976757306660427885354278137484712398906021471
31 7 -0.0071341877921901895737284055426105914399471166088999893458422391410408627980734628511388800354347994575999581434378771482955921279513580384798155408303540261784201595863150633814643494608149829079423819394864621362887249454726939868449648284177996243055483981271108656537617855701136177933081
31 8 -0.0080497556707258321967228242123175652423529199559103106664648869186394330789452244564703568000742564827220914911758000303301746509941220203131495943638943954557529007189095853414074808069577879263166962397660277785843920837020643576337344663867971055040623961505815472569115957041542126189573
31 9 0.022425356106795259982491919450778786770037162728705153827854516468185223887744521128368458444619324848813453779580543104452154300827049166976079824670301925567663317136698777992184375099097900264967420897389611130848906372181522815198701791136939657035740147766284989742906277881431672400663
31 10 0.027491501593015036942556297780076156480724884313185520561412443076662459303686676639332178376220552609716091038222550535814753816831246255367904448049443919266407619036077371411486723849170124881153215661814590557679857118445344276322927003074843958215654985621922356745957925878682687703905
32 1 0.0058252239561768463142961216621288900505255352748768690266134911495723697671016765267240239550220240942673268622301297040417213677576433366578024873503767741750164240861414531043181920124485922484733556286009625686634145179037303043177202502527195625454331291564663012518414812903379299700428
32 2 0.009913450834554988522755597505751800747040319438966583162221290812973970661015530895290193789554085439663984892139480840145120833044000393235344650545023357322785896034039315012549821617417587742559942251465350885546507628720326884433734752359930704139609234546312298256167630039869423238624
32 3 0.011210221279728562988672784526867444702007271815417973186593477988109610787414717672643325594454957687991563985112000510889586442693529622006709959210671932002099869856794960272139268999660201913547669610184865648925043895278932352798830719313832038601078222374134560879342623782757807241577
32 4 -0.0097021648456986991884102725114342230702732942094985976376296171773947579110342041165316274716173337109024793417193908885180352721010757461846907320275848088748767204800747847258867524392480296475449894118115579470283280833207620171187358526804824923496934142011007373045544178615940718617668
32 5 0.0075947756900523967088197828086759458045015198861371782134166087441269467640634460484323963758749900728777501205713799746554512307915295296425330877228104530084263935512326660177469948912693306713038286717127721443891376623097987898767911229835228124986872676281205041148261826013744813530173
32 6 0.0011685484032250538687103556321883396173562808572267119206950504736094438836878926861732661969098048889076623968162556866596031064909800290030911271058484937398905410696187412296230413345389622671579039258073020796280011223483176523444186411593113704378902802310213062222069039822394540354325
32 7 0.0012491348319177668308513198034007327853293601996283818844833916052910556423599546392257020689736328769831884746279074526676541849191549506168421532063773918670839968143919453866621974823113022512916362957999455557261598467820386334681485521297441135766012859743731652225119619553533388219771
32 8 -0.0029187720343139699061805041776648875538767078508828458193779191438463364145071842270120838615260278177751122225517132220855172274656914664638756180793888611665528248912367789976306302514069087313461531516093005552087456500359791614463304230816938526622841731379338094243402576175778357467991
32 9 -0.010498107676027537060710637540131548469583224680162614685085431986943102214029885157239995987537439388018409559067665013138145519689262936204693686367618147011461942803309883337748096859689274528840041024061460120683016513161477617832003693397040892032335487464562706408634171850423289152085
32 10 0.0010515200835849640695137208004560115337246957942862895695390612819328997097372979935532994515738958344105168460528247740587591088100472324201780791282098287700234001893295206000525738087252263551278762842532832114585231087773062219689698396266129581763772170911874941926505961017968398072806
33 1 0.013548374903742915316982259348714632160413218473738280700665821504791355140974167531765418689456216010467201733223668852067193524216150709857451617143443351030509501579709977153525033654146642091875526081892031593784618444366410249315285364071021081551867714196664211448728843314632646471283
33 2 0.013823866199304745720988220907447797975196034091601053915566227885219042269406514716691660544064170308952430973544453774177246696076279543208418616084186717716748118034899503819599803372279780734465027696864700573156155694555002457784501568981273551462291318236976875292326641617350049199355
33 3 0.038347179726540955034881313648282283737371792727695757799975132786819903410066893947225683840660050130563836844297186792107236128285593115462920742371983930812784600489624755618603023565807749509574257414978665244224003094241734065246859644182498398626408666412284595730602659367653596602697
33 4 -0.0021386581943506519255207079731558331263244964534979029323656172683138951390950423576688130384988766936879493507208005488197762213468359870878200529608983529921319358675776802945942845575796024236715511116893599813733313599134754198796809969620282100052641577525002148080698163887986448963775
33 5 0.014000090118505428596025665858650481122509070687222686920923206562958844800313495241228297868041108721614890130686044924656561996299508952597719392716590626132064584018424846151459504023869694697066230129574064096324821210497253112435302357524681751546303881086955071822741216919563379420772
33 6 -0.01746031077319684147314106434228447002845142429220958686545293861768202816125638350768240128420974506284072077352211986183004000575476887992636931240562099020426096580041707733947557369287394946588331931305578152307275970756194074167528046668821608590787219549861916815100921867122884681099
33 7 0.02867019041940370886424512256263925031965908606031486391568623213177000888827696826019468241703907855097726926512588877127191698261915647056767261949873143713900102443427903848152250677685426649703680183855527876013777041993200950100076956767540956604895160038395059112352338541818437136193
33 8 0.010309371939676961751813488427727433399436535784973267847915577992432032170579336660038266926190892201025996516367057187485249366346166132134923158321012865396007709426533953036971371876228978031874552115782982233442438405812345726801041824484433497319530668183816104283606427278260369988546
33 9 -0.09182474924862822487587185084638464883494498004999658770969162155756143368191410425659217462834022215456624847772684262113785122496218602723192917083817722169721183348369223777845699376653774099719160022918671261151234074990706674455344952358042225505702478849332739795987525721352096086423
33 10 -0.068977784441724077084153317962134579005209185500037176519294427348384208799091469945762067005330380119596734752996883203744190158460627047835506509515466087767007383082820026172732950811858901112670137355337149141966697735859322585254243636030243023101914966841738440038603762194731089933422
34 1 0.004428884147094245038610729603114706543975077628586323651436794952938880021070900640467281364544960340171364997402924566345983570194861636737128339608197665328090082311462789688343901521680823340390566046832300594597156280277361249255339097592703839299260680004670676746103804545381668258174
34 2 0.0050095324109227219182716990273834395667122133515731767796373655068083768215763915420805087127626022359657818491509073990945083655782466914284326351307737910647037696663657179492192056804688951351556221653419849713907269357643801561110004893309678786163151717397978696496283480675007394951191
34 3 0.011271102000532271941332439717026741749259874366767936622655840456232845445329491400236725543421700943374331700552231901493606920261022458040790763154557846489417978337355450775783567067586716160622143352972914047886029068686014319713620621086331150857352583310348960288693205511760280346297
34 4 -0.0020350673652719308076624961312658675042904078103339364860035625819545554529209232078911009437208873969842678114982301264921220476481928240198704247944558038885180847991871469028046805685671253056436137260890906282438145232131933764011001405230073363440107857365252344679160898737963629941171
34 5 0.0045290478685037224515314670149245563087250346979382254081266765554786093971704823453383696568697567023634502110074313409555864557405293282435008163650209186963696966685830916142050810373453814949168797464889825953162937759053108667101892447821316443646189558329360382302994107387364525570661
34 6 -0.0047980245019519749885477135803025296468618878189901780329454686537746573891912062696147053127951533117559575869725319254719720658801180402953126732667336136348771311135203814673716793048192821523679098539127432293379354227931938710486605172003669109767332132148094531726165656859232551744524
34 7 0.0077185342452995463690775884446363658589242691716418901875943654012857873623860639931778379773515540155056131058283595090190517011967192926330840856140609344779857738426792861856222211952938448383696731261194634286713141459395180791865777896047790250579601249969083959267546836796333175950563
34 8 0.0022324040025171533587594479473390602603700330752889865172557202995190104217078054490338467230849354121068348345851130327548392491406218362741346052959474855268994310414208158890504388562033358744403855646479058258480859073538945999913000363903189376361884871290908551753250478297069591370359
34 9 -0.024838781771339310063121114392470872205275218655557559265095663345806797771818438755547105869634832391350616027761831965835171808579498984226229647682484447452153108683510868244850011122542285176770797717279215335427562937743480694700196162047972222709941521757104412525595733823684785996771
34 10 -0.017664893063763140439808174437242354344874323501617130781782793088799606198696041504219839858176611464023926285997341033183833538591220372073299813920332023750543114215172441643492717305831488121849929645842643243836420850622958282105562176438463853531167302899581209859175679334063112563637
35 1 0.0089776174077843261256635126018683334533985029149054104967006975701723848030130239387815325473383267242140608933837473808065294540434875378845237950513019476795742749670849273511217370769039290746949121722399881116271535344020689819329178614534898019622962060897112033113661309500533484107937
35 2 0.0074907866322095352652726520927497175532565137780748163010822965453071855954842961038254033016555832513013365560917527403753728749505797103348349273313818515021370017431314046261278900841458463149119268635973016856675068603636768787225877723274720646459440966394464596451029318332154897556362
35 3 0.025076186999208004270638343766724133160460634964524798638628460525570125030669297594294334845701468112355976114923208417950429750923011406236439734018025940465732593431535835672621658528892576641733674323497496577685776729806952367797360171810966429158731240570718636749522151268023818565114
35 4 0.00019928858813989615571045689124105860919189024760401019208837912086601119021264387723071261554672342469874235911487077532890508715657842281088590470141538148596110430839695569772212389141057409082700185855753574806418926974482173591025934360172478262011495841155685399260754248222683964016303
35 5 0.0084484560464538690109146793131483407744434690391979044410229654253371124450186447534991383582905972842710051369851789010065550604882287589225124704223277948167519322294139063420603675505855029558177350307633928456912962536683242448538634549753342287557735118493914640847466033019658285493228
35 6 -0.012836270474053638567017385856328142426832274506949857589464742594327993034211565166185814999069217919998400017139894806385828361093531039687491722607210948130160955346708319257562243269922319036021750090072059711358345772821560279515417320352372840047528454499792497104308440658407038610251
35 7 0.020247477586669278155867864702395869468327427286615614754349671701288570390503192105593491869886977507850873254138605650341114271093204491301478116919032406750560127273552797228141354302501129841708224785995853686406874527901233655481223505454796367650460645294318861391062519480883289642962
35 8 0.0077329412433540632695948858326828387433771934916536347457978338336083016513156000679439475913216994396614845594296293867112896190063115671609470122261939693640690840292364220069101781923005206847093886463631161472581733469013810452976360802483479185038357822568235860913241122348685240953145
35 9 -0.062916425274266289638663463823467316197170047269974998536457652409171831916317774817119496638892908150119893503114396046991103531803671952174485502686303193266651641653820114737150053965643015714284402549016019203815685564015851012174744871782777663681982996921877600917849965553219577575938
35 10 -0.048919344888922905125271852345223759082346798289015268969729482880865185171433175328865811540551921730375487440394800628252232946267017056481179785054932861403426787573801122853628459277750917475816543638514899365500736614247870474211421384259876351894175003889945831242280699504434314268751
36 1 0.0040419530382815096776527514185902035035141569699250345665576830429835777533115333774002388024477236503057265164345890720785938774690544274204741831509865994582182033182730129525033806412480579113582221869854389502249237985922676117966532168980604931094352386313534893774937901395466565560491
36 2 0.019054109396398644814373641000919352925730221355674851669597124660427024956810844369463246282212595769766559283771942416209830651155184366061120955106947777960791975128299752607670040497296458891968903148337296987414946913001209894019279436825216649993750301899819195549862820612943208928814
36 3 0.011661707084831482268986455986509196474826548798046474810318605782407389854700068328474507456779908035780989154083323115216880684881174272932081263409332126741109392504683372059785234875192882421554366501594365280529898946918977516339553254171260547390452016048201453593328879931880703620138
36 4 -0.017734088811839250468984460910815556174702896905132435613061341618788233874480718507516749251856674162396209640857044483841900959431367717435685974311001165393496151987100593554119781372827032138507644874325762915084475446588673727251259039001169957970444108458960415671623046478164660561316
36 5 0.011386575144329811161239096274104759409850823586221283644887732800274845080697420104391965519174987914700697226870812118136535334884010901021972698995080225500271301234876519257033200883710314572727480187021007346502461290279698630089991159053800356859383393799879355295112802037348971075854
36 6 0.0093275009314982665875022206928278799026826113871312403358861388182389242767976104782310935070940986706590675052590803624439590206136237272376176596438235798347785454788142282953990794287801484088205718816346785625228604739349145932310440375594522157441803655786525531360103900245966626355775
36 7 -0.007168007808313591605312656599154588058324327398439552290892249649929267097361686049510972413683278187403519320635959050304510518705117528110683443840839955157596133693666996959566699793060127822054822107144298985939232171047030526142487109308720682607822841083847055009425174432816938676026
36 8 -0.0078812475228819922533680369773722791237393913092482027633713805755289069247355595483953006196837009638196360775700423287529726401763215354931556094377953946059131953561256606518614712397129006594261343171829515534709125344894721994599829032356051144646515467937802744948513616873228690827881
36 9 0.003410575505436506216550601111226337453345540481355130828962482445772570245430073249824078916508127413682308336657314713840611349983106299184225233739377485768185123036133668170251381938396546531103775571192293354859572876032238963334631044238332110020483928857134790501761685396658149776586
36 10 0.020405549356499009675852509349866290347456245369695175958462856515953607387182763818893703330297443902609429326000496801858948543201095828926597078899752362136199662737908681318021743460502062694370773162877956788920823581386693723371719521038234858087984356045611040856545463607588877479227
37 1 0.0027352952158353726118143771363469456638703801644691565946002497180572259064075422172411398368104427104393707667975765045668534805895452968467382903150649104114588871021365329961670186445999663526125330369093998207824346142253060208055743062000793796730221233363907479105245750907169746821235
37 2 0.0053689534780121490696504598396734747722734029248994733168285175509195213334140284668337880792964790772908894960509609314914103095982178011347070430996457988096964552929048750053008601602181525210443918346896852435130732959739200484538358747416599653106852260952212152197637278410096543481473
37 3 0.0079190021982255558635741550834679427741481225068619658648400114935257224848542274204463979927808678924688689013140886143436338462421478041134605959829946764489658569924555851942944314409825588759508160501264756828876178242230186571944573239125827930501918438693683270769908583626230092875515
37 4 -0.0030248233111663952585387211159204400134916937005095665286636135689227268774611886306052680958183836524133106179818797565771311814251980437764042974526528124237001695153627604555945475538954150466623221697933083445120077973887798104294773448865096339776676555100638840439424733440836670381572
37 5 0.0039577569280806552791493488349106557877360737789345311716135592384532486923216387381873368792279642575903419000589987234560266108661076999711379001933560687273628722359401364689873369618880440289610009372550700712655515140621924807704057760941145748087189616194709224268176154176920462055597
37 6 -0.0020583352167737741742844861254196526803259948082042799356910613893919939328564674947941822762403223165038176879912576856756186052919826567180574108312586145449667448446961107074712601081738518067982273266374647887138387379315213255966646729564326726692563060464841474593536282904672786927148
37 7 0.0040109958285877829130823147739909307258730480672392987191190730625834146275971310164636687433927627193920570375386513950044153390870079941094749829318287180733005013387215824203376032352038260718721321242773490377889564799697573384931947149760631073156494944834848224703187124274680078835117
37 8 0.00069233020718908724434798250489541501202547144799859465697470384231092513919361368143305512726504996528265185070666494797628462507859662366455317360580542655321368923790588051165637893552993020646936539258126463725968035188732056170471458134586689904433451598424021596279531270000274789957798
37 9 -0.014551594506177251802794223418199306511421048250575878998256815921888361722293872746252394396976697465667530731626500839926671335595517645960742737190128790755932722058079670284520540590818638031104839364987015458748634564127691585921635324587515316381658575605892026775712843019758283829367
37 10 -0.0087496116000857745491379832112970523670217786153387009682523169027094561728633244953839393883955116625643947834329263675826688889024603125172699670625272063740663386173198571681489353850847653062765370125537216541136661232480869343195769170156963559953741468451006358180582368444613145030013
38 1 -0.00075150102933314665487789864107733477751107055293558234536774371116658341364194664196479326963447463332146763087946203255822586757992862930820427810504368330104478428610069191072886823945017940747043877284136927218189310402271580339657418142048909118657179683529467212982340582432003962981724
38 2 -0.0010142170626738708775032167496269261888390965954251999140011576124961730543676493961322445135088176423204013828393900218184655976013035779415775817529006919784497609821549269119102312321814657745546578862040918643329848514742646376136452967259283375143191495223697853410579150209209818708059
38 3 -0.0015792753460372674964659393500606706107410994688712988857640750814277220812211893037505261554401982304901888135507837672056472816959774044738791935136399808366825405990751529673951301017720947705907145323012471651168844716568030712788631169833544505798084404483163648693178705320851371108897
38 4 0.00062869286618644352888356844408030136431908829515090513755704613891844980991087277413372003522002995708045704653692466877840331929802749249131635060576378993387313988178124968984207855430488193162500907084653628229025139289853825365999806580519042036182047624536368624708535345816899566464143
38 5 -0.00069797834816137979141216683832533485823540770894590182235395954130672006741281357956211608978168026656631149541811351218840830804920261503112433892262405308160552591653734171828553612383943174873307480400630742763043674445542186402028057238768235953362848411470794595551227381649032960330346
38 6 0.00084857971296992854035271572932574178361665149799471460873104405551337973773475314616923032165708777268125148911468377965063511650549164979268710039945686192791750396812303889731183398930401599315817649704486624037632470598696004992391534457360625019481921100071227279364026471476247239762585
38 7 -0.0010795006839883470274378941323655410944201610485284778196021441341690603304227144369007047130177161090267771513999740096850266507048695266279513708323416880241008972510243741541638345651295010886493313535353828028341299768147361099970878476270304974891001936051211402096183435649954577286924
38 8 -0.00018908554131651875424893892234917881258940844184157119122046446314125576211724385505654315947749917596820352716930124496857378610607847834397229856460072789467144027951664867201918037446214125970687684057148137020731568210878522215335880491983931834108856478019112580810513025138106016508656
38 9 0.0031452927528481104256872440299259715668024481926913640103376875521677902571375690849111261773839620502393568363941384847785990551050773021413047702224189401357726881337698454199339092070108980413728528616315589781994743670402158084877967874726039151492005057141931930325385095832051518400891
38 10 0.0021594789901592275516585254146021059675846310648230591417690994143447193356234638027314007683624346508287076656483605385521999107063001525600282990242183711677927102135018861888589982652862847402976593624263446170512188308142357394947078632546414519585653741193149198523923400778161594256514
39 1 0.018143937548635780446961998875217060672018625282021309155297390538924165916898367902166182823298086923328469330788336386576401637815577689332083907235873610067207858892405458528463953018275583189563475880934473267079597847383896791363420400929439438459334084402626209215957379839144772428927
39 2 0.02339969668781465239317891551246066477913184816311648891254137058083690035608476309524776688150303088473408728995216890375802525683392649989495026887388522298525244806803714102832160802352896890397482318149723463306629422955219190306348436748430101484344099934136907097636298649957862816952
39 3 0.055596090112223979118273225706767313146965172009213118468628601114063339210587384679143837527158945310196369451784933325871926268249259789267621054239488740926526942776404353187034234930315952514646303364817783847716021066105407802390357905171200042308947586968310257471267660147037425686252
39 4 -0.0042828836267545100674217718430869406796710177310908376112582190161150065268869219685298359222234353808968393569609729225930413164920566497769583334748015426562630092750941400443793806271620745393384066185134288005211992536111929956894239687694120154532824601371030608601512863038415128201264
39 5 0.020647226919956355157372322093126219107729343263857964122184945392288088700022217976992802386810127704671840292055887623657934619711556254273181582360635190952199763431215056129101705638089316692767407418774597959802147693969121995687937535501070107410617791576100801222967248173971680304077
39 6 -0.025134847992267743425399264294135384009127283074928307343476799598110568181888350849344085862237849835850616354263001062139349489271836108817250991209244355850431075785590077770190496554299191694615782092328384522199574636491128493342038518817902777932179715786221525522761009106952009726
39 7 0.040600732153371595564485247716889200371249634568414248154914294423344166561652633892410305806214935422749335310157461139503986822383105496872485109416760265211788431979116904866893366032147247937400990718901919144321006979708817349357889011265150932295094450761441771705450314164496968673337
39 8 0.014748560426320381635462484077309958914586901832347730141657132289247853064606226984567069108135166513817987422363259446480040784933434232629737264108998265063913329479776280950074884313353127777128388507707852736473115801209574726436009151624754181761751022990178710306965286786621012245938
39 9 -0.13200027649320632178336327999033896277217795108870623657421689543131346183067191160468362226443386576822149458588010870015613594363611709317912000418289525054175179323611007604764760856690602150481796898794474397294009960946871606457172408582659080329302282989116587278840164353402557170978
39 10 -0.098862398914866359697965543300647928064287523057506126370247954303445748871562526859253846877080012884497140793426652426431701841005913417182885428926902786934919551270237429236127790367990930991128633165935257969836689709046931989000431620070551045426925717461155225591537634759907882067155
40 1 0.016686408078143800703406482239599479118107767151484844264728497945336244450948404599091193136693231967547701083591293984759311602179391864865126451303472332443824702428870513793023026659564531216555977385985769089711068858647772104599465482439382858161237357788732781618491737909643195309979
40 2 0.02475810019321658572393915412177690897276107307138303260399402400354898791635865373872869364125384091887571916336897194208846461307899104610189492796987249209864667662582760127000838247465809934591066374648508044085374190109840134761478714893656167189969513986472684996309789499283440504689
40 3 0.053361080931521857434644507103875753067440936015176942273998455609136396267720764390024803386267101135265665538825639654621433206892785836411889340032834271186864658474263813492108495017304204123059199327497310428941797095314834685551840698373438148012947072258721992400424853675522779945452
40 4 -0.0063623076845515876470854314715905154383997105872442878128032567567191146340143223067350835789519183819079576811054359145283515912448828717310792513082289270794134692081753478995595078629159325414866305946985232366737676622355838846196499430164921495978694527822747738276041624900644898068882
40 5 0.021109557495680310064878848267605348535344728996459402255377882356355862926014659110205013456524213266012167223664880242638140904461077749786779947527221052086378990340768595554429527545612852925119397385646295669141751329183053092662131662142875009827858426757531640397287725667198689712593
40 6 -0.02059535977611128455627698912579103017599666436819557359144812443777646475231337204193623693896142340160266876900937410859150421690125997943970841805485794411229079350817693834053104266052537251614440039191188312547280850163576137761948031377436148829259544664402306657739335170189012910417
40 7 0.035851081571207445800071177998474979380677734514800937888221102983404725127228189309454415968309031057134379819554742749017654413310100123635522182427585345593473110279737072004820085565648693566137998484945253621088304895107293630042717006966590047493802684388981416367996084086581313047553
40 8 0.012502944278838245061918822650338434061445627353378036214458812619655180798772106903384090026524482848297364077080465102024783014194716367781448276716382951224666413822762675879201070621018495587730677896011975935637283014755191882543893564444521904773037063810228677428619068057085492252565
40 9 -0.12172243677523253531209111395938932060258786404536846267797699817450536242711400419579187848325977413074598228810603541892608915221704285559575515751865101629169233275637432688808958885315776763882899211837938191093527185201091050724011435254344172854382648319133953977477996418758653776191
40 10 -0.087925442600208488283548812054143020901508119823250164501149931263522175397258920792530130296081556395600769422504083839334565550391962944831129638557523010711480476003109291758814968618455283947097651451868491611464480301008536590249659921553122872309419492362857062666284582927080217565857
41 1 0.019008858208933015111756271838241496531612353256492381402830919507348738672088346035559927620911922701299747443508285823682476443854755914478155689496379006133124815730314587051167720474060225623742481189250894504456631285794736651984382258855988798447794750936281141910172136504414688573206
41 2 0.026421759916108131756548033332376305597993056398527554983700472890684183862831094447439280423445733988750104177054305937431473234331550412560778016755029509231430042277553541941328412484381876619678320823877759631322077961298438618491376304797810864509232718547825031016772727161081521549993
41 3 0.059315718682721564171863440911392963537068370380451130035631390360402765622901347487092856943947552191982463669652624204934295084569596491977713692875844434407822910307055878145616836646623554173391329438987319959762750397366673240672046218021583506168039292695132639885772845252156272021771
41 4 -0.0057579331047001505966936654774939580113390424895498740736751058634976856523547714753561957780966553790552009116721184899923945269736098029625281629361905438453467931529872458929950465566756604821217047334308861592979165966418397792650003786297449757113154460878302017129284281030698543724637
41 5 0.022860192949761183810591027976615720430556967427484326134324157294941560643745969408116271612142363186817380642991203871107767568409152665326809168912670794943114616373659543567741839021793754877401039458714334246866362414109905697192712532102946892291759440180097102839831994459830248016075
41 6 -0.025991592132891732316480577748456415796519375374320848205197757418931578396927371817783989511474309429068972852847582968689163865569144388842738334108524068167421215064001869084828399631906557593143219145749803838387934380720009031238679111822917693906983210677480164599166182179886197684026
41 7 0.042671789171650739540474461691434682731443350724287491458959988205610977385611074912067685591545391665816441329080633321191095567147861970564812975511422955574049319029280599403546620811600691206460126015531987854120924154242584977994032683772029563471251332060584361704490224911542927774098
41 8 0.015293845802141972524043536656969419501232834869602688521728096757315873794772543252410092655833924511563415499440212575391698038499219671396834178736562420198025437792098464900363672223459534802285050020647293588609096162168548220730468196561166614550031434991276228363681697011786746513755
41 9 -0.13862830124918638073903018920708730077511518079145747484624083878838232995775850003584471547914565317724915042930165575801543043072241963116339536916790968771941173898351865779605461800033086091454694490748423046941214549716484450687218888426233633357142586861858012204946289097674340162697
41 10 -0.10298807273881107796447959790186755904481582528071878046837825777564878679773681795002472656043343331253841838972595330752282404924204384783632969872759776629273702314672334032986630901838927383852432573847542022605949664859584516632918230724050330400186785842877556684034182923972244087094
42 1 0.0001298880487941177573177866589885061782189668354205254121286987376482588057582983688222621597649412386189700700856826879319899629355574301603159025202942330520072323639642697213261578762423671204364288399733550538557293115297334342348769096786793032400051103411574003063497154883486723463814
42 2 0.0068251128623702190365690409175364218436798279828728986502460509508534908757087528819798892209996904341716030992550342848855184196889848376301836081883294789838779863340543606785939168730817382936209279539763007128070076142292043875355549272421101187390815153978749165688566227259429975779446
42 3 0.007047128490126756698171367622979871311758261434343297518534781404866241076264879488232555241479857421080903373336169187675671093547275774103563421754778252183939964767950944433197414897483167581716818717247009600352153354672096250962964350553344014962067829691131904469694145115414267834275
42 4 -0.0023128761919884158318089787542161539873041395518103606857398586506541762835984257559319889839274966918356177469964774864756230961801737411175689272296281894430087984825971778001023441216365959073385445311321210868251684311888833849127110494765191077154468634581323297235911126238100645035594
42 5 0.0036721461470334176558772956625302084015348849110060626271402291720067917783515572273372638192781412309718015489420469399275539345426623101705241603466392593749300174436563953000949102951445936751328473264350753953282847600574974607088122804551672921401146550292654081211369812591857259096384
42 6 -0.0002166579937445202869324543582975279131243479112170202965601270180329124783689534051432116605284652141952922540053961557501217938930082771926968691300542220764133760796312168002568220939231515574130421885615430254181001355858064440619273206377593035258165256811321856016665625686442045857935
42 7 0.0022072474776707999638416869860105663038712846240740623191738825433168083743574188766248787048947634602544464378187583519900592440680517694719820051559072634787381758886279933813860543941485612673162317159636890972072703229410387568650793677698257982211306370503681633596531031898410561811298
42 8 0.00089565294814386390431858926444137060048870956474832287639776808460805862100243044101587152041894981591456250744222957200656888355119058963423809721124089180457575513691740114106973689442768396573576516692107844496504693416326048928645370777329023578232130371526423335530571469043744449416975
42 9 -0.013186042786829143288907195714898390571559002341602732482192324486544793540416159377949065302874333637379916292969625374729226920590862817345693483542589148228147503486721534675703435229276200445255832220560898728633526305516654355605227026994012062272942866824112555429791705463147849946289
42 10 -0.007598807574175331064556720964453433993471222853495110418769004590126031332224825061701833890605383862080925233509668325305189364083527565967169131153296854891535723154050149075741523782160340086231072032223998985757841298928045668940899414703722866727590111092609970848271658916955954131486
43 1 -0.0042818145876229334917860956453765897671379771268972251790102026401278643055130777989557969314306973672705525481258294965060933866725850639443191264159499741837467333439442876743096617204307503211959584385771005481486766656968979367387523288663673469048657166601609134987681725999402283965248
43 2 -0.0035891307806907733353134604475017642547161935968959838476076830206893797926054576654026269777313282752322575287384584035412546191116520430763375768246232494753260431747344855047295753766311409602227248103223801007854972384212630388984468649473569258157566527604426863876847727611429729148849
43 3 -0.011815784472778605106847905184188302330853412059486175441292763956782072782670424160216143262233438671350914025835801470232142606374909061727920896549657037385237345261409905093447492672450153659951861447607678086719487943528422271315487494711215232566731407464393185754232389946825498832426
43 4 -0.00065278015351260825931452657460990491845921822343428346236517783497758540030351479988261536781014051898234061485903168399073889300738331232857703136206641553704975693301883446162314529035445089161361024814625647789664194998420388569353260248981143888748653842555135340793944305094509710491869
43 5 -0.0036867900942360577908285871911188833178768430816079620331604018774849576636323453834729751975729495722473779209073782782219885272351603652921477456979623527062064165572041211769196287157564936420624177879641962428036342360480266955717538651107421944430318744472918268621078455606953352073891
43 6 0.0081482972989549546863708736299870115459772276637658043141799245709948342196002523703732927685593312518164621482435390743841404858500680805212627988178188307256877557961933755711872605036346201214989718663206902425117624514835688057510092886290815348474175795778259458804904833528764599796547
43 7 -0.011288102747601997463066090358300959720625694122018833532315143546859645280263951910996497350081495212002280536177485920172608773889605158595599076111924859186028378842326182268559600545284404610602300381314773051765850210765545686927476740863183983976002961774304493491041250893392909176542
43 8 -0.0045378787128015125591488603537218937381086538328117769873694674264424612476034910530356882711743375590319145705426090324645928776921065894031603347853998503342696179933856687698162277452815102743681000589788725644849701339720221450866107043797467238965739130529374398339717852376377734121743
43 9 0.031672809192511647472382887959513052739406118306427773373599190896160330034479632446617063376869314187689763499346190033783602568910369897509641712196304685598717798394639234106184991449260631989257178662171636222928859101386816061577967526640847046767014498990606123900152580329699483604586
43 10 0.026368842118593925768592170576080695601342576146440066662011606593065479449355560021180551686454929841891373886454526866936428566168220095290174503042656916437938757798616720080396324151640698493240716663200523196689969476036145888125096340034953579639879043807177100242049831337763451226493
44 1 0.0045276180929802115187207099515283306673290169023078608004350903916697995498319005903998868828614263170303177951138256797374191176676711404681692269259997521071133683766210902601422721736800350015004217906167213380795130669401562111062958389538246740095412778551865353524135581514852559177595
44 2 0.0013069684639479553972908591574237876689741245753342203517632242992502027428419112969727274203867879156524097908084550211642446457988636819743485087284695374732661452306039210420384986323896314164209862519042425791976821505324653259428858079104273873197302109560542466914623154690825468091926
44 3 0.025562043782410547333026907237989249057872201995260564262191898403596756712165269918792809303969599276194377737565563745491864214955591979848960712726462221991533126063228520197375001309395454132175540786660227386354624474317303912807420886304743417946891116517653979229233747142942017308602
44 4 0.013603802027185983900398482958469071168357751895481909852892424038319597489620858441406969163626626331696560405037214602004691769514755648103202134356550030902859847683551988161017292220658550326740366117293595819887286389909355620515987796909773433666990894240145607818316915924446137726804
44 5 0.0036602665394373932833754443765232536381177290933959417187448392292459671678267767658850648408308249701404288251102111221353470442128126526511353044160550826135828048658144286756485319644985799566625764028005599395265360115863985097300879271035742380680783481587604326410302295602022522639287
44 6 -0.021835438354271204925307822597912384212077948657644726938358219591431013708726167643921386523056749185921114401811411320591202455549501465902081535904770840988717178464704139800263257760548493814458606588999764809218248140603096662351133242248314911974731756257937827621970981628548086198944
44 7 0.030557622745375609424946614686333864057655542778635725496466047804870585006604696501141694309861166330957892257263277313993073385171944779749361806789115598901927203719594572383461654886817002824177239379702520699998020448382241904194181032234857717660555038659500594868146552412224695587109
44 8 0.017012735854984596602512916953412954388811979708780723133507737024563135782200744192324449277335934663599205821798532163978616332189924309032275828427608781085752472497303530207331746219080380364232074055859405992772292518684343078233831924024550836787669815512584695908489598842398986061599
44 9 -0.088535944123088872772212985073179217398004454910164219563185966877559544655956846740975480381853371632628030651489068779585653489317444186027563243918321894341067358955305722759576396908651581955807429088115677199437817450327878662300557053365696654943076909585527396446827827278278837117225
44 10 -0.08155654549521082947099827545774709975382332999581240134581899734508115423008846125265742515013825136248017455641481708771845125097347322868767288968480284931445887386368684338721501064564812253875908309615817468470518682029267925339214578007716493918507554584344282465912258236688523861061
45 1 -0.013625211142628682348293771794935503935654786135350073442799312551403805558100926556655766980154235966731314680511727990532932662308598214379014218382671424912944984394634206308141615921224774373097470158211651983356809029447055657389102397749782277293515986752126948366171581128786721725718
45 2 -0.012599684060336605030863172818855703659405981046632683228886696888905636748530305064262723132921152022407820070249722085297884494359010488281235822463308504356242167507995371323690703778778511389540410113017792721724890333092275738839150095074686047963982595643809820711966996690526551067406
45 3 -0.038408948250683409980932093886773776204879281206550794646865364217151217479833576428505044807018267318022882775076217112277436421003633924357122340727816625054980036945460408476141482416340973214918884833291650780076989776326338184644158787397336823732238920438717882643772212636200958914515
45 4 0.00050148976641532174039142057434651458068478230306826848894363113409087959775766201902746776001513377044357321805197248275995650513177107998901793282991210558519517095477765940320020283690247523263631720943944045940231926363495404560971475640816061207245496172655522106117830720621897349962068
45 5 -0.013395326143341388534276997103865179237938014647784881576542013602635692635740450171434124979306573105071991864885883555191296753231443662239729875297834063078386974542372702346246100995597084228428331041825946632604839780717943146717504639931592387197047618510635763007962833571876248790102
45 6 0.019693615122682184935556852927114848854854247040639909599425960218906040385166397208083887309882133429433774756690784451993491208821851629910220911252084517866519415212572240520662420269975199978819804777245307365750436192976507094260342676901177852760340484049473044508903558008712836489267
45 7 -0.03094091532540006751027798322692235446116187996538427095380155980803751172550932561443825709026732545151731864539442992145314127647159153244643106675983779629786882328889080810673213249574619177019837721677182319332046705937080568600893461681480051822856548458269474884741938814949219434059
45 8 -0.011673510927457974303451659764996984502710084235316341053634945062522458444134198988680219524430358421503381117203348083964387232835497629706993923017583009629561372446381105148771842252189895284909848129521483131974999068837172282099585867109679299276496284453192684532045706339035066990742
45 9 0.095330579174418215085970616901779789822257442944989883271382917183104682739950981588988934830172110668897209939206480482719902708768642566659357384877959916809178623709708128018379314557503300269379522246104063644757602526892000239202825791758752589587013418375829765951122674642230443021463
45 10 0.073952526818091874467770479577677502184418183902008359080239792398255112585495268299213302919356016098980916535688359071096078343162533780115160848200263810162804163184773149398770453712159579063364226209578053029485194766787221155611469701805871867269194527443183962014152143663049847631996
46 1 -0.0019899201269788286869955268872727227713676019375875369651396940701646959292459301499213241610922292254546528800879672148337873888058597523874327899418379488701354519567246326167989416492423601625368733212233245510326275798325613201442002730428370156999302722996222062841309909235544949480178
46 2 0.0080494333006271233908323888068547950610252912176743495942838384854140296467270958234901430155071937139843613683343570501807103475731279116933739136846759982980565665883233541189558475176877303269063980893930504268852979935101985337570164244609866894747278510041731587240231479719704796816317
46 3 0.0049577425772279627579186532965410716364106972550075645476507511701506667330184878129041406068027968847429000308952163837233766367069528414362880093662929245080552530157475588590347444751543134572495647884674915139293453645527438800637516402432722719451100835270144015554609467429772079018985
46 4 -0.0026233477614197142806779567201512294306846659051794583516980020636014860897352445624684275058542434090545387651293604910751052146520242484209698731133445280140314617219611749483126346952587726320104493084404652187724391770608086589788170716616232527694443688101887471425646115546083217002618
46 5 0.0032253855897963549142460686592896834202568778860310816093304943293259824921069917335590792925907842213124519483179778078491765251398266118430265353470881769592497905826383178844508583859409601990753027890347341464494188285499189145276678769658870756251602735708809797128689945720928796398927
46 6 0.0017454328959311187023148644180120546288419214078808301232797139626871756772534122064655886053733422452312997131815819993361378259658859244541715771206728470270575887422367168535193806111883101860653727968207198641071312077334942690037368201958281569436798633013183325375546277921737257565415
46 7 -0.00042244022550509008575805369513705690145301238897442722682132732423155290953405673936187095236195688608677140590345729139610211871851708347687034089835267819612763703178217189323423177725128683970870222309549793120156914048554498621649496094361416912464623688104294498731870341165776873632654
46 8 0.00023689354338976855235952088235003678648688140934341797178551075079686642410575597768574604019024857939191678091114885488617460396791201157755824079648715226164745568969313761589523259928617424958441956631642533725203454449944544900766581785437748281293080904743069457827065511150671143024426
46 9 -0.0074350689787608221216273501651556049819825929289865186812104760449766352028082047146000264051953294918528492127695951577215463120007213026891333108930912691268452990540144561290837732638645264864177423843040932720668014629860531275171218380362711390262639087376840778924320015672117614831812
46 10 -0.002753930277742693799777947995329782170842600562902334096991842655793717142232522693408267845451709010591508491503705675141289644584821768233768858879480209849470673874033195280449391757752525903622893343604208285824235186863739256783669167191384613955863393556490635288016891042999636055117
47 1 -0.007263534152619754819742019331472222610325536889102910007269779077464173420383575669526363042018661247013919508084241194042851637320868036081957168812526819800530007247083636266499183493914629823556809838124706546181606248568593412858292502365248760854540530078945643088835935626357551284947
47 2 -0.0013052817761383580829271586946812894285419035934294037570049710892899359860147004447655020485941626510205599920709706562601851488384799150439488681394800964253818912525917994100699566611373999024592017994290351487474602401229164087794987626815358094693095323502120246940406870262985937825054
47 3 -0.014774172329019425669165669556755139912139146621341052400028456374997100458042341337667860365875619280308590798078750532724817866416114632385027778011804655432612199614691466141968971016785035967218634831277606257284898788558025579040636482345900399219263219963381444545830050235982960710789
47 4 -0.0012147658414588141043816063941297632505242458303763685927902805049553379880091801481043919642310020893762669283810325001924941005658276344363942573310964908425795591638398971641432875084497307299137562692769828558084281152479819023354564075563316701720046622040692748437407441577105716944401
47 5 -0.0043356575499529239594077929137410564229164598248276170265681714085279495244159158376762223435525182068171332138594338944035015440031174989793782842150448141465130461739653034152053500940924689581902026368213711058650784661753251117313947615808729876614732390112300690617845121825367972942333
47 6 0.0098834763461742604412493671727889007465928938187624107810181849011122966117277733209285586404878441032094678366282421725249820334539045767507744342160804405710442813144632135195774712720599230511974852878936526368845908852400038431270331087960308347710996704457331671263402308514717744930996
47 7 -0.014305475012327337790407333969480443362129814854579749504658195836673471547250378689899581240891836056700968818843296733178731345619711768195244127471685042800814440532563945880773342248370496811844926310094394180857915027037205040155829403703884291718957636281124805861658081422088203858364
47 8 -0.0051915145526638616802583505443819039977865836919902599428293264533301551353501133506174036186175237977722653007236414937227772358801028573782480971888452831871602184915606753797923845594900658790501575246843164684131401145088080199746009138253754502471340323253746662972592776580652750482384
47 9 0.039279138423626862725549404545869405036508239735348033485055522877393771273066585725706924366115943373145940127792836970562469042248055096383386301187192009123560432045416830558277094898367624148843926448116433838394455038476436575319259480917506391958585158211417015291473448612007798850602
47 10 0.032120761401536978622550053852369374896838214829394767663140409344137167604313822351643271608341380064913575869772765241427595180690600375765785253411241769664934953702227814709971273466173983813221529667273658569578185095541178098251690389638467012148446127030985577691610787356710784699778
48 1 0.0055966725205074600870719679458745864617715801767885275944797395174762373426159823255562192508243827503141564454388456699006795662384989404992756380018264362385586721428568078795036339935094511296557015486158172526543993905375211232692103800157531882114300671234337542898277534329678479815892
48 2 0.0036963269698398218340658333723465284967636390250987864485434069641292463349936012630159888484076192115076995009848975950204667121149978181254088782000710988344307270068347437887691552450220770131004665526785129980815471326691047199846051336794381456386524491268032380066879856270048505866545
48 3 0.011744015759691543410196814649022045144347206982855787704503646445285158994697742311952290104578330361281336478695212858914875551268604976968083070944905808321774897763150367842307277424442085639170113593550889079761405033379619094061921855773262287349124762739935213871514065311706156105012
48 4 -0.0016222061175121551479831732315105470722127220455514520640602729464711393291535891063816666027234751784110380868941539092576451411620661438295523274482949141895175312531260381343686146125415691627812202558926095645618406255441176140080416322952893204739204478576622460805821538343145662534274
48 5 0.0045279507029864342843945297315416024586783799901097093126570262969636187005880590448502024973253357266696203235523446339123841316256702787803935504668313694309301548093843705801802002315383836245053357056824856532236400081940880135004401929538223814463184388140213727749347148028949069046526
48 6 -0.0061310151284815981645259641361431852800252655406424637642360310256719636826678111010958471588374806430744613742535639641875265769389746699982763178779821203355113451586943374604541027705441126667327418952781502194329826187515986362855106032627402278297289776825849431896694197377225331629482
48 7 0.0093125025337871693332100371681710183208004470170940154018743738706507125427841151169654759241022073212031826335033461550488642395805963394364510733035879457474397106670736525610476217361001079169152177418705510196096905455550244723509987814379997570889342070830302554216353656209440774801568
48 8 0.002669755537215122195118710386934172287594993861801453225680096156278878248713258377410436156434689496833153274009899800838795111544445829816217304108155575176880583971369133585304443584882011312703020803318099111069401247205296373596789179213196685403717565297281508367244750270703842751257
48 9 -0.026830639949666511542680859933781571306125505847665018939579685419827770724111341390511836344575877272592514543200600110803771269038983036306555940989623205103258150179257325672288229746303578520665940079540203868290875279098717507111397016449272347090654549697169023188575931317115130595481
48 10 -0.019947992477630418536203889249794529322460803332884261116092151632273092860982862384922331799813119662946761122487919681227599573716754944028967542980061621453700230793396081924834175339910009020796694937835396416950487422983698229675779629939569984364675050421373348264422406656657031689877
49 1 -0.00010446665126054384430395671751042992661767664996383636474009500452602861034222291568811687922801708556958034662468040882927017943533053223381047568680719544478321954407822995441133738914065632585544565377734626435897010176108965967472452744134728854809730484454685821613413908346679886150532
49 2 -0.0042814779830787844612969354562189517911194096761925454287668918558933593819773783946133380907340573200952773515563659476070109798624505081595195491079135593725055643280103924222970445374902595602658168637122200016462109422957569243315451898740903576518699473591939437874296623738626758532823
49 3 0.0069067419508579820572993073760326452759652706062758594780631810628870345938892284067582230251755484424566246941609832993607148748570584064466474789888372957346881141462674129636251967708613510623856348791784022073255903795511446699120640028816001164146713032630845760057967743945514583943242
49 4 0.010777799380846155202375036542447325667475197474907963160379431466909094476113323525677801314925452907013173983901833406824649961994417934436812161320884130287316868542659364805869869938366538751035262537227988605814357441714051343188174613436938398907690913033827362120381014186652677883874
49 5 -0.0017531796802564863521253238261318422487623154418813072739659046986206096006385142845194749198429494002755664791131478471135549463670759473635293497022029627735881882115961629724339127972409970402426640772578580336052328618966174783563107829086461226765460070506190528271025416437120818216141
49 6 -0.01120152804581706276866877339444547756339700447704613898506921907345275145933609286309728023319461141055335564881343624989104134247033868513787830844193283533605727895412197399219916657821584850121258383056780423194987235644302585862958383917769929030684512558752672653924251435584216980513
49 7 0.014175448390874215187398329466502767285848850572898779891518243326537038194129979848731109717806988787706993450489906515394453280102132598167342426492376990661166963252493884781058101983372483493596140583611911516119855023149835572198691841994248672532354371588817616080711973413488368789833
49 8 0.0093439435478346350332760485106070086359929149650802644061031481034251893766234454976368427269750009753615488890329169698076187950488649638833886154886146164769296644729935653182862981429258872048595370994365644886679495829552592773758649042871203227442900791117260317552449874626642697312566
49 9 -0.036886481057975719651210483530947777066276727713862968301649846924343961610579315061888368872650906294284349721273839262763366773264685125621384890527228467692843067322502943137611855465571036343917760752310733861588043432513817585518460248647545808144606011460377282833600427245923211115858
49 10 -0.03903721916985072096797367384416276199451675391756730476716917952182766261537879522330240329092977850530683483603875989407360344873336474923791332366948047102746405655941923654290001781257253455244538046403303238080533375494645905263390848555224747358270604000097554764328007908052662903565
50 1 0.0053645124553635505042716973005112059770867456855793425918456635113956557455856461223680117635908952475983640863616991845614332501967973183802979907802454300547337343168740990451718188256377009718296645978277801462786322757234098810199952899968669336785347341126412164389993736975738804139281
50 2 0.010520389068784765273359344363224747433998246986387063324537288574909006905775099234993327797435180863437046934620081104279030571707391457782197217539273596522064700506196152334932567945929221559971631699999745854097746161775403109973354482903790341153687697109662362682409264719641702661587
50 3 0.032256421313094742867495290984057398272900464586865950707423684659544091576316579722513411095086584698227049021457121632587508505566630050797389555909797035367673761261105514034013902128178548812586037457947696120524800469899746086254320839777933984933451997894072302187934043954580314309778
50 4 0.0074226023767216087359228382872706719352681116754961079968721123377354293992914391627304905894081058356718009546820024419201505358096532427529882510654753465227183755393773038039699405092617283279586314900908515129245413743419859181035152864381052890495357307928836835155950833980826161619838
50 5 0.0084990051246214086383424944814158990513449863546834829057254088282423561093757362433604722155710947721824073484429385348562821124227308191532975845623853977459041513152335884192208868529074319670367564532733321014280274624677746553134533128510149624341829218365017913413820124322104217042204
50 6 -0.019210255467704088005040553549464551870314141664137499497463182518912596078857979816410983052798170890562529027804550794209743358788292703157957248853625129901739021168919853564850031300840910030989554702563264913784459415366271485847637558014487622786252605890404136414594502851573891861048
50 7 0.029228863459868644954996482986403808420416075840742096090117339819303081738116992896463388952176112252466152686726109910211056016042006213745800801680843371915682600580817871922531022575293679522632518596661570269289030253434175661009776277311805309328100811982358086216071028314824986843881
50 8 0.01516171156546731531166772114633036501731247427296471400818625010364940113855820689351370937059094058765881594894053896921618020559403168538892505937931422020125924797415606302441047723236861552877777030004646373233947670616483067445489253505282073665159947504555135269743506659327286323047
50 9 -0.093993235582849235020418895805304273772133176849534686945061616651154320963331861510355346372868568945102454962397017212170237369417826549637490843608463977979331397167554270643797891804548357126949891882851382988803022254355670189526413884158626755714794439790474654275156479201802736790696
50 10 -0.079420593342479683537783854716160931769657109711847575729185635983091923073783830233767883411325104162045899795646779517178139519989857557782256665887845561379285394884627920047348063554651825166870071911788221844434521847659845542253497579825687595424506480335003795667242193334993942977686
51 1 0.0092405365697245725357879503281469603321555043437453743929126036202610222084528544979658982384036755860235267969552648965524497055707040977567541231287545735560354295109621228762352158924064659076312406092698926458901371924548987253929095749657007936101564457241055235234190110900033709532069
51 2 0.015104317597010271613571723269064014125468614202791501997716427782404294252819461341520572100681676842870203713916630679966329892707587400467293201371637826225968682551946360475475357817353902147265770166015491708073198316026855671878388832650740180338691255249857153676202914942391058998083
51 3 0.02423021116210028753925384033530795179666993701123191009402409471387636334923517716181185375152056546684453480928238797438234396185042389092164911669685397724019318651138348630112419704326184815119766931035964601941935222368346713832020748814155439599122337396781847048433600955566302408879
51 4 -0.0092736505006433898732422848787188863159296005319931764224919110540127566622780963402297022521580677431530217148850735361489816751259316048122990422193374049854639621323871502505853644591776235134054576078730381986463574111585417785667829549536710891099585886609573349332794124989692784928053
51 5 0.012045173351537226872551404843659292756982350074042391797811238850666489042268948749959229815786328293531595137732932140860198569774323265339057744653177607308242640991945407629560735208163820831813343764049945764487150877889046544453583514565522773044136301110742556604927734411183738522246
51 6 -0.0054703446367731515781962203123611590192564141457582274705539345843652525539401360693800830950356628754216410758973297982531306535939288440992529956125905457042717990600642795200252425886931718896499739242007229570663613420715407387213134668580293019652107288449386233424047658868174184088294
51 7 0.011765403003731717692239540530379246160076546285933127637833830967036076751234200836480538857484236678245094994313084240288473681773232774689201483074334693341126701361034062509054942581139434583796937232518547253232371637546207395367296183793157385040569977437410665862343037307262836230715
51 8 0.0016120254239791234697225349475325758284520993971271584574917816085980075063900636488951738777308312497388447949582758594152206175037466087704430816175736196296331201729004950059693073732996286329267256589875349337724118644293151739931534782971813927100508094620477400337988603173949311765388
51 9 -0.04399911391592455847554043259239356456023387839342245959019500445720587073040925815907816517946923454735323292877056721841498960702803990941586780554002758041831769382678868790590503099121019743350407587192817733509513511611582386184116382036241435649097962352672288860652629965642826947598
51 10 -0.025493411329569947633189385835795386110481086454454573099144992988585987286300270326984709009187037718926172374770965516866550139008782408598468374319847106180011904413629919410429965663155662714295311499680219551972233559343727298913895140552893364935708192089355532070144273939037698283745
52 1 0.0052646704530964489048417927682858302968899387596244825970003793500772299302961999164120936513949911643383104507582039595830795581131696909560203165289135972493872007307786706632262101547726649593759415668512122883911419290455632392125007589446569144790330727263595450719216849369182493048993
52 2 0.010295727281587779707130090709420645023748287150231732126138725275011386369190868546943606244195742562018300335496184058064365289577442105879808993377076477812813724066257927222214342113287144800152322386290876260584685701304230129760353611093443032879445031157579404595527858172075772224939
52 3 0.012903235082625222470013466552833480062037904574184457547823256999098642689349559791492885872451136856574669465997099789187552700471926126808057909323239409549611034941799488367297045246453519545205186874791945236450714581552227758633174699825663598433335684518673522167876394182498444588828
52 4 -0.0079529557270932961939279389662198288254780236425085598490632674427495572112650508457990469139321876329002973782305371244658529842696607968428174692532849292063247897295784526320673476903278917219563690772026398652481730485636744655407394238162300830326494857283810431783902353597004896960398
52 5 0.007683997676053255980647265773503510461350040156105173966334647773557579543702433707169255552526479222641515371880117948972167944930714230077507505911233557282501194425370472210350621456930177006938446056821778580451114923517489023614964383959697236818773092575661289939642714175590527890364
52 6 -0.000710462238435633130599260294628921447657558129771409429676830472303885933228697720724048045538520839107266568441256281729567788658912308648515901977599866136183241203064868829978417872505558138601689485877680888766599427993565123098683321830813787375225456823966635180278106034323699857108
52 7 0.0038566382223594443832399952093454040274533550073864812036284272599434804330154662886048307096247351347512782308754178339562490228855156234376419700728496445030582800298671849726566081782554225963003821138558371399825373919586025058921302880142812577035780733463462150450998045688152990869455
52 8 -0.0010346531431364498883072855228403967664186304182443147270879821365016396386415536227278610519258065981389260827650850354926251161236067025288571237909357511235907420993651125047160638492037133073785984272853132572936226257386512821220667776332468681421464706549557887521404967015346358990008
52 9 -0.017953227235388629126388397064625919778919011089478890943713257260236872453418548605500706501156154856959813136958863086362555558651228310287233924814339765959875658205708543074158488679951528393805259310993188927880213306777915842310067963697801220354930114462178051782763905979847560501926
52 10 -0.0065204779276023651915508429669102641925550452317109617451787376395249564849252804789575334435421417816075424388409372175174566176548219445948138502478758609552344676524509949970610079469980755389115095821991045141310832193416975200114895729137580068704700667698550009992333335841790410850098
53 1 -0.013414589508561629129762766139086738947279445161765616989023894116613247240371368926967051226539439705795444680617422078088439311967639376155429103851747382047443855451508391242335950510678963827858622253441971004630238297454307685676170989258704441534190887173681332370732552440214231643783
53 2 -0.013929338851397804327539311447812470360368930814421983997597211123763295785582372532587172862832576027936918903718006567758402206937740104342708718957327832156482468449031066679598848075978428306034804920111716633254833556817588140297302738426922710167378264596699699506020178868008723312094
53 3 -0.039656632972614072554769152515480795922910795974561309505240145428261681789729131718091267723393868121850178580340939032547080351206281421368726422621901334770717151010236244655273085969059773560001771205191079568712719383867151660920127314304111221649948359907429465770774520136837189214416
53 4 0.00026390146632529713505322277864510802896478327882731135031827868673283689025248414293199464694615368069168283695853405578996385425837039529082122479007806556537644254011717421506971941756594638402883261593230665795310872039047311451756229445456481482692837236080818287577376954928042859532716
53 5 -0.013763382773411301049312735754882391419247776987428784398374412475792898473551979263947174180991062330106260156606092932512489963622992320215269569847087736188855481402584872791051321186431748542890133056244334097127994237281467300636402217870701440576617290873958842400931227751029915711773
53 6 0.021277490835681414478561221755500632654775683575529724208932185917561525665589278434059588282098126056361198195469250540375947985283448693472919502613501791739509245966367119102690462793348877450305606103974604421335203057908168131217139902995778228173936052101647964377578057563049868047292
53 7 -0.0326582209977868890676439216112972409447301908666832074333032213188675905681989729168534336536665636564870231404258396707978764044174856354043114755538601723066610917313376776195944752594034306355931427585654294731644756747848819542997744889981598487624937465530564263665812965919176049686
53 8 -0.012657961229392666258324531360273883300695237630622884619451493610537964236931772047692847626762649594284022494501694018169255423540797124985222003008635068957795266532798370435048974799334088510279700226311077389726939399341826404529263834010992799651552391933305582300606655244807125599357
53 9 0.099546008927919424536110368731294224040898678019242001703820678017273530828144100821964370496417494911413287213982969832706974845758636027886873418532918235475100668424980281585354400055646990403172260865435094509935040009480548268352519449555300219206366122926933931829008618785859814075667
53 10 0.078214029162904229020991175157368754693614752833777023518060630959638266451766289815358431854243621848554860194580512945227992765844287652346937043090300190939985468984412256467502885582641843459741134732417735246072612006617981404316575284776285996745885597114900912992369587819803167552264
54 1 -0.0034357389616099348322729654559289765982989917491974872059533612623450879639060594064297313179281828155886902544912444159584068094809210852519078637716098281613041609908385457089678429556809516687561163931052381312458211250823718323170549338198171041103681066815461113410521844225024303126486
54 2 -0.0090227312966210964896156644351481652636213191306887438730059523225824706883961036637364981320528394936764564344549829229731640335061812928472259915257470784860436577407441625566403361776710197605829469909934450901520091057418942870739485881276671932018988662241111432475546654112586203120561
54 3 -0.003915622459252013478081616403749428398540942801228620860410392543302074321362616382520762832585278620843156517807255445252075120892612499740241016787962360832536373883675305524302151802045613684491618261261436237724362286861196891382167321718772471695892885964681159596677202756546743561791
54 4 0.011625416616288765840535154070626209684359812878061965604009452747163719906074798338259360385105623626641591348333266709566174277968899667078877021140535188216096205329913896357895907087022692501507084575419917128112629274440052619861679284986081525516178778204071801367577146712801568918539
54 5 -0.0059411547510443155522100259166137343444063711902657926425747864976430885650317149696601068654500515319210641730002897911610659444183030930726861850070940829645310989535238714024339875909520628465437950572959671111225370357981319616151772390489511321369268959418104289401341737364234736757532
54 6 -0.006622644880647543061846562952231992497128258095888912483965393954957998917776632459556072985671880697525385664852654777998851054921340072518171873156536462644637588341811745840485201024546445160349413576728195318098569991238503101403633820901874235017941057024122042400767983513270275189019
54 7 0.0063793074700900389321602098969543512248271720238803621647926655947245876049777592377965328129842419011902676982309974368570705376701862901983638447226149221088652302363240431142606574160868471389525964345664046544431857449837364679203193610455644925175722452505379511593791300381456905377314
54 8 0.0064454836686940254305868385128694866666746485624850355336254773367313960966143094921190021418109742737995026971220412460133553781813662213737394479893647873598011535637603934931728060010625947836696024748016797645699091338732131800783635810836827150741651161325180166021472069769521445345933
54 9 -0.011328047084281535672032327256326751727724949727459981176855740885980978338407920491569900217120640905405260841294163328446054271173201244663048751891154933867595218099112511466257739908535815363559684440761459332301232375055263690741597649299485137460044897934901655637538360510105629623754
54 10 -0.020010796500169737315930229320530075016706339852525737990334514490912772404323434060164740016907424132036355095106246920532510049739148893622883762990731631545514378214551028098302304540301244483711595996378241968161581173567557749787243162088088331030780829620716188408183888243619216595611
55 1 0.013331725980836305000555498972201881403425189229493586164150433180866469258050598775711483403226018320493389200653323383935001469965861267570732498441525953047317397843901951489791513268486714618591409961994796760038302228958836036862955158534515714673629520992507382829696280403153090378224
55 2 0.023973133166935780219730879227623209057148616591611473485786731350054869327636454426638803766074530385413194801201197328842118627179536792167734969253225372877675429436364069418420913335813812550735942853535989164752479271885158778509123506792976994754152491180674016211739691170592653483389
55 3 0.048911071082167935304142191457314508426540471093312218342006326777348309466173207225739197402968870651760972992666477179268185440108089628931326487074801527439454385104420635679165100358924555471764034378992213333148532446764725846820296595731666469112137646475664711996233874945703977994115
55 4 -0.0043529104827823724151001966171614111086098741091061372023178957694580622954507077609548442069913523837922828767997925081055325091249814876059621613950449754496769045153913368352609472459036856739683025119720243055851218275103668640648055002710998486423993307993206614124317412372724531943675
55 5 0.018859345560790421401493982831891147000741998029996417243363226871724224685807280448600662215806489947768146666590611730142658615405246389411666641867405472607758046222774302859634435260424139338039236123864529632586289369563069516819211631118532716039432201054665163609027085090578434605186
55 6 -0.020115638776766713575703621589572099661026594445304039990145174492741755629012975329325254454606606400137677193568425386842541285947081047586795263063979873946653226700789081061747241876892306942234250050463004617638614715203614608726098587182941852742717926781307054123954850168525244140152
55 7 0.033885389407070264192177723384289136441593795659180146458965113434343534533687295484429706115319237617430737193580135145079449396938526966947374679172017641744477349017591502145883864859620611908252837864038045332643130745133335631277271196185590028246331660033419186455143449179402882811039
55 8 0.012923420063490463132959480209539175396338604519061795385065800692387168717266810843886696504386312248448888305576541673201787845021799295446801250285026598224245599955608398022263127770023099297277156890840294945378565193634238551789914995043611211058424185075914009574192087074706392955818
55 9 -0.11475775504929895610001660876890408522017177193932222028796652014577822107478430475297930792589677963402167587365542259192681446341131049584800708412796427882194143765442329973491604687015364010051080559868892237795194258787636677074392993422210783710385240864876488519084291348981431372156
55 10 -0.085061425628088019519669933139052602005205794029991854039370936323502912532653732618301649711151862700780498987480635807242988910691675214413887872863129787255493427019101142946706776915929814943421683967630258514035793685329313018405558805223753276645725544344161842927002187914544079547908
56 1 0.014759578503021331295189398708474309502123951345778023118931709736253994429755965214386630598485264321121683719890337790466563326176232333191711724028950293020942650973755585900564913165768176341676797260470983163866244394564765219910849403644849814732090342559798503884296423791353556249953
56 2 0.025724103615776174952149956830991723022510287783256197900214976579414875271055395395357238453798415430386459443095186445736388178568530168019407776009554982180452468944587916136440625748034999998935444699423791305025275170953472211841625736213604895901118164158469542869248195075019315232591
56 3 0.041839323271450339261423265521890153912135951656608429187856168622090733153610601067675468201404589664119110599591667866886274327367847410210027419533622328542666632672657578317850820250903283414131442994111037276242677838732197957158384330660040860198548691172556336300141831690701066084878
56 4 -0.013925560887558798706286157751416023493304456570985701102360162935340302604137911123756929959855042058995162520586396902385927964080535393372408255750777619033349356756071548867298108536126375921164386674221425082505958947011418851145016799227932286034676507748812983193874498771537823853372
56 5 0.019957739872034919635004175514926730035108860384155561697476622168419906661908592366671331949557508899528670169764496096365572785616230868131437904480436886585441281068172963166355370304624741701370060337090214165399034277791258156523552654059639119792509991865370984592268551470738522233597
56 6 -0.010925690491410258737933983359961406654381136347458748015106285618733035224422077455632441762337011136953481064252327733608464464120606083043943480890568864197878799787102961589742587453608019843242523080549667070508968540590472378300101260194199615380768336630587505082897906246331163739236
56 7 0.021762647609183531439377323329910979158184059870172790068283203298585401998895478067752302921020761686040337479465440532376013946639493573218189952692050788767524423237785395759545732045361719269388654461804977333926689567235142525173368837278233953768881213779540197717459221618867375566048
56 8 0.0043150440225817352634110342657726933915874421307138445869061583119414766234815023418182549193176244722171648693587286386449828147292318466160113152695295040486737184046421334897330214235387354976438494137670690442338418622061232191936907137647263632869541446632419324185132419872339894921498
56 9 -0.079928420600834426765927282185686252946373228413788508867009197158240551167307546264822152850368956570360425650316122894616925328085398349143758562846918743061339567650244081559132340254563599723551369412517416540284536063631142293194350690129968484171847765837258246069944880900176481113431
56 10 -0.049252432172871992681569527326290806318977523804025441675561373133815653745559116856972831439733541330988553089186104469805336244281978592897808853420483775225253050209384946822906224372483975312556720126484200706954722838892097267839537870193684829390984985816561307382866897957145898548726
57 1 0.0189122171151539504483456059035210806132590664236380532324888997770578377724080869134788962594615525428157191164031467166005153611476542944675349283449258075955810621488128876703902664107418139055686123576289517219645346724854795687098298561888664565635733201506359675945724376704392434147
57 2 0.027728753533464307988189546270210823747070697496190681654413348603409312350842592539405711779711613134712476007704687248755949460361982361064652873888706215255522715123045722396242100981722097403056521632905391081704224512315516122519850243182989378280989861908639937807728758405401546146849
57 3 0.050403367636887514661634834370121155933665698820735167957580816906074419652821786034557868854215079514992402470274208929864886925011445298020666963416794729449862952997733165640175548399867572844644913877258005439753792477628961279751533613891013748723529460514969051688001554100208140586115
57 4 -0.014773039682871035428192120904715887104487582383691138579673534993711485114069912487101238372102132967954178797704733260821351013222661865475725370735870943601279848400697357236206319810288044383838266815453986348415564620004228014483776481726960161463386194670499505998556421563663480384543
57 5 0.023274191397145978991916683573612199514796691148404111257579773219945024282038293654879654094678622916942925213447454820182115727214257740408268421410156948013722390448477919082694037335985991843104132133034761787751831557541023958254956032369705469438705429108969993790643562119263163484674
57 6 -0.014746617018972902992728255370773307189417304045385146677970451221619194738297218370652958945459714327799273545017798753517769534359424830427106862919095582899341365266169687601188122754163751731719134128395908816703414257195461344260456185538650263960399782001691231228904916473682332793253
57 7 0.02832068330874604673632730046215205648074577760458160822239154954726242573539531810844268606704092321691752070887593494157222309110911635825663094430348089096423999915691454870252584206368514135880059122795089015419584876700669465536077391297517573220512137007838778275717249355419008122965
57 8 0.006222079623936031120978908163083263288675521695723167343869570561700820396077944124252460634030576446308476430375393319443247624001758074993218693921644316647244677307860713065953753353680764429569033694043257022820907123819577090040566177962705076679639088828344057624327605580188197241707
57 9 -0.099567703925823011165704585398457122351188046849092679843976285904592547190514454527203023616429609570172405793291068601553025606768334618098187103973543658592683402856462872597160152369738559737498264235038361930027456026688810991653449446674902172898986050684787598551213465547937193833203
57 10 -0.063538064677322611300617541123359111440046435509452671319563689975082445195566721129042395578225828076226500202407566735205925596037469597745357471603382306124116735578109416622008126087514380923682066519365991219251383400983403410411050245003845044685607163899852230296141733475562490857901
58 1 0.0044467613499620942361265850930410721892595646000477437151181228704274686744560718983595427573813756972299706147316784371206641927300602828588553165780547109739244830048521563211370394285108174314824398496395494219184787319474715240543553519399533364840841475576204088893326270151407282529526
58 2 0.0088273230613515054852347979848676162416973247056617107320887726091072688271069855946681921679402681005409224628221307481499466950593443927892730078290067108042353278663791419020512387393365400223070421280745497325089932724000656774053231512969151547425832367250418244899564462245758167972205
58 3 0.027656660650971827629873186263091226048641173511092677459678218429373328751773534713905667072826414101285727782636658334368573686729982969332156473389430600042989256547524256816639695265481995500502083582804091190678876762488728676870640631341950677392394599332675208377157819436032994928497
58 4 0.0066137167269798017813731494242644109770891209050239236929420086219598659459599030784024139352806638809489437990906062999994017173970243279360909582506370437585862250684624907749634428469592658663399278489459118353043637111584825219233285603200828284342857843847709874092016763905651588367705
58 5 0.0072784277824040178417691659855618418370507668329921706489974451825062252219216475550097437079399431598534087545374363153861908690926191466431403894995629893277758420825045936685605884433510558022238331925629463439373858478742851928168337806877888549390730415104914357364470711930768893693809
58 6 -0.016365120884718997258144307462337022243965268695562852349911022017463569488316344053474981009388672296931446136075754143333902398080112089623042311955603474734588899063888089480043871512485913282598304401425131247376541042444712130397137225949579748852858454702718532160726166846501808328571
58 7 0.025116068794121436563982332738537996308413411752520769191984019562965795346449587621436753331799864114074737189615175369606406202172264387883036127082547029823172947936987102580503479915681667902039882835905790033728921802683121736575281670197683410323935156439355559671099003837895550721954
58 8 0.013131591286240699034624934820411275202189518904302299372121029646374794492772642720852209142470439173134357403828495839267480058016797732498972925511597157746150995259570742056907015239994023702368007324332696919750543163694266810841372579534053858074459591752174777398629545442160444299316
58 9 -0.080774901700660220902588864778625975949383343757865541068494203120842827036486061954111373019554824639453563053767826951867209804183611690269851270407993652275289535631537760479872386246846425065105791777983810836637753042948477301507421040251752574262807939829847375454428933912307821042856
58 10 -0.068338800702704206082231851402186743445689767931873062620761167447174620237866479938034984740923056253507399737359415119963350396290061055256194063058692588261271289695408243170509050475654019051877007842334241963057808639640522240929769279347096857469528754863472047803641195603253889735352
59 1 9.0920462497213522768202722302738750732933643921197783388219345519874761913298773139529698370666242063129128436642544018040108611694024167808245485907110929877507644442241277232347989598162258871697623721930217111170630380226567029838661312117845273107991751345724731578264376903001658384664e-05
59 2 -0.0027926969606211979419185733289036332671913544161851799231925034728339490620477659071591419263027260999177722139446306975559775113054519978348597489850681862679905332087294642694579184507347110674069314522621623069314875390960220282159373794644311007320006218156766945455765948988383476579701
59 3 -0.0016773319776239783250076980031999894766244445118305616748448859531348953401156466077476671319736525344411941545554401931288868480878627189505693701297916817696578792757524209420238335031213885094772226881662836665187529220249571457623748798565823115546640180534885397455881808152654717972243
59 4 0.0014113489408371773191899682524136284908797939109931445201480706836071366053367852096923062593615861981494677036688190574399589676548541199093578016594841341846418363283638102002807048250131975614744933468629141098876487053835517770792399942409326596323211005095559165982091632478265250992764
59 5 -0.0011140170034631576745733669198496984060800031394491696567978295317512675688459926511773089382268125738889127443673917590813095328751881094367451977812061124391161492593697660884842062672510173248100489007576106169103973023214136974779320849366051606732256349912812602006917876967250736624022
59 6 4.9218618800262158912320564469478217372812626491519256977432359455972749072765364847302066010432116029515979122104360589299654597800383320162448609308106113876979696365874004536418440512261235764693610646808511677638534088374033707330759189486245333998735713703373884785102284464226111043099e-05
59 7 -0.00014551957844161316610033913994303465655123468799921773837956208103830981621973796750598989948898533713286400636177843258631012049805842530283034033639653627269659466880648682808183749263102778851191120840341348325851657163801636264494863973615784637023493822460210809035759488304707117523855
59 8 0.00011747197398444284685918634079606519597339455608837061148212348031380504517356746470591381535300897499328860184764010513367920805394263604951238720015032042858938321262001018791563286665802465710791552191955246579502375044330347166944379567044486369915406330822367483439340861258067939602209
59 9 0.0020516904296945862454681054623002419163543409434740596198323382801577913875331123119584223861276003082454318255170422638086062223402917399624751055181641744494771118025617237714602484076392852019104296799663686698842937944192802180266409653320313050919858055102155778452521681956667961014922
59 10 0.00063604226534125709572563325209902508547849797451521021050983490139518491442928014055644074141054760934450535049713698591883098725746443294969598370612737824076439606114237628435101152615888460223726360902917999762016198725328512041811634907548374569049343433274294488914850044798483060792478
60 1 -0.018844431441682128732728931214096429596228190503279794698389720403237961615360208124758162142685095276848494248922659788800880115946742972795940983527698334319078173737548069222896509708130526238209550691858126779846195759700315523787207759773161052077129729981116266625939880550586634281993
60 2 -0.019747017124759099937301900994436411996250841491987383593144965631727781076803202065396706107630546576227855236142724041136462243687866090055654383720031301315346580923846867917590265846044427774815349411692867183920998801625670998272873472320545691726837333932409983102430293564287984896695
60 3 -0.057617134289470835659879337190643025574653450645416108538603808703040665543252977251442072196758235234293268193649159071926876771109089124897645477753417925399299705494087167652677423127890680395734746818780238495164545684464071144576843183463098594528668294713253105983436714684669221298773
60 4 -0.00053744260471284292291095108519664208140692993315983633721792412798899650820708948827186210215514580874300402495840267430673732741133743599707639628155887492590989873196833808872816910214030976268307636463195278915168953131204901428514589628746902781694161004916386621270685884658479026682773
60 5 -0.019544646474273342066884039379905952302073640344797212138577816318147403723430513844960445663948632281231229233463197752772416680857981181823777557640940452935167240921370847790116991035541190770871939750931225979820935271994847448075454377182768442511631646424979161000944543063962904674617
60 6 0.030084735091563855501681957781875918316787151347822884285291166448414738295244663682885686647005054203845951754692371828710532513436012650183635059224361979033081782378482750437951718553004879742450458634313646620611041948505678395162541725103412213126649652271553904612923303954071613349747
60 7 -0.046782373566388760357795573853196653283106901267149286056829905283522083534286477236249078807028072385438887442047878978064010097007435636164517450517609561859309607034264459641553514136324034976799503725216873153467716299459659271938178651499628381248571863882726316137283903765905480050989
60 8 -0.018522913501860630766746467392261271109141390592596669062134892243995139004922937667110826809862713068826899830883631540678754852319743167833590982467688267794406907102000080056212770040625663488982937666782080462667590293032752972901968072302546548914202712824905778149677389939118711371206
60 9 0.14561112140636283949311000418042024016376942835982997144588047691800253470131933366411372151068415653343738562515994839594810455263292037934758058360199624739949786100973060372866762410475701528724637740896217968187501342467823109723809138587498269200719521023843655130167517945018354676022
60 10 0.114204255281320477446708940877576987652467639639924593760330649996499794791630976123501018173740663368848123718859641136752120569826940444419532728586236806345604172771626546335490088323407387506908725768613314550431986561550524338587731210174132845091702159738279743146084252424242905645
61 1 0.0036589110758637561436319489079492624223466932642891945632118227982964174081654292947606585215806296211952295364108820837942744365413696246134448538296414603913522413352996231924271743628066131739708110708965219698517478529709844314180510919285022584835452765307012608017437493371459388184666
61 2 0.01017815750197280954942519628832691280477904441813913933066497560643933735592122537577715891034091908439713006744959401046708646682693533913509846850971940632760207231774808035988871212323066037932631148350606121066963504155438555744634794743102657999384663355463444040677994623112360749927
61 3 0.024547938002180638543420055978552787003455724318385114628467729854670146557693584517400618060575138603277086239806572382870143895801093537706967265549949804948009023095581506592787636376252829823193787528640485526124238860712209397206457298896723528166607720476616151842879455547278436442221
61 4 0.0043589702722173322661601433295766676240395876701717971946953922625239380779736606051051448040813167611825810268849920159188967006907267542816765486276940176582821728083923772058133683494300111616529401393983742426308935943943306877963483848657072346771104437668830688300272680101762493124728
61 5 0.0071082951600176248646972724304373491826067293748068013081384143375150734287966838146245478214827040116337700144211049315862605015363547806762098499276711599740307475226174497040730911693018728283496116967208661414884119292475951562131417056007855101248392873138597058883844367215420892728675
61 6 -0.015071397754036734298220220207358808355280873397871729103798738703727107071720912983815704651247388311509967180231247470392595126576766509009840244122432349578383117218472738970803527194479393421563814725598525496077632552682446853865472674618062576405842913338037582353409715222120553976566
61 7 0.022281697278563192787547318606955259210465017426568500896733118868916422309451208555314067727600226987138226780289999065982940922692673356961486419481940432606641360902543842177767981061901893259106725530759078791404498318387184243444723906416690748042853276120191043793425513932456310370908
61 8 0.011394531642244930273806543906637051009654667429901805474207713697537044517463561670902748717328663874419697650732122912560496762378173425434926805152157552109397906664562633199988141379766129526315926711128407074125622437808862462165096413073517257838506426546922880369003072846252581560519
61 9 -0.07005066360601275362776686279333196406597379425782702805281521414398854044118318703974235580243780947620995740907645234785163619016515532275006925074140960040622068533154756137727474821743066654448403250340356339661421824396292298834477575865025972531193979294211627173668337963830463907592
61 10 -0.059332266154197765225804570749680367687208883680834451837973168038703346251385928271635966453178963020414320957940475042486788597348137373528339267526791471446563418224520694636553820575856303427349520324932011587816112156128236156864929579748868139427324769791753810027487534921143245891048
62 1 -0.011822564855533175780773490978725965111342620015799344914774504680284023162572792717141593548169721770421540459553242943833839647326199094788432513058380550066022890472153106734075541266966194312627283958738205819957109239373085022164029599284140280356819678204973043002802844830579260383354
62 2 -0.0042485443026784399574712766206086435885730217667434836104694706346628108929881121486103461063010858558262259757246438090035816355655841429710502039092657007124341134258415248432084699569031305994522304356079310947731137943946183641367660689071545067533939656325184258015214166716712114350082
62 3 -0.03011926486090821698335615630418409236421317555064822241953054254677874316513728393515184345229107401839899509444180226908058803955864462735033899793045337572817865079827747864460491524047182515994912895988973002941758016011452026577054530005119124933475095284463247230708571114630656098061
62 4 -0.004527964597730368979184626459256989090262045384509354193292682107150750828148800071782609165761578491445743080039347975654620603122697021797440815124243820292849171448245843649772021448420930884764105554971755861993183368958587405791123837359846934246642780651904930361937064047897905477277
62 5 -0.0083317736438569439619122941947725908464333955917572110085823348954947289745757532328620101511057844990847373665404707569850022674868732278890588195901293588477742610159917197215459574008988641424417086436553786949807242304989995939030260983144605571555767799461364176906905369873973947139172
62 6 0.020010707372485459680235432626808765889149692140319067497855245956524913998359858299225937530408022355927005704080630035173915990936693958306807421372875471674057078577566814786142741362593732655726047271886360043707005742642485890524620908083072749336621788392908803580289664358447771395951
62 7 -0.029255680868103136748331832260997798349523515634206815834318870486401192694938061106083813822861295751756999128573630533498484428798994155788874193758207060008391239870525669745406942881272124676552294432648639659635013865968285907025474569443163315276249517346455837035091847513270368025595
62 8 -0.01213425157949547089502702158897498678719837491642902301800630901210522301895199421611525060599756853694291157061372320360640608460763442090313661146411907426334976646588522681838278901003584036729261229079569768520911657817231297990037575117017784361263878546216364378510743681759573890531
62 9 0.083688100905117431827341017067934961541570203736302701882934067434721068175306025522441514552755199882499102059025760780170462128124926773497990665556947422873132446601859954864145662810600023324580334679493513995281727796063080449347293984694380716565249744514470293316169595772094483200671
62 10 0.069783532900267124118807191118250699521623179247260458571357752258984849337229774459826490569737038163689299308432064842090782665510075522647745634375254693818253414283381627850130759521276229777523338719045842657037363258841517212030199773041879099220541374397966990586671045279543347120676
63 1 -0.0033155391448801157551932281516881604130040985474686301573649977686959568077664300331657041508278077850400681756410809588645542903035643053308359069477657837666152965138850414311854864286060981871103074082083369429425668174409062444001095223088664151318002343673903835108576996603956472617459
63 2 -0.0046450116681999320726035729497143265246718198650000231933672559165619190146067797570944258460781988338526579500688503842974814763189298301682428880619969368957595701113420599681688291702482213849108413339009219829089314184800878597503582736483827260756581567975754906492339841758430027045541
63 3 -0.015227930613252479517400879090706017593897142254855372369713391663133552079794102715846752901298435827191994599143986783338050433598083971058839869346196124016518562455191230043776367324508694855537349757533408844609036845541107199003754080210452603864957766300990531095155367147486681437884
63 4 -0.002781544891042741110898880408631688769234701703615169046554055020476172063793458319136324072178652421194866662130105539932848132615528582231581677668273991694748777770321370279452380434305974168752449005090831661788362328674490501196017088778084455378987478756258171292412292719433407633087
63 5 -0.0042466962255495786609727697116155977496219881089038081555760823504060101841437720738043391004634047303447654963258952443723099161606213762303916761396140297214613285775583645059752252027970215189273919067275599213309282795896451831080755077337954346756268474735129587310659048298120768239659
63 6 0.0088776970455125678818676988542874370248243769591727350670549186125098395212632538845371116020276562645900395464812405055590960807600042344836637105114959041847154792027581428683335952073630857218467624944976748303968725018461486784314853432655956070786023768497908463493625061153980060952601
63 7 -0.013572784493269829151074079423168219783593325726483201578889611576631324150527218778300377033042401147727241194093716806491600711181092675863746855585147010009804460630141253420209855509349472494434230588147295834838238881916124404953086078632161060270779756026823329585844754067586740266808
63 8 -0.0066136145225886990589655744482508676393026188819473461168393062200110438545886917963384289281298755488978132102675267489711735962958153114280328381773197942087317525856869713397579893599225126349837176028279459156176443349093153111351278960144459400679739680629808435245139936975422553767003
63 9 0.042966339897223261940103485189275312562271755548847038816839245124116413396610860899109656557623197450165212153328437044262231709272931647204667980897035314527122613628274120542404818070586459988510268216602295052586150615361722604663063460908221880703660337275106802967814986440689018228898
63 10 0.035785320751732679065717049654145706338612836303571693991191529797667400961569718017345720729775434532347727682243318713081232826503431141971247059175738663948411570388573032935710393688506380040817013176494055731298443630269957219242528192168298434186103865790103269390403707964636539448876
64 1 -0.014007422899736166550616419341176865746045357362406589366626822491560997995014514661744323905927535097904690998617944936022327755691873719918917502586469458395374175233081367192239486354920460590923513408916699458924306766479822853379207334154960312666345158296166493167240634977948083453033
64 2 -0.02486171186612137014225416590902778630239805763802410117900720028463912254983816806113544437262493258051732803399308870045124358861618123961331967267881109193351417849136144620934089559801378401279124504010673929837045609777529870613473967799848946737111085923959734086860273093447324268514
64 3 -0.043009052253814413437012929938236969953174223826987650332165265354910374966168407433676021150013727198382517729916253443078967704452052344946043656449196343749956999202662810433714120705122900726732981071583413453002330611915835646776438782913380486887279590900576233120509965521690349704054
64 4 0.010734359289489311691077587408935262717480248136448511092584138703846989572638292218520997146075357358144016203475396516697924022827340235136977824929361120740440227143760715577190936781958829560641794225299070792775099131116303565118521288632556735021752045019608638285599290756747955291112
64 5 -0.019180676717733955007104188324251250261069446097465251612431632274715522993723718240831849390985510723088063201574047507928098830734116444859089306760067697540402133962616652113753234486017613841976928945931165847131269448228087599547240724154571890690291094292427783067976055358202585833763
64 6 0.014088502223674035444169318484344155927801465286058135225815937067764048857571546708367299237956356132912390188280709339621059260726980498870993725038519173315821196409218018246590162446560674838571102140949332815947044176840140217872859443302375822972432572463479805238351928397063815351569
64 7 -0.025434640883697605527562328814205884179034437870790647440605566302515963713684626306436396037668589439623895342349253461137820117577651886074776482953336845952548569266717915689834090531618497424730990728977398657688937959287100968183882450874358466630485354568026261139177124584734027072893
64 8 -0.0070374066536793946081869551783233623915442245831482857519608510028911570816173388409339572214329920547264596101725262031268846888325150920592139709612128552762533516611924084588241738546358738223360348318785821246980097043687149242753236244946887048036960207358788426633966321282887737332315
64 9 0.088996424347012802328917465013992453817571980490607952061957856997304008336087343372825309037452415752428123015117292274871544900538380475323015576981083157386912883528548140690610224880503628003496547480447902393854291055071844682932294222829301445405200684348440566793133603136649117660432
64 10 0.059708371518982748641485160004615010758309987680259401381426058133514077231664972683625503782148338870967160455496898048398038245881781901617005401789338980357075659994626293308541940936286667219329230771583821052947831722898193269716680813767759944167023400781730260142113738020197607107162
65 1 0.0048625931910345427197255531686983364319412003990340306387156793270745365597196631839380604912452730558450588755922223847534326596619519146393470421446681142722508593688008286015886033523163752728974078842777685025134537682177513543482183147269088651015249403360938112919771440212566141408785
65 2 0.0066913344111409112526272551713287852670018262508104345326108990871044094855887414642592278507612283994826843701305021597705859133613345051319461363082283097196527143967996390601440685733774197915432499837864779253483357395927685306753325865566475766963800227312328509938962670492216919126461
65 3 0.020835048170810497071625298914921394059981758873316330287141969919876903183790688043359491164101268074805741428251712889413346686202184064954526465525828499959620253143837530166130901658067339776015561487867702092666802985158891757512562045962591295913228419078915656743316666388429204516522
65 4 0.0031992207425139072502287422065496862993291794711588790971852726426231740751780984301158645047710547926613878638431592286271895912753700345289131101550567739793052160442478516127920658746163385070003564288004440012800716028416656670142157506882133903411388600753397109976077472392055011994805
65 5 0.0060616853999364932483419137279239954390697608593188417844687047391359277106990088732699316265574450477359364735454437687386230298727493083788132642566913317652359911292393209868145693264806577955705741762440219921573468700880906150876997949172308250370282725659215913355570362891362440156725
65 6 -0.01225771373901637929045280275150154083526157076864848340738157087816377075128346160313277599984912431564984449155354514229213852235948100490640706689142332601364192018333938185555744168248127482074376854104140009337971925792296851431030947515446640573885439921071196920989937160179987764261
65 7 0.018589110242376896103397082233313272582510652102419632026205341833836496932756196856852933211922996260069087844665716192358924023941290484006212115800614044760498949733453265983602099331652957095065314210052153719356514388298313617746345472643800344715507706741481692098209803799071275923763
65 8 0.008811006613447343834175712477456308081874514423942334572551208091703525677437983543666035735793314165266503871026489339720001608884149841666532941870165466727198888464214432695484767294291016242728769108352967497840315266711820600330114363830841734172115637277850750953227752997328663097776
65 9 -0.057989783381836996946543616894800221396388215960586021160939663238996188348908591544985647577113389492507860405754693548845565789758601380919619257062046070312795938727629961120268875229653020772107642193351147952741755527103232464628528211783627424164423814078751788813257654627278798997166
65 10 -0.048138448363324500572402074736273089602766756078999322521727935294970635210795173269017423964356458645488610082574335799877489267709159153858060794017241344489420177089795891369285279169947349556104550540939849895311731063750223127995765446409145695985766702573228433394192462794810036288294
66 1 0.005978652518534117016708626189024190363610011854239628126326689894885698567279482036438639743252717525597932702814705254046363235480017544427997906772480572454503280652647724717913817703035287449142149302565073585955851957596984841261615386431954343766769511471309739628011562102382606410535
66 2 0.012694338394833956969612742749986338555397315198811598852726822666482887003034858532571379323070050996906421745501054487961470712525395908467565335697653290420163109792272406808422873224864215995693948988079566173089769037736225877107595929876457537186549236177682854028633716676262325632355
66 3 0.019493751713947958231665695359870736193096158437286053390984218173529845069785173909404422770612791715242274292340236818949326100334351669047299285712699411892482302923873838024099958802178237278049652774795366276217155951382666486767713591103828103677952272081832741281684780794536429271851
66 4 -0.0058550377326858208288132875289934629987721213596180095015258605332194899040018381493663880835161940993549177466579483513409073891854379353698079575473883267918013626460818984106789716605874563275831299845054155853906893257107519104654474670666589704067500254642269935135321830377410691964459
66 5 0.0091373362032776691779147781401919291867468137751347723846625087716610946815993017100364227804846976766170352792750980121842206439866917552573438154281463167203615563527279501823948663092596666891421791958293640492645134800155407794419976542710482878997875298110784729261509759250010925022244
66 6 -0.0057206911835431883560625049962578981400544865189028381589861044770100870173222921512287582605538640918917915566135606343687352970621344830328675692046512283856837252374733015801447433182183255687794010577683555934774290448443862143695512852344904149288066994943393586526016322018654341970193
66 7 0.010703608569296501386528118794008523575124463311551750352895384246927679423301970138334360884862867207368408492317346970024180889094625483589372315995890986855608786715701580653887168493936839406567412547780789487479162405356468177235304638457629290556690580835810998186744336701657315725536
66 8 0.0027223847467650614552448469508854491522736999762628280474595924775932932078070145957607937740246674859562452809533749108189407965036345570638941396958034657579632719788572326729373733520476018385650196016220225255664578942610571439022717119341108754508546561174864574760631381392882405842154
66 9 -0.038761750427927302221998678603345484689257376865814575687770287290547338483389129793290611448072976551909607788885803091391576573299599609457117249652244349333207830243270381956747512451618337574419247358230166416699244009650516481801285438931441864305609806313881498389709124020641407041657
66 10 -0.025094280982053891704898942594564311139361383890802749632206665052605396683933860305111652919926941016976402068473586093504782727124905593873644463875939069679395902992487265006886374567111457244325064899799444955950655766068576393351317372853183743287056971567750301587655738782948748549521
67 1 0.0044198640030235395136195977477248035012048568148007692635702675190430285051229994046395356493161515739612253847047775913209065057148204283190227240996076820010316930868226088650571338274223595922518158196479951186090767861069267629940047917956892884887694561608553041157541728221338934599922
67 2 0.0075506872442336004999027990751911987016841215306182363445161809613891966063129192200732655547214576177634181775520497676569298857054597833630376075226895544789829217355953472063761548383998350059813004396047897753325502797385046417506241537999990067884615587731413722282895821597827289834721
67 3 0.026408711959692690703027067238713234790770354087057011724983310326625967877285733360164468765387904215925368803667150385504295477383447126485312298700795849377763962171062865865820995986079126695878766051202067337074216980665689107507227769493225831929115111135121889594105836230990237727152
67 4 0.0071217862599657472361395689594363197192599788358664679323285041641129399920069210014025937647157021921098627030306885558785693471400604091474261542949419562999327411983008272209323172447440505107823544017382709072928061098626459579634728606385168793984818993005297541361205465683832249823308
67 5 0.006511781743676128417307428491705680572859754549464407412676042883546650418981070733448625388778770173998442949551206587516568888430510905470643521540327578714855226174932999034835220516962742183253484464246335214965113789524277971600520750024093338607324453963412928196363548970856848461562
67 6 -0.016267907638916458960259400997749112673953411123330419570056519283670499378397341592537045069740954113940621718086037589930210192782497836394976441774312973393874123997455308512894167677326144170831503126608057802655497237555946958368071918762622943924068293189564752610472256440385977029715
67 7 0.024608862203621770142490032782037578011336829338040228138214623003824898641349369382222299949743579677982490677349248972754836390423291141533249097491900132846850033835145842952816203458597024934794182000123325963538701545775047031763356456698356936700908191562935092300057836430926163873117
67 8 0.012948081753063709959743600267994983539775376455504000063523391678364029500733658993084600702177053530885023402206869837663594410572114885512835162268124863096862921837799902659341567162354892301458574681023162415903316546544046707616087817043907485780820144484343094171363557001326818578479
67 9 -0.078650546316859870237311393090222189882307700270987865833938055198145492466952040510017132322026586788266769455377548361249981734637406619231925773935931781253314754260127673152215944257995986117725362825398576821514194526720005045134188548039533098615734420019934455498150985871770460695239
67 10 -0.067097581734715873745102222712658839751991173236072825181922040460870023048078448041025577695182093143643997030694916763602434125822471425118141023818070672344689729691699917410698556084627863027355907354452182163502739291594765319275211387383054576370902182585858048513955331041140781421603
68 1 -0.014344041209168691547824362185969788963176832017476607525485957839891901160392098602453245892036039627475077260598234064137904085962813819505726947272226537405542363879446593577434860404196130846721307157755999886960162941808703280510608324375602765623093527943202585356235148291852174225472
68 2 -0.028361383218724868743238154578395575227750302894187900592574192933988410770339458821501392520566716446317473223340118206834400809816502458873968379604248170853312428233403896821386608174972383225714210998811437885626903222450788968613752262432967730344759310253271709469539023641445110280559
68 3 -0.036118490505330005530399616265835529463958309084149347975706650304037491283382774946642894719510803466542189587080722294943477185512985396872008000273226861328346113782888638083885880635810921290202883252010382531028246015141166211595075216489476796141985974061120781258519469525445459340984
68 4 0.02115410858678608063724929951379606468196288896412592176624328528489319464583850281285805528484369393353670939142821537847708500755493917523509833391162423657372506194970917411738610076901439711379408720079314328355255767722803682219353896780070752921378825044155001486668196461868018173247
68 5 -0.020823887923506810847479361877326921839711964905275136441553577017441528578024357426146568795675197876248268528781696705733068517096479610569282255318372486740388341766243024230890796839997893856437372531088924914246261951848653754648568570253305978757090917670830235161703456211810369433625
68 6 0.002679022457700778669581693957767816644074111637181351179934096923107516746086572807221552678301942330807279076350596434009419063058770146260877017054423308781570263808485848374084581548011633718555418012744513840126580062634717534595744263850295995608980009046539101043625815559785723172019
68 7 -0.011285569487970727054084109655235323057405535448453805077642923375797822164201828238566985289582346353897057506255019666447659164276970444133307154443787885412717320723079780655619322953675614596244373993257158375116563386117044522775720643708258288010498354518212579435960359922045865524643
68 8 0.0022867382638332717405661725735962828117225638845643383985286391950157278375969152947119704803419422029391667386877515400645198934959386196455543596149578239421451750306607672502702373575987587509558466253786970771374605566104265496117644593738657792275984753857856583004963492510235865689614
68 9 0.052449589992376578879781275975677318719360647391087609951993996827171580319678027062336341095747202233688875281143063158542096077671529982683146890652887816041562451438682753478027480668460761842060359304757560523725113818433381053572845000314591695673711660755225411992831084935372593986539
68 10 0.02085904713648554104041107227997612401557625375050571899129307461913500190699707204393451009262600093484772446463430928889204737092384267609160040982388729783038742224659760813682405707566200604145894539749142300377102864655751261075847768423658107891581777736871385011722940827361961841312
69 1 0.00015149868520281513913105757980690467755877399026652881905531282597116080392554617213569876903558706738925536159364920616512606373354240316794732884205943662923079109832164736476607826434523755750290868837045040127654418470350377227874902131370646736996625292312837118082801294364150026909902
69 2 0.0068767782059941647815310107501808071050485618138073624454741940787998741994765852749229658419943729431310180216280829570691195930486676814615565062585142492932074678174353670000659934522161796271081493767389420128615257091519296600004924757507284396990790098894437922675155991447135430673949
69 3 0.011913612617151327917972635850918462640265698152624775028382169316253130257624899924138419802615562683670490897673831379188215635077181832349080471517380409949127141908371526511082128302951293966797458740071499964692063604199708278993374950333876831891613889160330321098041386219414733424667
69 4 0.0012097745809119865380926668949874759235051716718281501777183356917289649133984219707515903720892207984147063618217997275105301402876251328993948396384525045102746022259701030738399893537269263285312594834880853734893751684348872583315867207163025760294986353188789979893093272446304100393356
69 5 0.0039978067573986150634646561038257525888117960377611478513782291020748639034813141546231609637546140262081369009285991457154040867171651069956341935685190206054462839350197300763439772529102637550972537259933180148974721197089864264952877645347171243568030548413631070670387980667175639736411
69 6 -0.0036486129777580294787948517337409585539415335574600044766237611027685148056205294468281585603452566436698576882190036397550606351256351547073424862705308825966941930351406623408622914022877897636252018405643851482264993840496224682459524073181280045442440550221068997151184376169291299340776
69 7 0.0075090117095422192208775550518830940217401560014399162606536517270950418423971992962849202330916528041943608718613740855860048042910193691127328305006794491108999728014487104784026014754809309461356227541334896153212210550167063782959820513877842510414036871074175025167341256162744899931292
69 8 0.0044113645846108989056726776394775568677675993565635255684487255126618265076672907554747172525455959102457489220857580995414739837463127371046240238358033684878144334649512833335806703865982886153113821862520732216086964580089471961804969348120253549244437049669073420036109371602249498012965
69 9 -0.031183964672290370762715304236009960925318380420757812191790885502072940570612309364595132739629641465289149432941141422298921767250051532512238810310079842576149951176912341321897768644544686826706405812961600480417290723509806263328756454492515785737158852956058572466351663532139323322999
69 10 -0.023999897135153813902961042464755794082598452944351249060971242164620755482656584689477117242261171461246207853124360336382740228256233043580583289577463655870009409118624334276998208447248238324840477437641848602591223880458925655382556828790778898615797623254045838820895134517443404733743
70 1 -0.0087828063245723624404481915206836311795735670642336361023857119353037440378258354758591674850218807494375262142074785754425932406184814485673106875833242026831838636621735395184286625189246132411251168549554912212324024543982478494904977365174412617140722646698102766324629904633079489618281
70 2 -0.013539802428646044824672434922963877744399526484102466846914823277420653390109156057946354495739544198347681608194705661955985897649027065396970988099382179242743484672013364732841570145590880152211727287583619579541527853575526141804118342879586324802803523310885875483806118491638285323541
70 3 -0.03488237372715598453799193293336618922754006950580663320431281754920229283229811157268129546873445341910524312915927837886318803359660904292415165516742346836563004002445674553548562153201346096649049776819410461592242780231388005228988625543797622717473853190752313250639943464788055285667
70 4 -0.0019872767335432775583794067005351528872990874522693776137136512883124130618751054838621674633239946277208898928930145960174164044457211212489506099253191181862295877548246391812494264662973383558707835108329545460349215801089040954621798112212633345202310546537512597655321146418938028501563
70 5 -0.01136131458179430271225855722960573598076735773714336272906646918062723893708724729988620175198319118118450166006125127768079828185106744497609184716520310241922581963224999243495109381284262273654602854414781731445217511698756490499559218778451874401898100760425593524805697186420749848695
70 6 0.018118528811528623135242242686329430721092077306868924047794909402699563991561865029444147923464464909639839910556762421760635116560155871313396925651644115253960613627403923758928291655460841492652236938781856540959460060500037946840718742592240318778688569351051204707298798641936660095163
70 7 -0.028301709222441111074414791764038002840697413824025649606566724923516178388340414447414388266590580703998611627197868366107831205375338661076353105916580352745618612344876935439186878213968546324823935430960829519321537748459727392833119054187017581276037855293780315929302133371629472521023
70 8 -0.012500134931954327994820049589402398260563742920928891741262147535919571193643496487096827334055260349870190767887730327593587859861922088258305957985683851480808253903346839141887239947479755428236572696608654829914924723126082499376627349060375708967320502758072941883132030427728024449521
70 9 0.091211720702740984037536877668372675851030970918286283617398252774647969576871991654305266166040405778132223333117495911500578574687993518002554739926774607428258709843787592186630662146739954038127012005573134251298103758761876378337019556011253976441867372816420158145820414484678653119949
70 10 0.072765649075472280391675939696550459500200804245484968275264310538116264806614221846781292272869558680712306381067584402122823376879670652168138106510732586056204205757254143085345347218486478766871048054381806345199033914725147069284477597690454995724761940962418126764693628362074749899424
71 1 0.00098455745748401803157632254416044423571887319858215474244395024307541558195094143923670988886012193781144590714012635252809330853543678755621623332452134704916485504366806042016691997756600207248821815370107922561486618461006903196385613025501682591235957384310449032742256159208366941936143
71 2 -0.002042612738892444912593222843297925224066898430858943240276719485936915396505987353456338471400350264860908287674609940088345079571242121166822311623972764738570609559943095894195034074182095073856405161080290091492843099735458417268036504552114196530980403708676922175503815606728738634075
71 3 -0.0021095684096706964384966733452640890286330272739191993620327199399279598566861604378929954341963956047321446532684153001291813257386743969195602148333276210478274683405875142469082275101607380851562743672071203928841461769338539619201877975811998237379898288236371170949274334569436663969481
71 4 -0.00056238692933205181371556128126890050231029145665012546591333628535011381306731979916800776607123235211368404804804034516496217321607977346441585920465335053247395446631640651798126218008673776680267179289138798275300775807982817670321470110674587190768575368164866025237153164477884107309031
71 5 -0.00060526737588902716830172169121374483556661821657169304165259391885726769468065123555580265315459303488681525549909869712381983268382557218194244746758318611706849802847174981163249280424085420360043449596353489056104750220847397639300847807099595471320482063111600303322283950741083021999972
71 6 0.0003464317655958969770008334771743097733094469479970416266075435280222263018828663374786773931819984222430861862513301499662286543609158839889058511150122962831328058457140369583905228786372417742521973683854109484383455197217838764149548882879293932272665110546611816206129794754746788448833
71 7 -0.00099492162522654908874930892815411651886695584615356933878639411379969935509909455863508690270319342852125150076818074985149930745515741274822258995451693430570433728246550207341907360523849810352574417037039733071768637415158567428783760152992193083146225065533825863806508923162797651208572
71 8 -0.0010588157658925560671809205664709834610977439005401045787156254413694130319480937749333651531309500049571728488600651425491892244242995048004996837981005240548220197295838228422212290669977107870701605226034490088395031934365651984949060279906361547920732018772858372207942922254998142047059
71 9 0.0061113545428643091499819721107149643077280505883473694703814292273173714052544489638062582321106696315199723499281327457975552315810868388801920774526479942244442279302495917791054245402567814258721018744922355209061014977658274588231662051688133962601341458231576056021960013766614933390296
71 10 0.0048737843710822799434566712865571112236198189823306626544487791945716151115389728391565950837669487936262265683846357461058037530811558070571969531471446048712387564431863710484530362448321317901891229135245198965510845935607804052330195588345683368351537113090010073115349513862835098878024
72 1 0.0024716647261013343420019591736780694071666840345169545615693246361226745718987155461273527264338486270799216647168657807183255672267157079514132215468588909796628263719191179398613824434188327227470239460137210378445528322862305189602655794432247370174841700125370044663202795959750603470912
72 2 -0.0019248828168208912666369635715274318231097615176283323334554079157366024705189597403700518620361002886001950266517310672311730986292406799569455932693180083849959541344059561107210551888886072971046757359208025893610647902797682435148175129760370827446032296765457724925489884034148337498321
72 3 0.0058980741309150198205901911307720153428157546682081426736542271163981347412734367259635639042254005548906822178549288780415413105975940492538879322722592622573835462646245134944647617367015531060578545561436223363168945635149760045133549766393318669547616812849752835785040533821692569675414
72 4 0.0037240789268390714556526989329192782117814361279237772829311287339759321498202654754492953263868223771492844389209120868282291682733376577359078475831938972365882268758204022559905701058095584482557447128998458359502063299446639169254601816640391175756979892730663017105349559500286591262513
72 5 0.00051227048282389767615185364123973937938399635864205139911558707432149411876579564037218695486688641096635380501413621154339529289708990006623834520876843926103246698020859435027255688666775760479231055219454637827864540349646912634175914017553991848299074458384522025046664465607088323550485
72 6 -0.0061640130394536701379814102694129858721113614694788649546354859390682038339237820624191984206552778103875977990383821221372373189868424313123047771975207486345177754865482321777237158469790117128463670305740704717371582632277462143527710389411112073761604220584975367998816503946774353265223
72 7 0.0083269551839961453641226127630170871655615805795947831300815894719397535958991096197433386402782568910792967873750616135737118418084861216364149114485525495859708586050294705142704080158274506070072587866894979857108836701007721077178611017763702244426485451021406804473727008832357410057145
72 8 0.0041367711332583457674231192921073314505332922115558841213260148239276454334495440426930955371604315997680490709726580534371045772347777284713483601951018545591553005435631467886197971154306070624485655489759206954113634995472912319277420460622779623325306343688444708789878805652811414989215
72 9 -0.021367398228911466564009871595396101978325598821823830174744631831764684607076073855228221230892938087127149423163167730620896015031067288368602973848281198609144765186928546593594939235914946718174447622504015422239035206662175525961628741077529762390454463566610332747571362800706942130166
72 10 -0.020221637832664168507494320193073483426155875652146139964000107835929226544882831712526300299192552465505218839680283849512810359250557743755445607518399308823809297084713123642157778585243062795880723466849338297144545202702939649424254854720306489882937100779796558993685230711751283290274
73 1 -0.0019854514458212431702809197073680495009484974450049065058766540229513502179399980634746073425452347373181357548916036560080729762165445185906410368602150296369411938894576997555014377893031268315210500640792763757791139535103201342601644647139550621118070584147104112872567430108578189427912
73 2 -0.0027839969606456081206187223068584207173329740211897247161166680092564641646392890001163222127767786523622338959307850527242464088592135438858651894726317422858854207090352922499595929186506240250094542510579483826634254039657660846075828841063718054132189859178052367953434207674282991974814
73 3 -0.021117061904832195760638791187440767054744810402785435343172519869413917020562802553354174831309500008792302534500836815365657275229901533792236813241232071709723853480506629762034117675747051686297708504960984202924653840488172358084249531258480677616722408756065508586234874301107918818721
73 4 -0.011635146529143264932776952818563434226338492367492650150672538781788429513714070576094072062405419723949906768524582656429063609855774839229643764524104626190919419850039301258807865214306879098999961923948985040481838302348261114993149359567269191630898489044366974101440038429563067952592
73 5 -0.0029249593177497738176077015596142563739677278774671025905555768030378536587460876180405271165628349439367488038669094330193252640402249408183463910833026959711845204670198087511461054399608609770943826457136304677526050595618120344823444316666874869983745917256729713704011010152486345870872
73 6 0.01765174551629473299322836741078601608543562684889018804093226235003777862038096553917776520519107099902011692314924799915551849129940323731704612257931859468303552698195238097458378667956119366314570588141971449292688012526324407445828039842460502482240876071291697728681811318429659155122
73 7 -0.024706430788801749628320242730705748950347740945468924790188979181293129264450903182519726318742729105219353153182936314577949217915708308925878463712804053033055785294284653855072686173343442110881372520637640823055213617353424984777286423683988883600449114600141913705876901258813891988753
73 8 -0.014503921887333259228981578847892182213917727264343186523142156684631543255258900882752478503429000909975845295569002928123769310833468417987675591253811156017410026837577080934205317614679432340726237465491413900774619710842206833545873391716826046993677549854353324964603719021072596422587
73 9 0.073935567475469795349052979749415350950800729987691487375606452405827584626993855006979940884534959178188918386903337966388099765022548328637301937704642474199995494001849037781889623529029343548919053390970955335943154982735590409637071647852899276053811548294411560542969121354301475811971
73 10 0.068306626441252945031836014883898557422490888261380493031535446009831441948259201790107113278951748979010774583572831415799309822335749713357449763818746064533319464833064236439593940661656639799165932480805193817490731417680053379033871461747896621702953025787362410634588580481031506159017
74 1 0.011548071804816024280521251957544752785052785665956870496665289004727726046136920380528202637309012964259620553105884682314357700211438814615205284478287594360960407969976523932141501518639706736524756145149050024370540868862079156038465425241016450784765405810652206264788730640193079831733
74 2 0.017384775090792943488091588068057702858159577539038956604732968723713953912963196712236730550167740473894296496882780008319572114167595327001599396329570468726381829202884206435641531695888077002590311263510915881218791668684399250619026750797113734481657915820782741216559405448182045992976
74 3 0.035320358138609514654887665586565494934269639957988442048211047225114683165214115795532052255650793957096837490401578120900450671377475014560867017401355532691788970589658104415911428197730778908426404099432932196678007064204756613253776975494679142787199059824774492554557686927231551986236
74 4 -0.0059313081835471643241369729397359261478506690350721036649612745545074855128421926127433129334061478831277879217477484801547898952826029244441367228362758686674547351413263508774666933058293179186665636110636605557215565807694636996741725153707388968359360191776068264113686619344677476623905
74 5 0.014648791845706688803996720894142416144390026913431987119319163969203666186798701820598345986848342347455376725120627518887478360002039166598598452662282053126002946903109844585183196493826929083088144194046969554931632149563044552414327189237908238895813525960652675334508499046400080237435
74 6 -0.012630866968096846830397276739665349986001161891433529598615255641143962341513733200744426382648489367858737534444538280308196347055892811007935903663530906651350780198507272957053188023189399991991353945639715170313435915763472368698133318343966815860384461856908586237715567408320892616664
74 7 0.022575847964016355899147687605431405686006612833588995730314811910016400914485026990727290967505595610699906746018479190241841754892543858861793517256768772545758195574557674142491964539387448326258401027912491587917838889695693965591410474249357141022020082104859258952300394775804732083081
74 8 0.0071908418807064301467191564655981144975873662883249080582871161111550670974180043184254812555894774322724464141735227288557523332409812742333931325749631848663305315477188477531004480617320504704015562422015570743928951010976806911317260590128513170272003654919617791042069107711460807803657
74 9 -0.077561691648965425634215622652734587322188070589643254142517595321000700966488977017338902858864036445391895585147391588754873172899470172883366717405996748841291624050031587023340803992519253669190668849324921198648742240367043492378810661603703740708448343773574908625574254722871384511122
74 10 -0.054357089579879997032458901295489267453139960626106048336601953258871916806155888822885924308178060207990236297950641600592403787280083797845083616535264458792275786247533569460625603447043274940786276257449193187285295416106741690980036837935285388220463211609407977078015564836738439177748
75 1 0.0071234732127930257447948875084525309435928130593165652484875534792858986416457101421985486247052293079277231844626678692626213483159614343736551538745000516497684959132907697669236112859351617954443988248616231558289246125385639331478544337337887936183007772436221503864583448293887151208941
75 2 0.0061108287364683607312950807317940544286960542889682371049041864545141060012812489240747187447818106944739984686784885427433664939256860584201782580053173679138955445909870634398511587112541797155036612938023082420018309637717217488428960108594841432317103889524020240448343566681697098762112
75 3 0.015816085277627475042760095747750927308476296698955959555586781261259243103335502070220538154502109404346724890020786616233667616361168278788586542066038851536773647848854019896530069087959813124768337093464511287298543412277943108845474254337190370939266351703644400806093275651460264662605
75 4 -0.0030313751449552663006270836957856357380828923378785751219338877008525751338175909306814935142036679043577752870013948435985760888090651424160062717554518843627573112430371421304512844854395855531115049027625273777046849513630436078713412692874285113843264394441116552958640149926877679113273
75 5 0.0064580456436838735666624185220895560158440342707986570505411979483662946518270840196051261021479527616172271073860207929423703366315121882382171988803964013603376361152439572906901921450596509467776729159620332245022599982196507561319513491090929243318410277896648912678503429253418824484333
75 6 -0.0069916044499913409765384088910931231776720248524971130953826198689910948269253795694099963180674453336783597709547455615401303990470646209070686449977215568142687002014358767855562666791787859534022084056704979654684145313735428836149787649679266105826256935018931402792361296108944269107643
75 7 0.011232413748141826578592334319257073671859383310798543927954416272179292958190109895027276876513321897842702649374263120237350297718905409045354666194781087076022343195240657734104738636470505119051779357255976738613349907378453347299719613505099541641629822965203821802946925125635332107695
75 8 0.0029598546783361195380768039342221357099407141984198799533520975740998692213337873511745006241727227684362583842259751903503835455198513328443104179074091001316158780150545364936920750560325615762552879005893323117170968190052536666408377029728050407909814591597298097259214215380141643225879
75 9 -0.034461663941766400013691332996833567816942767646204006494709004645374958189590497523589905620908428834487880607701360466732131650033202666316433362929468375643318230875899505319984836967240720165227649213116352063791958929762178353537023898255713293478761684877992654857551378996993406573604
75 10 -0.024406716670039984197390499749641715156786822980568821250891430900012318539348346150600445911918468132388626394322260304155534735698295387812703922201197712845661694494687041007440747586193747641236764123860510377775358169802968458064172146656944961762328617108995757388076721277711374869869
76 1 0.0025932478056208008709006250913197314591615678037611104761384372683921697245698517159654358735312167481331881697156038144573214892892007223962888439062554786831547005307576494403851307162358252786350098165727207052681927900481675959958757383768086226401067168508165266650378387335493027877583
76 2 0.0092150493905128470207618115536684557150311090345332286960057822851803094522202097413554804076811596487631146534005411884185676238291604988276216562493257167796586758795119063640241097708749448548076569138938539729993869114563369516817012435559745109771825373791291980564317079457915109506503
76 3 0.0043477604400536812297815408298573256770984094052726053612045035109318065706065568946012075282294265422567435468673007501110655285674019654962570717732283304775508131559684840688269988391983131069819860839227917901162119315437671025161988915618580606347391939892058246565023510338391709537256
76 4 -0.010428425956726346038087679242090127698901624290626476060139997399405834058213824167404754983027214411624168599391917745663992699191698319321159064695869608400970281804511297943345422614118761252513947258708720459303321982147628696110888376570981111882802808297980492997714862544120254594771
76 5 0.0056907634073343596883013741385716693253611174014686250561039651534809725538003160973612112859858913181871963996184109300164584434090349719301971789266505334592102545186670779770486894239000554202077856713329329269688892840762112868748108470998800874790608780827105230713708744230172524780678
76 6 0.0059484656035886632815625709921964938787239802903358843769797672670844326209874586535361590525518297433108307438123375639142393235961142576055393905143608533710819983275674976668392179945756183183834712104754069827318090867536413364722053325149962058793781033180554267755682492645107230920854
76 7 -0.0054878857800921555072742094885625701784638128354447927590694493475784631908675356182006521460488521532299602700246510183660216381089982748035854489943051966217350941867718389699285745727666006216526897851988015668580722395160686920835847339834967636689359763797520669495819942804637296152391
76 8 -0.0054536086526156182239450119209755617999223716895301021697284441329677005135798044577314670212022026791385621982412660813798252171616154303218802845254855679812689414702509153242404656910683789650690593498672939148179193290203337524223348860090548200804143755350274348889298249623333330929536
76 9 0.0081444484261099005248634653179636036509075186544535044132820204825828740089637657729130383301647617531431688948215839286403134366349086017002707281332971721591986921810051161056153693723515596079355039234792750907138657132509376372634023479106848259688262967849390231465630976828516607373285
76 10 0.016478283681083569933157054939884939787919642607090628627379950750644671256474287406571569560655920696203328878913902164609007915462176084691986929270394803320042913995421985143464641730911595263261215353955947649028162498927653654309315915242123063038499590565535359165550267147772860701941
77 1 0.0018441570706367204499433065207328193621835192073598316922685940968041314217096096000149161398875580645308558592671011190097917613932834380093200505529708626844370816844769764019699575290750435792697668585042225020356510057973469105536411056322997711779888736353409190995826923489798140242368
77 2 0.0055956555142110238277771208685725363018484059881356322939296417002357849979601045451536777265637361528161580115958781033001928888560528360504576562867054721875476551015990373622709949686206673542040061113542169616527618917901935663494730901212637887482572747800463490017674024570385241551902
77 3 0.010126393944345890720764575898647815501967767039339544010271815786594914937073377529710085980688642745702515681957505295988214057181116162063848876852846459813559716259638524651929081655151189939552226962899436369649442202609640550126081653802038503413518708176182109479514285794686292958702
77 4 -0.0006066307552213917082805138040209026893520653179363387713317049465896999323210697420371247876328407713511597658481858710810588369956591571514337527238229648520673126070447661392636696921341459001698310787483340950857337979466859222120352884729545936429576633205217996411456618755463444997642
77 5 0.0038121848440114044042602929937203739337746462005595203993548860111783585475941339781153499099144976002437346335071656188246292261387240310945930532562662508156962936902122518566920969349883565662206279982856243844969486552044715231874074957774807377383299794165446364451155130884727616848941
77 6 -0.0035671214575535629554135905792429375508280093105509207196263275895420309540851622085875035262498981719753905830553410972107906253850384929400706246102476233825377656419998671729752963884870694866323967333100472443721460027121481977158787121653705303836643809402311036659473574013043222113277
77 7 0.0064453310314532357221096202613412937900035303472719483912957552246798776548299165196511650449384094968053669673640265796027304674437711686557681796661335365344818053324963330846454651953164830620275466984567860082588668718135044054070652373818790125759225191836261531405022169227090262502567
77 8 0.0028019122484404449999052053324605287213468175169506856107001913438481926967052523853230720957651109411040431321831574469245276695571327425143223357233463793440096585914431050923694050683289407804813616713076998010624398471558018219379431565497641716496245137492996300818995826761921196639408
77 9 -0.024045063203499826256558201599993153566560104341253534506122380225314222595781123575756065067070745543688965055579821595642427256590160966393101128622936829056039964848464658117737882373448150006956296086048637051618896670532971393466520203702803968394206006388064302207253873438058449936933
77 10 -0.017731801173001324862224739807032889404224233361165265429080931585000730759576811363691020879743265246834627376701969727268848323228424611812541385787532563949020042622876351924730961179865524947820486392795579405536411990458439819236143162395732596571501940043645743591774818240978775589156
78 1 -0.021994822724403852986961192596782022277071924997121984534676544112217317302624336272691910042498482619958996553686953529017506888284695062971952022985098805853073192166811978258653059972834920882319308052426754049868138251242434935330014993072048807724359324740354924433039629693151350801178
78 2 -0.025651633849904473933347319029057822647409312389533455493442724402967914284302794837372192281726695034714822171971568977219239081707808746822498585751841375472751763480591423596722211658108109705189895173035003551603400054985336300890589101922712935821542901501576275172789260809271733484256
78 3 -0.070447684345884763304491945825358032066053685220954610117274232613498306005323959205493316244918038425420244270275169185503840410410406179912146609883847162324763065454955699422670726775934935310994051052179318523196058405698667160495359820096678775914022026574343383729008076640293698581711
78 4 -0.00018359258131500210951304533115934294626094835655355446612348847749553035403296863728219101569399969292634517820048542659259960578923463216319584286263312438429328735756481492353593398301222662359702993669425047890422328975296392817919411639465843355651756856976817451372109284090333463791024
78 5 -0.02416250108709531823742767261511945205456914713587967372993716744329794103066846167506073086899121508039371145301472973139683354052084954928787433207803270725759599584957936637305246081666639441216863848041859515697837729756933409967075693103791662920239050098594717083385659181333026294839
78 6 0.035770590619924509723731310760912429840668567390957031481585810125472426529379624703332839877326438554399894963113682331135673485066486055455071230644868749391238603680888081429119948471507289273212646664801109018640248384812423102361474270993971164301816561123911659022744455706654500169354
78 7 -0.056113453697749681164400741291895134017518455773077212473930405947289959986776863354631673532817835627285402897655605223597667132849295591792537503916986818572326103208652712330239235571831019760751025927506881615840356448735471392019962000768300272615853166230185997068685339127234405430969
78 8 -0.022403513550535052061355976818981049804022316894847005310017126790512865612351885060990708048723820354830884288313000521624355942600407426250653184868715328573558384889926157887870097335782932977697385935208228291777788577649211036485256071185890622555828167798534385876691817182893814334831
78 9 0.17699286357434335141455669441997232943709804382224539694611994635778178023939890006236099146230396475483029439724977570272877216230953606906878304146108500114323406312137630832035471797901710262513623621520412737684781584582878462119359770410977602074469145939225598945174620740263325416918
78 10 0.13819013911897653040349172600887515039959790083005047433950036787775136164371622643450618588332296623970134853120227132095116494478485761631257833880440795343840283415913106554241269253122571015633787332085920828981345489125423319700476276811485412305453667725085183145423709379974983487092
79 1 -0.005440207164091033730113324067395185805172862376373074076630646025190292464037007201655609695379047682859165458120917609545538407298638784136904767857050016039484490292163050009066802200721564908521214692413377504722175476150677511739193305491836527117274809752820459248938181306085101005412
79 2 0.0011497485786128971352758287997261299096044727375929546775857315704122134544340686219498599069341418436503347522040019782476054226108384328370023455187489514878897270449626654308610348787511495397624772404274931614547592503621260449204468173064616311587898955871387049721991772941580205243941
79 3 -0.022282020319810844001528232183431415676994605729391899659991382617628602642379929868080386137481791841756485640526078930552782944281120550956985953868338449381972667575884023336217154954454248450351473431609982031374576343043743883754896522350030755105282751954753899100588152883958981465493
79 4 -0.012403769797265280615349255172441216511382320763771527828864999564383612726438882495426547261038195942480571605186291818470167134859984468962669119738921466650014778587690690140575963752563203421268636631759653141288880280533077809504588325253053219058807261168497450666226699586776942235367
79 5 -0.0027668915133523334215964416600078785174189660635810082754302346328698332214744844081751949432045297494808809517471517254602939961379974160606017911701333058981635863085052713132532865576655958000464433863160492439030069557910360817685691924587834838795351939643055846783015570477593577673185
79 6 0.020022793226081207494673274375075586821875417377546986046718381235549157360606688041621414974902143565189584713125520908688286372642412543437339355899063157030576420454822593375807803622100565547967361728287944821751531488209069416591631247314200944592549678145556934890251380580850310131639
79 7 -0.027681696970822102504439930026334549323452755114709715084215123634624544260257460924893060060376230326153456751744679804240690878570935019917576851666451412024742846503810612997203813772533672115149052720420722689997151852636090819245439101520614991601131160752877604726436006034555936303108
79 8 -0.014903815624020853425295060196101413335479154656428811194927259719706962446810492993267001640162358676403172090499116668375326949649174110218276692705366688949924827441426141310438764553729635324706624224668479067992576692901697185193375516758672263575826890531150136616647909577490647433037
79 9 0.078023765693786992867200859763187799876763148653272555701014245631516186443649232896426638325755823082462019624384859511349634823907653165211533341039285951127249943130014210385512341694133202750231934721550072773847904818201832493068415780441829131180660106094920355870727011931181097854385
79 10 0.072231272342433744544389658234956413131731932885952208904254930360300030906382504750532312111606297858560575438795200666272988741715754322767911717547690379257732425008096590175100947424522004827902109756594734324496415499594183665111616364974637054800109771580007797191323201200592212744953
80 1 -0.0057183668131091060037242649157486178761250115421477437549481663055405672458312448132218367497283024749560757550281822013935815862795509660667891660755108500885706868024070958907950190640337356038713212892007134371025999169557003364033725208979801084760439405602692501660015446305021644439561
80 2 -0.010445849590524712408823090577785639627936477893014079166381307080491960422555504480665974207853022679225024794824481319430502382996465282573217548791552639485208522450578740255061823153463846671898558138070161673746755008107747741073327720112455899489440403913298152270477677414598782437993
80 3 -0.016687734881525869588658635668939243076848344678720920953038417655792406337086333087455035837964649779763226441740106282151450037918387184661244413107880541577924763554179420417268051122549832287449594671502495470056167256022068532935775898935014645548415380546798952555504461311597765077752
80 4 0.0056398123662783605647279807460172217646437209083171528593503765161242581407810353740095631460407492767974967824697386034827497989041604477672548832592645698429056036470354173588483367431552628806094323427269530433155474981594674413897900832374692680212111153847951171153095782214049800869658
80 5 -0.0079512860125281982462003709921369047395915111064695716786787006367158854927829779959685584605388367720420971653906244180618014867950000544308137070518037601721378405358385318926779980758939013493927798410649236866499380096964857075236149710549609955945375506896966239146318758477983638299353
80 6 0.0038198327040641598038073872949685698712990098630890558759842474004539022163821078361659036589100060388630921596671315767009952931636543369609588573129087272517503346896006977403263343492621632861426391947533492722367784135137531113082531178715110105010386818152872113555508963331859151776507
80 7 -0.0081433276943965469824846641743412132897137693718978385223846215044355806781698617586840822293452115645975034792928461134091957219761325155551992507286434116035070534177520530238081554951449444577613242671483789310192913445026131355536106477684110465798365938169134158613737197333684666058195
80 8 -0.0015236887185170781259239299908749834124368778213858436987479128208609952006936855245632257538532004598050186406861828727455392388541623486665958693614916369476600119519540400584146148444100432964146066818630322990499005184660126726455327723271870654586143018169600903127270974826322169115726
80 9 0.03161009239257441724543866913075750033857756053560211964963911905179405809866463272520365187756256649089944623114601172714564256158668160668773129980285938069420166254060500757553363912240579336234596628177627443217806195437384080412232225766077220710740559325348953537264952421773322775099
80 10 0.019011443167810819847663262549729774733874091943384295032690791914875523677046656110885252467277472472253268386173628065450740452548295689013254571056644415094525227320406887860254884199946519967813710079119574457900417701889393743513783702620596950197376760543015827165989244304652163193248
81 1 -0.0022121310710355453718261719424152823816856314987293613320728542714356432731207191686279681642200739300503591442162042986077929369439765299628266622585691401726802878448694227475630970908511807200123757126777084254566652582920883004095584235071971568673908470636465188298014401483968106489594
81 2 -0.0025002727113141209284805641546151099684892254214960180745930144528576300524488325147442431962423953234417412259315280902977215946183104286173300253100562432947858194040844299138971630692979369114206211077891031910455973025286158876816983466741702981287753270479110707127505411828590735377663
81 3 -0.0041423389891275563666030542558038972171035084895622267799947268205717065905691966551032604729044840770827379954793726001749672533658180456200405600822767588883425655218761187631524888136235928538994909702092216922045339885278655374930698923348016731692551616128427024107910635580437540709217
81 4 0.0021803476857269190778262924245381281989838524482962532127675318547713391168386611597537531704442541120064638913631612026134481935257582714187986989823225246090881547227954091428114981421374761279943550098077728866551061687373213033749850511334803727227144455222407864111777676281164157036415
81 5 -0.0022701394194344491243089224045038417631729731570297816018180642297667554608720664213185693635763491262117728916830397268142999996113050135553802304470695174970209704379662887106172959292132810955111162988133630047633197925654832347139385394319705306036052900993070786310651513480009534938096
81 6 0.0011889386867682980811476037041820755620502814798627807147695805409738422465513730015485968821615409886382408780715806507128669650951446410584302618805630336272602039457347798848029896361979085818040379239740639194246483761471658067615558663643030495169012522770900749797198455156319204880381
81 7 -0.002165051641585617433620571630713418202226237367436851710233333805057405967742219497524048343376926888480809397334262718322240382286916930094821702129670301705026746954555138037916225428125276949737824462485810267358967299445505818631110032431611308984070027181432705487019252877673439411727
81 8 1.4219816807603430560646473683859004168732840369360831645817249355558183608260126221439831021066779314915067033362212678172488099417875460244312002527525440564227631738060545493873330074825953809354636726270939874123276900798411280105833718574397153250180275298546780045943029491002811751078e-05
81 9 0.0066321249798097214591624545773235817265048884024022758413282345574014201515397708376953564665639718193084821382719846514809445561395297615952056952902497569858410732951017457919594545370460751466847904647107256195619205612770068263076979471397268252978363912707682686978140817976341764737898
81 10 0.0034787745420449325210659798783121641711801866258974923625705434558054711455596896307756666935296299115682750993732402777341126415906564130301060447888644274942423078621533895236335743108841511321385332804476931546726720359211579229014269334890225847664179599129720768447988531393025953339529
82 1 -0.001138878221432588304735313596728813060019179818445983117782110751560928517057841262646496919113917223438908867282606600690539895770309866195613513391832194210394004783314055138443688661033570835982728763960405843125183418655661849370577955265994566627307243587437682660810164478408883741452
82 2 0.0045645376383073252429054776819826474914406294470216052065989260889739430410633967069181243831786549840198056901552518525662967671349184475468181597156928260154246456604641286760680165291741826644901565766232217996058584123794888360131507586219360645761007410926715715978156117519307700482334
82 3 0.0043658490901649104196040822611460181881012981852554233795074927366358895053221953304111738819130592573164854073851316411440957087173122428156250042310921617035536455383176779908816407676567884440473239350154208354212272568479543662671547011839765532447076547776755236993800318422668945655011
82 4 -0.00049414725701335095622840160520323793001204606238015160105779538932461533914034047900621865166926098689802041512042933834477236337523010922925759803229502857865954110341351358845726139683077739214061303489448079117636210554861520350022209549860794629722466210974778358613688553851910969997975
82 5 0.0020310034606461774149255895752616860268626029982775278174573553883520556465197493357002861317116087645956839473498936527571585255825182291727792339481117771640370218050646943559414116948128026388861415343616521605140070992782822569652746168618448107038876164996855592390168556885855944820936
82 6 0.00046846442164424277173492182347030939872154154305610024562923828056324447746236970346234802042908677419506634066122273180092537955237160720052786601728385530821069685210056001336148592772703622260834630849026721659169242633592264243167076888161731303779670582255471539737149373844476156569356
82 7 0.0010095095147878258570010024806978576246438618500006166388400335219209836205061913401659838367743321491411366293053041995872863037597014677127604630941711959799713444240060417057263885428861091475753052338788414259118183119349521137639618180846295384465873696720353247051751191033198040520607
82 8 0.0010370440126157606999431918260528105346127611270911128271558536159946499078539999350878854539926881291245912975971832259502287949097284893171875079851575469956613468120720610950055780063430492477275527878056392430346752253901646144092537933427937819522756024876032660927505936107801899546332
82 9 -0.0094696466416370613830698405584530615829348610713672228397358072236990569491372631662372523926449790887542072821369740165563234063735211205323017629019517653078046776173911049541363938135355491395473147636587791926537486714107318328885730913273956152422616840584495964584094349955604413935787
82 10 -0.0059566142571573241787610577057771184503491184232595444223946547924047804386981419939520988073476573872643648797247233664347938141709005884376801011099720564516798770497616630013192879753154198835758555681788633908446648468830467457261078422884437249828892856148578649511605426300352322178486
83 1 0.0092387068166879216627592816609498729104259720267268671300738790537816600719455905916347104575394570523244761992848487624327595691371413715600221926156395070089821973260706827723804325774286262716902931709229166305779833254940274290801651370942094761868232497488608438796910170189628391023367
83 2 0.025738339713744733917761218276802539128992776840060080716858494735212518671007014014781107655868070150332920007813086051377601330321772964802697598223103488328437552448109060981733016863036876174582557128704519064910236272991428309244181216278941320606599754347184806379569446314429304431995
83 3 0.032326794117246643076932674457733824510819907051541221683438500840890759160010884901318754238551179727436712445758015240675693138364381938545123191267513798688842833591189956776259882312358226762963788057221565823863546569139872233896861147391243483531371002836591346186768734831863571831383
83 4 -0.014945670820349325361530071222447534500698112903939430427076915008862473070440359039755907131839042889471188258461138382870389135856493290004907339799355728328056172886523289996201107178222460904954132625382749718092585069919356616658434418239079517537955245741246134205538576895266712172026
83 5 0.017480840034251748699303924250193846742593541840750860427261529947048302395375679307381555525083413061078759393576397722167925280540765810076231613865164773782283193150820074754876891628059571684036609757034847541445775280757769082427977559552568879336919640807879030593935340329816823596017
83 6 -0.0032354712939305285099092592669651633463515121525505603747578550770910208523141158506419479648995078442102875102057042578504446819992132391325912340062791520462129538239624590971859916411695505179094297301489022781005380196784492588127557037513799024293010673492604907208062590627225736767961
83 7 0.011493732341520014106049056128239469508852581560540726656758021852491003911766439223041763024232399608000667125898865707856835710920712841710546609753227548787939884332542008071125489480181740623200140804619407543896850627105617949412913732608732963812965972661911000869172632324805882502736
83 8 0.00073322146338240522071555786972761616920994232976153373175823109394238896418471769821158682519693623689526282242831885730244179635087293751620246664029111825962018807402171889984794941849200928499950396840936723157320014001243211091150713400286081472180559807361195530162272426532559390446718
83 9 -0.053643523411540585118378668713638840948056232943252541751471533635713614000877617957279599311349616865868966982905364452251812883359969959521295216874753026946648773351845844722626305600222780607997408625113268186980346359078805946975754094315176528529576318490602144868381587517185940724914
83 10 -0.027031839896322663380118420667995709017131013098272122656912838539250564623872651521175632104001703381469706765047652118788878007339591623145508707567262805054925081975919035066116274816439578358906349779189057635733491678006852256909916574157717463014579074438395407584100059190156037718623
84 1 -0.0098158561473164645741900793293902258153424563931793468693103462544825607671575855123630452749064566399059142817197943325032749578095811683897205638236648925833889094159367256752766393887451400126863563561713179178030153235863764795720824421193491093936447728533980314391730591943242030527562
84 2 -0.019650751697838523990172137205218955807991900304884949022029860398036273311967161484143369499863573669300298431082551132439731981729047294408824010499464160948728946967362133885892903989052531793650659283832233929026141570454326432320994233765958130594913942697834365955578159371280859919673
84 3 -0.013578924289435709186153680082934893356550188505956064369944665924748363781500327019310388190195681802112854015163051456457439020933192179097723687290171852384286326108146612946045293107206602329032503193787023675050416355783530486587074636204113310009164373129761279935207214971916431613024
84 4 0.023590218078021933625379142004617348976240020956162835515161897857162135494683485762123832808680739365251999577238851532071406604701434525684849399862974151763535841755358930127471167002566893822851474276690998254103438101022873656428554489306631926350795363465055560487436917998748826717732
84 5 -0.013891920607453654195725479045372277861542717496307624188547809755658594340207081158392437376198364452214128238475957611930910199889488622795313106815393283697120480705004145496701757435479868066038427021979159224049326090842347414070331009487105824864873505554741274648656848640482943065347
84 6 -0.0086067301907814297099195286067445703450391540029510628896019906608955469275791397243731920461551320475144769723797708769034591107386456857797597994687802185987258959348321977795216507878451311327661353479947535434403586761218873816983205260444938817981814624298618010135425042872264474164912
84 7 0.0067766947682111939653625976900271786055767900968727928658870530491810120244104827674086497217599952227517426788924501670955912474603138709382536701421404053933499328718320435504450706911365432835439453444097851628341074305269461576698010729924655620282613852921036572028977898092738398381246
84 8 0.010916630112249601748550357993088660559308478573825150851115045443797148948627221189319774004491232023506610048150051585400888746481334822810039922726963347495358061178792716377586144763943684647203233833709059182732035358756658109210152213217856261122357335984533364285536255058557749629938
84 9 -0.0080184627222516867647060564429825539722663439705926600536296196178635586883877799221743250362287914419772832258451641996017371501974202071298008339690361265287509654029465534502520885735851798798492184168798069034567701323900462131564328332474962855037714188797252964680451440744588264394807
84 10 -0.027759598062130008675746716787237391527954089298804969768050818802472893264654538473594504972863928824410660762875491211223834890400538072049603106269632698754744485194960535206531923250223590933103203760548043786167808498993688144032582869448281298792878420057825902628509476225248400632389
85 1 0.0057618780645368829085401200617543281098857977809319717327674884152505005450516636215146292947943900170027408171328135989023005489294217651924495952083508048439960353346059505362590522379476236381546334027660082162952895000170611724909079018734600316625131965765554809516318681216805300190673
85 2 0.0029720229600219861666920026530986040183672127397511894561033454565965049091813946595630112167815666397268129187642293491539132649487500968116564179566564767977826309491009291744578558813762874170246894635749294433413975842054445986391969116461252923574882283180857457960018736088696826406999
85 3 0.0095701830328978820333867653399790512108695145619361060537133380367030091171389180542326731953546624555923452146254073241596477911558156157747289477813486150659267458869015655376012059577409761366937243714284099493230183609227734387818199048704674776387339707879561051155774010796968543261229
85 4 -0.0026632566715660996335911181072017048348678827128045414974653558841893335974543710725998347984324376156692772013683674883444198374592947453936891441194134481452007332119280694055347077770610873105077554668575685485209514204578768709185103498227266945347080737860129744843742106341550397414044
85 5 0.0040706573933206362130494415277972398759983690434968332712641364787142380541341978214209773777353189789201421220114675652595943829934288568907376297536311816818283669223682213388462056918213336942209743697211573823219877447692753807696024246074353005833487282431410777052655377875445818187907
85 6 -0.0050291244166974157501780729946164379997295082907199319644314665643981555900150843737808958868344549000651999649438333512446330620256152115454954813457187068858331149721252130106393229185778576121980857374557210049147091265109874436262965039512642338058231097915653924784955896044920526882681
85 7 0.0073575265403592803535563678739582149310607609429016307603075948059968984252578591486768648763063178186376119093697624748483585096125196879234951757591042899610149798769497073531077055810080912925983193246196000695275285825185747735807383801814055843869772063348423339792298198994917699145116
85 8 0.0013437876757391688770895155650760332933619271642747319372127105755246845597712584567764333121839416869464068024342979724420540573063899738040972477405751211619218236356186839986387743162336977642099896325483076150066487610002348473247629405331060848199600436060760394756179559962691306983031
85 9 -0.019717196006997261293212688435825386935070898015534139735436928947485683808511249255301140006484430711448454410974570316561226708056129586596645163887998566492168306038526937596008549400845196348552305846831547070962684847528663733325870937662388604048610720547940330207759741559734229807882
85 10 -0.013767811185364141998781251785335333144675171171154396531041825319601501488340568291829869185831504571000151042694957747919027790899695911283549688697830150821265358383572079934045866680428938941404878440935566743201121735091042175539933846094157300851961837692184538288033552669232790388149
86 1 0.017936862682251854655713593850294578648040176281540696978322882140841490008340100323907077991694301120172899088167300711101557085516967312997395337660935462584354474515742009077672137617932036938562191852620415339676743503812155951581626305285433822923736032368201789437236235395891994291605
86 2 0.031976198489388150342866294522182643624946627174586918671115720234913874477485811986722576180766982589978806426045486023118231633758697517397626169078061518457393230984181458491224905218255401175565205779272373503570457466604549693580591477546142937433082526225101745598387818276326697572776
86 3 0.047682232352198809072981146699569732535652091391239376375776096897156516964771304133682812758293815379516638940455452816622740103140011522887724136940755179541099203843962455346683407923635744167215997008742172334509512964643873103399669699835851029452511028627508313829580031536184833757811
86 4 -0.020278710851165170473937561330392164316207251412221043367015736895647345208922015559091330017359774185274784210680719590861482364266319749015636986171270447852823949688148980356388815750256015916213811395145109886430869281419706886782851417843071458494040130696774473613455755908678018802006
86 5 0.024377177686070663416400124892231163690791745494892575657551011348682283645864191972724072188839267416422494438034067988593274414056245096190794312547742496953605844951385593712384181330531142729736792679822792950290823673443207348904035585602662464556377437018353323580819193042454220568395
86 6 -0.0095418768324554822191566002100695893302562853744073176359736175912554508303966095157786354291382584753237920331597284447839586068496183358527709262714260295123097575856908846968225540627611300631791860008680876258191367389775060756153857788755661783281615346385715717085043879961062063185911
86 7 0.02141545259450343686341390638196334642036255274197817640871568124445068668815996146660470637679091346801640118969461528223734854702983197529664778403117508254051646267926899058058836135276706291033977495036791694139479798938191893222241048624397148390053923409587609832868249859880893674043
86 8 0.0020009372001611415363717324379507226711264855453952518297161189074295079442513135159708845164766679876622862866468498378858086643962419830971647186481611067247620975851425113208764964566701635064153335776435264990923323719773547708520352487384922822735258553232810491618050480001756980477497
86 9 -0.083244658195755812355124067922152661260440269174640235021061568620464652708085779653922800255746141704046523106314395735471875294000694631482677093240307353105416645214604810531528073974628737361051981402119840924562644856240813779946610898600888833865298994424231465136313747835190902768922
86 10 -0.045911372459625629067583706743581832079252232806728499112117999041860871515833023626775099338283016872678574220541592305120928359366809649046681942195926102197180431205090496212802511691411333804644095856778387241267789330776602360916004810384599756386091560837429780356567718729992026718179
87 1 -0.0064331033836161358315691470138367269959320822963459118019900541560711232143901548952647594239747250347724988692781823422464928814027761995797493292136531927002397336192387411399469805768761828391948220565997436005339020816052619694377491071749683030039223569854712958415297819841874987991893
87 2 -0.0085940732473872742790602838334060586704279586100858774276485429532973755504706308176658717035149607754322140865974517075216240678621517853590817313101784911178896705290266989577887536397240139165588546228604513687778035767034591358142712594548006089852546068633629533479117191077222472424333
87 3 -0.029606917400409627022034488810735479180692419560421249846518664753969821946594393235210875841561484379835980735333739262066311046192332093490725689317063596519301390334061298034996946866130468166817206637737508169495006525654177279044143435015890854928164683882306476925042530352605601388337
87 4 -0.0059968329795714507865399717803665754112977556815009853841004394165009797707432480172162109210909137519095408493174437534678906946841939018226957650162047260501249855738249779410130745757513201549603076096513134763668632533416520133137643737336313234863938497890708484138741909317182346101504
87 5 -0.0080354362309994526767736034882590108102655649351702816971222980183038384481799481394691959736712497701432401384323490745717098707836103797966219616634029491856030252983489825500139495219138342899198272737542334323437708511139758093751246983867084359094960291974835185367994083083341617442676
87 6 0.017859032451887682979028011367630245078506477632636049471543496913899658859913020559819030295491466271012327583043177819524454426110195389746870362987378088679474216173480521030114264550252340478623027407180318616529177729767681176050497695906478338203160903342336705000049599254247980363353
87 7 -0.02704385536847494862893171682148945108790262676683946578861319451868464385467664858974777556407269496976866939624810729644674722631922500646152236790070615194850800596172277284468195459557362118352650159787337157186033283954100750068045534883340006655083720660944065447398267059592046033489
87 8 -0.013298158218765506754708755424938240529864624214545667335841735627118758768247511221110562608782562465462778027089879345435548556762519180065327552581830771262336697540654873841540885378126276172887924426727660518061341396079020944031279707369436497565797815844324233029186515797647130716449
87 9 0.084719464279634565797829119213507703455748749685945715981712867462226729947921825637467436604759274903629340439227105753849033834654997517041294461953168564351410767876730430351409941059541393050211381285333098825037438333454906823718064924616206406732750405921585790827963306798313439259137
87 10 0.071172821015709540064029537363402940236900256376454248418727343142703763273430213002773978542956432993574065616033013500458978835697835482072927356221174398292508449703932228328211370396306851122074180903532312747869900672871249975477303048458176286715722711131997300091550884008706460350165
88 1 0.0020715527941269948917583883432867819978560114025608462319795904898524574264782452532517451384023249565689964613289131735667723855532950292408546059835852659147734799993199580801187306964673432769760052839593748077051377366193237850261187921495851465936668262789581064604661343628792121690359
88 2 0.0059992283411896300138749095960423613065151686900393120583474205213992448256565310245684002968866706423387609676440806229280202675127358981858753924273834660378705213284025377844295985798346830511743193341652174171765049747534606195079903289168408226831068044943502597797291692036877588689688
88 3 7.5687488449075742376342800973379792054151280093323022862964411488760524432130171686175662558576936332507970288082747182642189129775113300764997494437357598353480387237986517841630216303169845744337011560715669150581732202050355139312926069478992624120542076482430825541508353289549157558701e-05
88 4 -0.0096237196061065417693870817121673444769317126741340410602555354854809909188057450269247080615534647222407347064866793472887427170128434950133391969374376778749160940036582174902506391263529249038862732327525002926650093540016804856974711881948155220408919893294686633749631384299653712699767
88 5 0.0038457807075168778357538708942115609523363334119827977482372476502984871386183315179207312797243049872448701860805374970584035098547024129266477074280701299897618558144645804847106931281833275893112819866008045060258130994339979078577643464292730475165920242440040247752923775844490114476517
88 6 0.0071109601986644375405414830781066417548977802351554129576875129513479180759582870583712628308893762675491351735192741501666757179665132811220860231078229154156777707841747889577470723467721698458228197430418769418911606717045543656625347240748464263051263198420244921694359137449525423170694
88 7 -0.00774839352132259705958989251148135757295071945652080879942166636741913236885590404859736269460171191097437016039301140042132658320735861333009355487907491351733308470577465171347640465726184375014027222270701462511344663747478058117026493323712769016116544811601044407767617677175736344708
88 8 -0.0063911222431926340643581898780881096646141159825948747891980465380900977543012167498425910438930395636776164293018443822903190976388714100166871399790106692347176797942834009751819873694861143487622956993704018145975414231497243497840410884676789172152050440839648467888782900523219599046954
88 9 0.01742723028195880609825291949416786278250018124235865332035172199376387618579644325319180358548908747399546642388064283340937941809956140595202658366807130228106503040071195344857470325494370124484497209882611483340352088875267239095015356399004014112452736753068822587878795704840494715149
88 10 0.022907542819321167060273071694817950219589718566974340724868524077366729847170664634109835177270022721768889373618795802602067328000711333487573283293629257852391921298841591629367337645019002735143605527409495626369510961261835545583538724245732050478441695189247566917525189617731108352345
89 1 0.0076054895879314449237925500597584201801628051223666800949544857066218205178650001396020835663856874058515571267906279658786543865466695659828020577740094655281856740329047967600730380369789887039271141751713909292477407347254907113427654914082713093438440915851250007166176450984302867627516
89 2 0.007995592816385968118482217645665132971219143668856187596163899267481405531454645257807234748062400281166052522724068880045599554740280990526196802035228941639691332026760870885160669415696887134638458430794075368343542110187804987051437219403065674605687287497410570791617177909141722965184
89 3 0.014029408942997952448736813476933433009928603106290386499416994548677797381154555704299303403284876871382674294692160768713466399676664427614373722012872250169318996681490140784893037555377970594519637421463117333781099465839491617533259779944235227866106397870045930976641883301723490120457
89 4 -0.0073841972690405608071968511749539763659363331513200845804791479066012243772161195905647210229015076449370592375447801122521157133831334248104984267236781054358182842190107437983458660988650476186900616966846686408433013489218424624864757561991265873501172633724459858178168755699413432382433
89 5 0.0075072113492245577098489222989027838678894777072462308636829124497917006821966371354685423787385605483961424359698268573126784556559446293376426271874784663460462564898537941262466926692516052850482676942188773455671821149911623231011183685498057644041625475437505278803480335519796629438038
89 6 -0.00294199026619788997338217367167666555089214640255823909683598983949508977227683749849178846688525590092753810523971513507811676797862057445440321226544077270727173183448232046786023053296456741909456726590803083655585116879650708795261361608724552390169648384536844189915502277028906853704
89 7 0.0063080787360448741992682937702405361617125515281849097132711981320043973425276635866793282719197905375396415042743622041665299577856278859725251412368001217034835739562231971534027432776474524304130363742740352426358821793261648791364416590336460193352866316741088189073638765474005034975326
89 8 -0.00054053529603157943959193247747725405403917343145219899510855634890493353916382677784241471864007175406852033728462063528706432570768586345128585683444736108787188176214100395425006393581871713576399349992626485607997509516413282695559795894928510168230938974111600472098406786812671412580255
89 9 -0.021973870358384587177047534688488679582680986195355073532732451321724445913734433457881168808377139380556951960435594119747857859424336694591841193663770442343640512453119107313333655463133184294847295986920663981093617195829328269718783296185570887734464621874127768875590235565325055092158
89 10 -0.010469758658588540155711139814252275833894362312411690730580280878829451193468193943645078264358247752917604451627066093608268475357526125942896946995985676995592975019495892003296261798377650615432828013993495398921555715205971261129246190933117903679268474561895666079770172992801924432083
90 1 -0.014299434549028275769242019132010422211093645529640713273697407789856057621689744711900536216441884359128569701778141850964353388248399230372882554614416576276093230653759354687472894738350010997494868143188091056527059994479144244018248488132985590350922595648465401954450097404224403924264
90 2 -0.022813663689179994053344243698993091414591264421033243232482966580263814452674519259928675240722925339014481203403633555955678103608041936267516367637482284250391729394809864649217468556289113786578624840623603889407083730632174206019441628423333213903778979516694421591193014096416959155339
90 3 -0.038234562973553739851714375324449202820283637747088012284225514814937017314238355566574540873487384335404713349929906427556011654371899902227844753176807056226537111213561569219020322095982447569787801548031812453814811454441682397087351240319067219420715691897136914904136918651096708280318
90 4 0.012990169671314910134895897099309965105953571096737931845839351090733793910117424778735259017465270784802648575121054271132478851707387221366639293850937273269656326979119581775809400291459583263205925369600424542119382681485495406424448313381636236657220274422050142975927765956476667643794
90 5 -0.018253899851995646920769658313006794188368723361446914364475709895656359092307222644473022431222246011965803989232143565614612692439366198371859424711809504977335848974758613272753538759890308076548100078761058195832886897931515859535722345633192580862693451467618856853731992506640019976794
90 6 0.010255563969209492427835398308575510724431876891170204108832476625925271881704347890324615472493919684670880480124609922678228655542393676711457134565104365115436637577114235882091914947641219288389552399349005356942083364018416925360718233261786475057544206661776386342544930446460664935849
90 7 -0.020126629063213984490265336028430687297468408020662062858640455325172203172998304089014728970136454684680891889271353018741968938618259740927584015545720754241454776274105673996679314016978930809332069763890337092414110127547688406257972307991355620915666897992789176317748092038709159257252
90 8 -0.0037088236405580222394420941690422939170736617668666988360059661795185334253834003390341411401481840888827181044614752641992528980522195382966945649918469013210626319371553681053516617854496819613382354509549451831234757582853590144897073312929486828892636642745588814205069898295599208700346
90 9 0.072590350442125366425374446604425191490599196027195075353175541108585513458647885924010547304567919746413473891415692601787613208680974455378143619421066171798567134296024889893291751280413831037448283550407282775843246056510964264870624747095936322602022941440434915316212020772098045613547
90 10 0.044535667300475045041272098488856579676560059579060354210084646056719902732715865429471238785905077854260852185706722520486371424603150633985114602054627767997713184902681764156761178471111929320689033396603303032800421162253197236063598387260842168710174492091986917263122377070241935501015
91 1 -0.0073274133445293287666348426599962292963343834179177108126422637695974754496263917204590443915175655382911364167589425968351697069185392644096176628784356462624741375215923413393221550368730868167270444762664948017453138520653385260210957998782905771720483786056531512612122663545831840799526
91 2 -0.004117933157763306931956857106213865710081723889141178148706494812402237106844253845925894252425627049611973846140060335218108734970733838270054425156895541513752627316649783536596198087795423063664975459152785183032577762037071933855542307227533505096316729799148347937677473036982808532315
91 3 -0.0060287997322488644655853845343396179250653220990641519574847626878778418275276035227177566131205193615412018711955606489305325277260367104031847769455831884022767882866053983089753627571826725580402414729657396158310875950993677921373491031237207444309881423844178137465054628363314646674932
91 4 0.0090796979116006534286100472849128941985353589389403851013242382124856082716311031452085590385960534369049154753917029434186086152048974534475097801264894240103015839319577361369547249840900158123651048026966081784952017518273050396401661185438145012991710175139444109189348541442079055200354
91 5 -0.0052076748221267133607148090158147271297582843743565204600422707321406805691913756709041366705255171584720922189252352577156277460665330061876507729201659782724519569225630081713506166401714046785821527842010993134952958074412241334962433877248371986227625996062333041701980855733154489328454
91 6 -0.0010749456693649855114200512374707627685819260898907259880388678849986684444598069751513172072246506057851179203486206142692969095457646880272004263590348373620116986015123136211415078849025465840256905083696966213014156685028652192934507086376546250653965501427016464705990803318318397939622
91 7 0.00021068726983591723739692740126422468455248666244094870830549415732428232396699392769485067095829106745843151443352466849051588788540314711076390027766499270004830707923022126016620898254175714601923426807559894598018741241346226101148787124196114775720079198537987746863350301507742609461606
91 8 0.0042990012686147579859784674802463662017782652454070404586857134263635399566365559067340694551404286104000056122523614233697381586865168776324231693528163842277379704535725715524321398799742694732161055890493766787439964184124878513342532097733312914038253359246877967977304575929770139552019
91 9 -0.00094046915730024676472580293780400875155713111214116608877479149760433244869236306468180702728370888023905519278160416652781766280236851312538253471481724246554062645718966002262335510535261964242267676284553171925967882007928556346298698923759192798907192824688988245859806719779849560273845
91 10 -0.0086223300437801539085002233749382599248572633373563448850272548930375559339842127902242138962758761575487509833261550688407077893226240564521931353889942691428728910415070855542492502279528576310685987716572410697211594687512617682629830514194830636737314157931803461944859402575523732340929
92 1 0.01003942512815264340970986090343394717587802214409770492721754310559319399076293249519192150092323564035834548528226506717192783950644584384160238284827750697055102943006061670399360857837970503868487992418566944568223013090242114831213348851983833716116827343329814459144655170436683754179
92 2 0.012473737883384912637131321491703009121149390164449326235151967775622042488562723943425509119180369856458372259290702945962720448138587737741321528908782397234240858472274267838521284799702960833738835673539315464034752367697670133784098125608574201346686920195161086925768429724763650190227
92 3 0.031835714898060671758532999987644643366434838789788536656234779080819050127800274110704368014649351932875798079681787411916229696481253126088687288116641499791556128265690480947910288251781228837291328358921347776988674775410907240968984242258747352331857916764577650750472325616647433684815
92 4 -0.0014250676760053550225351811856635681862342005072169584937080891885178282657300331262659147328007762037559900946460406569160783009284625716136229232585718190594620757816014632600060378717386507406315591124343053537351206373165889697750217271587935359805210295374048766273656272370895871802889
92 5 0.011590945785460392214416066655100595180508541754726903040298171325061734438702452514294370925104442674682502719230855872791710823235393421601008263695933857814044103539346061648277678347491340840384814671340922665699145780964273588422861026302176770864375228029362887838070000194441563542711
92 6 -0.014046396258057233585229090959998577171577222865099046570205773543565601592775634607871400310894205903103277845442314124149516981526486844536189008056977411027316665411504407026248089272926379486780128899958389440475955811704064320078717055521889779592990013315897088737468095105339857544433
92 7 0.02338919139733685856901972460272642845685827990040044459915413461359052357222795507580141911706779113511826073146746184598337998670325858466075708659819472826343561248827785281796319839626842857984084921256671824097292760049529706814229466194009248287875420907552199732788170973466874231154
92 8 0.0088693156894456954570855950057680664524323065377248782367846107541402959427302560250148275750781880766686881322240415944085944690368832678085656057527589259728406093688033703477206998152482504665007803753692481434662470767559850157798915240021068651922713245952997878384946357214395047996789
92 9 -0.076731494419290945942740141015970532804838404130545201422909914218166524081595162751534486408891650379455544161701014434619103179371959553710690253090879555169600528581672961334320866720635400276571303296999553939888330953449859667588749426606649903704601059385771305169610029798520425012089
92 10 -0.05779635845087402780200536465263817878364680788401073271225716381804083826677397630687358493726826391364361984135835142766702729231146428863234704211645256588685221165784674841644271660726174484646210547384445628196903853248292398088093517232815193666970424111778818522347363518390610155742
93 1 -0.0017040976399672700027846965231580529595523366857601002900840240584566276747592919374401630192593110011666155232524928876907089910049209715600638538729018493311633086215893533236052657245358522966015860556581864882399922849134703003969189203887138407225610958447275463963797784410653130109801
93 2 -0.010567781201053560273527710983983718529831754000921902949388962525586798527160738137784116151880869874929661477029099603057693844711647298291619647737406394777825453468865275777063769954190503629017415018193623564328979048396797682331746253506087739334140318029355916197174892375588806506722
93 3 -0.013563831394669461785557840408022268857044821722166999849603567560887605128847512304799917703074155353812784308141747664414992592803886596423105131137494703487642786539644023775649851223365310203213053868203005651943486181864932874546351915134017779792499872945855774815194061885022518505295
93 4 0.0030561235613834321514108950061323232199160952336557346229144700515034849624376170528833067502368600858214956156864395741264816941070005606222122192669546055360653953712091368024923552739906554089810621567474331846135183431803675877649599157263835739372957465803719412940777569310575675725426
93 5 -0.0062997737094875674023731024147996952259500119488790756320796460295003888145723783059201177390048517297696037040479923606687712596958213299442681122459898757536553762757384611182488235548142053198861132344975999573109252179696712050912188932534338470436322538878139472858690364122655210296712
93 6 0.0031361516169453424122569867541088802754485369951023815587668196070589155059511715639646396267636130305534391748423702234057137161423136767794712938400332848182701403252692181991830096575043364648394649250748268323666592247819690955785087682423397267623402495162795149934307739488376021194205
93 7 -0.0068740992603788811984999853846269365840476566967368437273727470841422435360971475998927094378087463339758054534799833334409512956644179448715291673102302346190343779526497678446355444054085249970375375102365553904064876088561435812633124378498618737144435455982529325453312322932325049969558
93 8 -0.0027187529520631606473919243759730975728207123087415967059375620773367481842186545042272371126149221475159388658476132094617449235943516333366103333763622252952610884378463790048298461511206758572750245442568033911969230787230678362847937981015973353827090385976811820201219168762910766743487
93 9 0.028450475540086914943575717143765239130000517236180314196903120839962442970754999771366634308051526405872367606940222384633286909659435255260978596940990052337226053771014021802372018499826902038934645126008737775175053733705659489203534133729431482491552873479173986313359062978124306993954
93 10 0.019106330444492718586589593717018237054417922184181426210157033896079559684150015856084644836701781669275302588406871786817841059163951750398429161835544703059099718538586476271418763112365481818605039780827179251291407903642644272043702207124911403115690810534464778212036105070486530744232
94 1 -0.0085599617307642889287137668597411175516805764493220984802698756148103813089510975341307657855739942900062722833054108694275454544782074119003834768852607003095378406914104010858714303970695684132103856409714391986425279266900188248113495184699730565624319787549212777153875377834820515270554
94 2 -0.0029835041306241433266290721015127160512309297848084504140493113490078917518419080738104384084820683430320024754754125215913980245430452489985486546348770490997064155943438310881754787857986366176974564496339717579060491368947855708880307114935341349874515602744816497679067250695793121680654
94 3 -0.039028992213828259702212044612745994073355392238886573773110813124603427939309018542345518321094576430342402001567428331677251399660013884884750849853148494939297741518917457688357431954087110815889169186725018680067941269802194448741265247724100443198281205296987924775692235424550636934004
94 4 -0.0175589942897223228490301520936373562850417359263768432733504209298369279992015489665173915346953531878729531187354750654927444556623971831993792130083834355495150806182345589841456981887213781359148555660600943141687604398912370935585443141343046654760055541171636873827641330373522116015
94 5 -0.0064917520308502549868062685801711513805187667146997121226797516698510907147792521425921636406476581874121487158565065287372900802603940415235550413101608688264890218219570549143967383271038052641415243229236779955693478674014539891291353516957629136620842842140246136796746186198279897649909
94 6 0.031873972699494503980629131282984830259884454641484633760456971234058382220602287731621103406739688966120768409912045655679788905128469098546327270901033364125456206935707188797430764146283413705467297723332670619819698035102572932332708236910881449537229520921954163421214763934236109264554
94 7 -0.044586822867785327264537813647128729651917119750040123662172463141827237047237862767023055419077742694372770840552636655222270833782069561000049103701463809609675287783219647487842905430307389177127178744816073954513067849180454229986752587060850950244813590097059739305637696100008849770382
94 8 -0.023727081032361708816581573609246858556644395233289431395373248220996255912620879969491082488997922218949606114592205453742393921907259553341527958547795301899673653041300135538534344062054176906130777627085374656629613066959139419176919105682531810292066912668044577048579109968899054039157
94 9 0.12952914380892888551501317746327655729013947893516113302076702500502897156305968279083856975281430750659224858225323214108636682890170072687443867096554690158594691732711704292873372053783853854218612070759514639033514935066899099933201348444698582229306296952071922934204624164785045735014
94 10 0.11729940512009791198564539373121705251151495258439486362247010334099384540268606131869621911468591065747659107497018562653937627279887070538979803413521531226186004872006145200701499072679341159621682744366855655057418583142063070796771527208771122042014137313989053325027753556568554423564
95 1 -0.0056611334959962385078330858261377441104208656857225876885408824244804606623476950174297598929819640692566663189953256844684223151457477638174392681215446064212410683944011334473538888303116574289149794426623787889006367164096253033917275924402300205327132272277914571075331340430228282068219
95 2 -0.0034393790157506185685456646494278839772390512540911681315806054519470341863522041252189347404174906564219859963728017477844733589531043680113769617543212769602615551769390469989596912412469802916418739549710215809759638760153198975963314575503325851828136504189437953044990188016316069306952
95 3 -0.018577706740898222003286384764038784746004699024337285360521113101190950418094355916881632641182238602246706596088289616098711554509534480059770497318081137518975841016841825049662565728391589263847533975872633741788866601294105850525635458739895683870810904131284377696661844204789521663088
95 4 -0.0038797303534756156890668797946338424115496155450230853208086220280113177519145110596484033921745008050731370600008117506048903456667738970667959685925279445387490456737144550923780663887685528895677311956331060461692970221963540413861413957467484545103009705011500971167010730231800873047139
95 5 -0.0047657509331816145978544131869348384723590725957368728904991773930697410683503306233675476012996453416218810173453716695363022393031228293894856634419193310379064342833561161108092326925679138669763449724210256509016996474879701585212391503431910658314153420773963680871995277002329148595479
95 6 0.012079978022330251817791363808190371151984839068539710382675320574865146917381701316416727852959785148162364117258078428958009382136098806569991326879085586189635458131617702643024092579870673910634450033388901650750928382353000195201268285618143367621746873340257095365083799527294075649325
95 7 -0.017803310867066777011173278626221187738319502309618676055385135655446558770995934420274536278372197212513261480192567812130992510676862750976196055123674485387763724040392562829356195242841571030775960168053852996834456278484460484339471695035570153233878882961296223370139285643929857075537
95 8 -0.0081820919889024935595409700559860778998377312093123343164278129004868250999801963569882165826510328595206342866156799988967847705893307490540629390797279103080079295354235751078777560693343295110780854663675240097449212138165015980368727501911227560804802056406018343757385353982771200508447
95 9 0.053412983896834275684852157368836636810609542778832211008871052522707944454196477647132589426956494742228203444387988975120281857839964440703549115829001872264149954462181441858817877184674647810140107641596330008072551305488085844072262371033084601059741353827346640224893231932524089205834
95 10 0.045040940780891836484473811866146489007172048417713251257050471279045855992701207969086176307102876697254631081822328690760576553985815956764757994725386466497092744989811587880654337484101008761568994995708561840567091498564661483445720851125077577186104400432811115325334797218259837993764
96 1 -0.004237294763026603212629502190619661419864222114794073597996887223118008857799663395175634260059767027734765950464464831211654337513703372877978313792814373451829265155184848366000987899869568910070859488312504546749858996209553973938241238614119308377718759479491354173971517201001458449286
96 2 1.1959139522556228805223939423551966082243003053530061632099143372729640575545043989191948466453489996025075880094694132905965257087369736507863609578632229855518990503456889503966559032635128020650221057236519671999198794768980743543249697778014438137488569258162442033281575791797407343413e-05
96 3 -0.0079967709274077890680038756634878947380499039649373449800465062639371451373659655936671824540509712330220182215480742221355445449947367290379423276958639662945722965977741598293146410417558030838593094592972752143563751813034900645523408050989530240544979309517939201017205551035866639436705
96 4 -0.00099759109929429014894437480758677888969422860916039772534209934398639936059783437267236955333741688187928926157677809043192323732353872573949930614092033272618155239828141972397488659938531153774443563153481859962889184345364684399862385966605348650641109322081911885564776366431329449012633
96 5 -0.0021405515445895235636955423976068002006229342535895389914599326669888788841271410551238127000210303655454026652293990470729216955187895061406528169901421576975736816419198820895471501599821295925261147473861006525059203142014583953289476641922605344585988810876632809367345957410840803782345
96 6 0.0055786949425611727019876201509608106023389642842954687092433966206732055580805751218887050847922963540429664837022333993092606217184026182433984073476207761401444453831921199390454502822875733867824785749538447912987046710876958327022025141075412938191483527640806454310832845230950153807473
96 7 -0.0080102993714301211473891374820487919623871206027706677926552233559712604776244323251256336365675133144561912963567571936190107958945587416678935417984164343756992687411384749834908247343113977220267738995025309219391479573954196840990275858984321489363109770088093285706534652019996601397124
96 8 -0.0029028946124662211426359721752088179205748324231893098375790326713775788493442184092481112886304508495726039132169954336534256838943686303746481723659714762350245505435125016557563360244623191293900120297326275853090818165240223839821697913233040665376373016464474989001495851414090599396346
96 9 0.021775943543557518848498768566118094032184346055453047522558934316288150858869387678351357183244313593226807067659664218948040371822397639475393126392739073746868832792604634718742352207422081486808579622432379822281615748427273428455888088601408806917871867250430148916087412276165676698851
96 10 0.017973805594484501486521337545034875437318923048566750949233742377011650647750470026895285343460474073087191810465123601574530156943735409102855591357100691953649309862754086154949229886082708982050054257818394315057209421765130846639070021301623903773429101161127559235299262317362376613196
97 1 -0.0025829846649621152603432911038820003161597515687579058762073495830883210581498628021687599490749275034933780605710197798136140917088931161119311156126310236513224149138971252362092251442336544921845829351434799658113114071257083343465234693745255281055013804748274799812433336769819291942233
97 2 0.00099276331986639604827901234753540181303364240185636477670837703816133883424716729529379220119234959635258089013589428715367093585239657201263646098346580680269465727364196502599763797732321605296993641420370149943243962443079729469507434375023487665894993422602007070583913735210961043181153
97 3 -0.015731762793407662707553903511087000082827645544844294459942212424844357271740631857868689272439878625117756146793860460365809493257835031432330855516622279829021452445906440785731662428411144094736461098645060907632126735118467821272599004320671512108256467524585546820652565213042483576574
97 4 -0.011076471883780904707248822124378543577577133052538124959710542611838385019689352305405092752103077531922107957848475746311770396060784691256774651135838160818125631001759695571441891424610967037472165758027304240675424797392472650106060796315200385579152076747989407881640537034572706432536
97 5 -0.00095270222979163501927234022751172117454454527188218048377470993809409213188973073695945367671168818451440583250716209682118068719387443668556851679224957388818135906650493224041691186477912413310501875155192914441512987230373788702470883363515201435638451484578090953668195584910612050394847
97 6 0.016431288210641286705669014160188739585197155470377669758167462140150975088311504233986702561409001708918608099511330737255340948101203600727497295870900821435794489051798714431045305816035974968932746543903522398129716421673218134291818353242305905586894926962370365169656671368694354308593
97 7 -0.021601206309782343009595449967520195935578905566376186810301476749829269133534093748691038814244296117571406840866329934766174048586523131385974305492330919530492580740324136956524317914655761502184050300354409683216612164230023203953194602847966622112244146093875711315015073085185901349986
97 8 -0.012407016350398316193116940142453648487876029009401301082173422726293679602085281004811240621948641726522648006931204784625792621209035211834314837593482879101738726804833245305713552225502592170227236537879333076696866335374891594522438596969305514032160433036792248424437128669246191174553
97 9 0.059971887737443720616737863068022018877686801370903504894015905241899509152024243677547012201105921028877944848913844866956571184469003620504330826910164640045352359404719165640610036670009303418340689043657441835842736256176668713387403787971555013793805048715197215768525894956332454060416
97 10 0.057622712980073196392570780662868886910508854592606639580030425727464551854486126402629603237292903854717332573528301706870146083702739688564553163603551969506244810723404252225866127130629102923806722827117534578008124480916875130063168078301430430453494687227679082966463321510742010514637
98 1 -0.0076358448533258154711069022911449989283144902650593612246914608607265160040908222784374819231477731857838184383047175434357941246814018502574454694478783527352514554386189381295314853569561383606755604786395806915553422290189020949963085409695945787636867799002682752195721707844918690322306
98 2 -0.0089563328595403246114217041248844002012944129961742000097851449975098613942311173926866136146335699179340052332594342089172578388429670085564646470647491179665022006483435308023551147815346432548359546582169010320805571610053446733730157895948171474688658331955046205404249963055914114892255
98 3 -0.0091666534205732757990043469301692078188905536081133913341993194986288494942691402932580748652918380294237353795500242691280128862985861597664397581230114347930216194322153024084052616837510222811685087572201661104542101737583501634286042441037373990494583191559965692332673959775904099997351
98 4 0.01222976802519943956520256208629447095212056413502741651103185106850956714565714860865543522400253212137791731386810896062523299727857384657629968805247246467285630057284581083151454227061688895227613589559895057704601913505486673510394203222220942162016749216561518770636302333312007366578
98 5 -0.0077233244457242258738395159066398143738189069730294230921306729552659484208792449203396094465766452127637782143573232006162499031392498565041207939425766710643411803389025239758717163611863285893978273271872286294900022899227674548344222545743166900621675495839406712836057750481707094467776
98 6 -0.0018254492188462654584841686753267520977866210376191648808443999886910717663537477335950884328209778357246876923311982838839155856934051912490755896911945943839122829317073082872248631065500747458775101793010442169447977126368750951338605429567178359682415507767998140046191025056283450465076
98 7 0.00037831578221054536854989136976313443270726165280275550671706578420058209815041558444271671568893052043257418060200297271669465891007118272733645453538370008600064948877089550802761697419413846720563449183611775544375939894236007620544448436598574636382797948382204082342831272278760132799709
98 8 0.0049952172620749090505268319832454061182423758996818703369181169421407157732021744484022613159230717777509595360291957278705519665803162118729881977102683383062407443790665742377087942487165924552601070773273615147444481127353478412482621144160062610675351957816062982054591246000594979204984
98 9 0.0014450104065627296207814366605114077184414241790595541338766438200680441155072360141900121805480473116847531633444022638062122848411293169123187537602032663400570990958340870441550077737510249443039576198326858019352083345182662301495601510116991364139810948256214703111025548646330289435233
98 10 -0.0093896452899769824306753969298828950586295946739525062758045208041639302639191995958543258582440858720636936604526701078989834902148120998320768934125625400762423702697240807568901670910637176152077635574684249802113178634390009768562577347681256873498882903014685541424885734338090992389861
99 1 0.0045712848742928027115719586730038226625112955124061339921949427281896028480620106258319039933249002673985997145751870497431115434196337481764043991064852927195363447151149022163623762982194579769597615907736141290504252742335352214999140575817663104299837834652151614941738318309371429312089
99 2 0.0057917063339991943594387522344924122074803356781563005166539764086274848100314560371335883736926618836382275862290993328824476052091125002878833654213961847165361513066686952723117035354641453704637142036161143947821849454171435306463957590450751411851878380246785934307500510737290075770335
99 3 0.0073988078753583750567206382953719353077291010912627016583759268265065505243216853710766014546611612838302967835471115204345508348243507661573003500916520458747465051667812099604636267836246785820114735920331033784198158481620315747662656649167820373291225441268522598749782576647163126033331
99 4 -0.0070062970484500942021910498600445438985124635307227432370066887514526923243042433503212850391814868041422868990405422355662135201149870844814147459102735673359148153203563757495581574568822162647913756860202049238865490505231885709281987229999428309771799157398327835105115430308388428211698
99 5 0.0052423961930680822339159241700734244812025132445307500968498454096335134035445913778245555055604678031736356107536278803854949561856183913409926112639312121775485535332797729209088315204521495116824693125775288722565263316516462826442934970705199754280478605848513499338849878039034229253396
99 6 0.0020479893189747313204849269763014031660728920481338387445418923160018148691892262463289101886559138998490897931402241307663285149460464180594408376759321087852477555013034730925306713836092266104807632426875961429604802418771469066951374999462325759334697332194439893981103693803915835355397
99 7 -0.0001814359449674040110389561280571424199178836063227304708143098393014631384186646475523889171575184537825354831139511326607206669408063073223762760652746196748989286555391714517691894903965369816698522115626591207136434253086959731954277920128095228768107513859124193155897631290805367631798
99 8 -0.0027637417086454848508764995253645010835272972597442004850285259531374799836374221567174565442207670538288330091927682801029243706091241681570280839115250689580223137635020278064138603420897606385755157763173004778396480336963274259997387855252482555914016154138832403032822784555432743316703
99 9 -0.0051144010260085821244109265913690816273468181573520512644941860296980202600280840647020809058336865433508162533160426160981268517824527409800039043944660298639062540175824376234799831955074706973367226332895836399469605403484367712247781465475795254893923683537984056754642626442487964666149
99 10 0.0034584539259554118795961726825795104268016905577715767917391566887090417084441022368039340800767779392861707932933777200107172933892998971163554281147497899634757295907896467975861583492063324380517261683863414863079587894298949448746754186979703347397573806136107995678520165475215070987376
100 1 -0.0084003777814449187782486121723338493369139069026377470169277281271126249338884061539289755570894103589595804261517359727734272402328222729211890633687851574101536792769457542584726799957529768946504512195688457797238736997071720717673538254095553230414069773647962952152227521185107683967347
100 2 -0.0078083639070364181874566868473909067518819284927018707721020402389145194721327999592598272992178168786412363319995458343761435081528603934215106338336575244647879402003318289469449149779724884458724362765600711011101969700778716927176720891859783903689638611025609399552782039741410537917085
100 3 -0.029027469059869089277631441778387423639814635775363197755596072150557448874968988885659656648116283533324556413095282786989787213447482721624289441670472495900660044244184893742145893854297488645236866338403861454442808465051513657776319626201767486708884250608536850070329802550753766006952
100 4 -0.0042709242673832112886069380754660460435551272173422549872550132148832792829088495509991898315946681036426810502524890676391288935993081642410380611598504787956788923718131505662097087705528050139738117994856295907931377077295652849010955809684217414017533428609001162434558242859686637908497
100 5 -0.0081894499020168096971690921416480117344811991014128706923290480921877822672267219112946080161733709821095793267770983280637093459028215876757913472650171074065865433402529896945158076358804702641231212655018617943787201664886826708083554314596551704688895877028556048542578680548785618784885
100 6 0.018184504530922835299344296321327496987799448233977393223762758521411791617168896246315792299322964030799813610856480572952531920558526851666869030816072256809732053182367638045253908606635243204069945183906844214288449616483031114500674957438534639082088345833087782241758687348255987200648
100 7 -0.026726109163944950230875124856707842004027548942684399818823995940703689977194164766941400968948689552636815679015521569335794798229697364393880338624583054884635413727316151639609049810031775165374063048428213133909646518612485510747909123826923418426143102959415299015240127566038197845189
100 8 -0.012039183015202629749327587960135174722786832046715770847678509394519074627594804210516019640159614969637267480571516176769983575816465752850871672915148650732376179838099378414167593805517585519881758081291978087429923329276762203584416913265467585775289600756085384679258573010989332785205
100 9 0.080807894127166933878438907743729404433345629486537195756834759507190726114731697905276815248395531409714569786192262695053070571295670125592202327177203983961594928159841182207317738274141652707937147107442512131700984459454052675052107074348139669631970177219735080999391561450643010936399
100 10 0.067288020769061542390296892284161140433894207683151080271774181002708677028031091720633936528993779005884510158583618799152504861084707617432202044803081091551788299853301180212944415674702670581824948522968912354417610508152453701263681410407875387708370498146488570610202238348085162026903
