100 10 1000
1 1 0.0027368968484538447281412910183046742127915545402020533923848690417117312759013169315742911869950836533331330940124767099043110983420332542787232758521343072409278207044753224198033443555230151592812071541782919230469104768773072356537938142131474054223801803446275254251413170506778507258122
1 2 0.0046720181924802841568985047895382113500205558020635449848854912773152894911140026008979881779233906744510853206343267201687315680093090792278539821545093401094244721125264199846103613314314545477958518357285098051808206958477783639606684998115799509239806753449305974819297582003731234427946
1 3 0.0081846661297365460604982229497935789647630602699576593415457726884718327272563927169093408168145694745353519193864936359937468322077230105328976248705316519042950779838953043411027571494940673600802302227754312154672749423780907524117509772357260353728349277465115628583256092149890211029163
1 4 -0.002139112452586354741876215502793181865337657904813169445975376632960150154556558006865972030079456244818470022879948580027894884531319092307728627405547361969833064445487064520549431403397087714238404259212806003649521169215261986927423010319864784456765724912775044506691312712827492072814
1 5 0.0036901307775448643698439686900913836166421113149921722240526689369753827189065545335727510265200741760505862790830702150242443655474731806786597211361448243715183946908077870086657732671068849224306312493403215636747529203561903115168054203618714264274071515962209265985497181542085602565897
1 6 -0.0024754671859967131033565287350594469001333978699222355414908480840559545727054511331470744111068784064046138033308567819869812031134785013075797425403924739902893167291844272860922344100179735931120757939909782448459699291941655205850149986780623286172925811544306033421554988612803279403728
1 7 0.0046701826424611186635806658104362190707859097974853574263207415280298071231918214042256988223921647212309272894069124523648799485037830001674893103849611477587753453352801262351263002158346171103706533429432455122310465727447951936761443886699929043033357267194924251633770003399289882677572
1 8 0.0012164225531465687804609474049168578354529721063113053599667119279242156564187196845345358847288649312029972083997790186181465325890765500326499533562597363558267376286824471254433890430396801769043670772628780253421406567760041927725856970048659477452426965056394287870682926169510091665604
1 9 -0.016659579438332988435672529914204675556750670767022565782053735051322732880293825733018291578660692599205727366136696985260773105762516711763801919503267382861018245886226580405013584053763215442855341236510863968142985006627221050220096481433910027767862099817004258895388266411176846729721
1 10 -0.010941384220550622817828507018209963166547280182484495599514990869482956176657857570125996593240979428884946039970713674986367710927817308275887275721683484888666516575399957760105934317230637777989016784986531818437661806522273207579558298873591083667787236932356617969636619211284640824784
2 1 -0.012231617457840773708546237410235664421545227253372365699323795089829652864914064429211754305143957521798848865361292648630185038739445556348968158031430132786151299971474016312471413985844358573597602493397925860190130013435472659903058520810502987125332266795245760286779082208811755820156
2 2 -0.01540608157802275383411481339343637334803306398239086626228336723181290613203826960555430575997538609895544005706448941986192083823958157835612246162049193274525936493214943356497508329698405008833872822352282791039066293784375578762391680970896919724520229992004821132564266280498920034024
2 3 -0.043032385772944667298995602334919556112376691687545985268469865506525098032581625213382328050925594719184564480896463672159270767790854321241588986749007634429737109241555738121074047706501849495662856050868048429725715481072821132649059559271349124544739235110755853362493132824326822508708
2 4 -0.0019603454255030113685644078164590014886210406196769833717239432090407532832726865202695636772613614991368390875783785190412460914324731752408077339930483836281516821653129516509593573631331469016995208187364607764716686544767839317691196965236750580883801289093302592643195949963027503823703
2 5 -0.014153708014576639704518808432527429119229300832873004666823519815337558522440020607769904205111589490068166890369984148236254460086794176063181819354729041294358775049570229753737653446136030828579907111342817381916289686796729760081535384537006001832151278153347402032053574926026705766963
2 6 0.02254419486034341610816176340726822971933191400607496806260944119142664856852829427705783528730067397962208538516809274103794717307794598967035557866781005735935118995640116248065543248081669124953408780435087458370729929484877659472618314139022315394659195631398091884015239459607203216394
2 7 -0.035194304966818837620170984527295334394296899358353146580389074451484866488833491327961244556233839960890566122998630704153418878129332628514106787450444587052941060136824264367535735059279674768267411152264032763536694024764294270542688010697718844043246328848020545526091180395715108883836
2 8 -0.014943731855192164269487301818537172381294452051118738413807815980276712119032834173713333449207094031387705481487675590813832517840671415287875639406961731982273416189403541235400460650953455466630850186538987961949828981532311192864627955265861034827187785233030616193651628778909527675303
2 9 0.11141394539155310958921458815171718658153213959500289155839520135678148325950829237306304385583294184406114950193073846631611033117692946368325535393499632774044309467490615248561807686597634376608396716983143236610893847427654028240268877436072660878428399505183374706373693910543777741326
2 10 0.088514826370068611102121766435465053177170805097701452969065291938629142630182707833510305830179672150390327306594165839573947579914542831051708399967800812096690236929095891763517139387973144478510672943836569406144616848631155448963261047858111240179025036198285901801024159117196999798185
3 1 0.01073915842421724221690197655016805088149337674695111165811605707982951790542947222528711343137902913702924612993512887678924714808924517292656870938365760044250624188994820783159250758118278282872996981298465099331883803267254439708386423154770604630284032399906925875208536396976037401615
3 2 0.013746092043509268465065265789139711308566376820096121883708470579699670759109747128078555798667743230432250421401235586397326179504253550055357479545901809822574315188258093336504275060183443259739642363897763190767168488384467204223566647019540374698572522256398877645799558964481039906606
3 3 0.037830702381938050738488777770994839246253231187786521428065761992760002487578209699787116028005777800598110246055961286636072913440475352624556491091600019622038558668002097932732444525422054942621236895284445599424483062264838355669058362760725085031585832774591291818951009721432932987189
3 4 0.0015092633016446118586497587284290336338598812985477003560574293785802275412884398320804297942010715944203118857326701632308440523168494767729703111546481468026507280673547725767990681461144671325653486690395317280603686856818874447568047316507949398931988488988332915228320767652163201129801
3 5 0.012533237030862067892309548397878761829311880876343918194589461977776550297373747522477491017544163358652766729005299466203500639158619605746510918380544189643666300809007887572225588194047824019070407856709422401182796853542333456890579580562339576365536968411465342208396783092486385663274
3 6 -0.019632797554523216777137207145828780483028112344573362290269411521394420883006428992803806018601242329166016151677444616383975028305558027980187662647755927381456585110377197027390847996835481568307392853860390269610608548699551097001309019635888995843311663897959405992491819696820267595726
3 7 0.030736970496889153000410840892126316414605107994584941197127352848490426157331575436864039466911588283086201554420968343568089965734531753452248020222441048126239844920720496556745680012227339919948368668399187800230009359573735704703559311751210096834859188581753478982274966030171753909115
3 8 0.013001971848116012850299954932988833608464515191701734675040098627119852953304032945342648455602140633598810869239519515772400905365190092987494904273731173855031889524403691080574531758722770058269202755673626349825128408493054650995275651942744487298183963680345116285353186201872141199212
3 9 -0.097555864075878289355938883348130578758146019088328496701058679385517991124689095343429019684146636741872344218310081996190695514150587949312155559849681167709668187505182487459831621393647824670944473930800783682786981167748018749468646118242190268362100870531405113649174031045118244513907
3 10 -0.077299947482582086150469179059904361311411258365805888597265048878878312189114414101325297918283809431692263127831611206299624648988943930045303174109700266039328202350062103801266803421003890520746582065394154874400543252067481723653908949369686103109306968599183087077510316156374269150225
4 1 0.0014973286866940079752763582155316756718322231613073342228157782685547442837252624672809659328061327858789423653104232318465104101530208262433179056878768407807569508952134159132823925281891074154251753324003254927877711347034073561351237218318767805563088114143483394736527315040858612617038
4 2 0.0028084561606016160191499690504323902928957775363216748194103558904105847902467718046195301313001522415603266368131415504148286620579125630632810474206595430093503471128976594961931318782687761241230936778570625022584895814373344608708865846634284238646595290641914701647087711874975500506221
4 3 0.0048494999852762667747786188711148098638333006440549416223123556201017617441915095885436100846426173894294392123679222680747251176150905455384256945021070008524449780175958196839401134569624366075014243546365708266553221840823488255725207517692391227114564337019861486291840316189535807997278
4 4 -0.0011558557663622623934939589166430007812507467447002289792292153520222657384453239948646458136640015069102988997102411654488794029691068055361289793349905710955605350041683158031460607634223519421035002188605423242813714082317771994542201909366311853523364936800625452943143829761799778933155
4 5 0.0021536406461562723290547507034365229385664815738745790266634337106065133187034053166019617674563138412354490940380111652288033652842837314160940188329539225567927204609094397178217976935322278998018513666062715836697179363636440362964438412043880590000996038554729626381382270485808556481982
4 6 -0.0014809333086675847790096391433543340474968140477423965529202225089870006222345538409804719209064485353295132008433019734952789440822150642938076587021283272714618461901617999069939341358161913332747269495189495430744987410579434608441837230553860161647908462079393205082354398205387864623729
4 7 0.0027927389668843729458119515727314179779807738108666971526078149262049308605694552901329291045967991813208224040105484279133246343799311090493473697756709958993060694290033176109358927635429320698365723341544420415437713664767380319802533038644860717748839381099355690871965009521658446544691
4 8 0.00080083523034669349802120163624488882490520081742195641605851854773021109483404054550913696279457715642509219755571938486395541471629942013818323152538417003201004427334264047902306434769065658995608421709700516191074344634682408141033502393889157901736309797788177292704733289752685331914944
4 9 -0.010064403657432502956345946000313443481201174507139434225538167600723946639777396464587521690003633782542155455065561100763419145603326253192697892858383401656063468447637301515130967800523447319531347441809474012850597476889087841757842124147832367292090403794472562184040853764621805262455
4 10 -0.0067197939645313838608265735625608179323332863676481819899695636429686610135974073945499303477438388657922637520508737432186181514073590490812644722903609176432458098647992914829239227954645882681515230419935937157142369192184017786443756861684211967323635375755004943155481442168977327405281
5 1 0.00067108033226361624663947592616056186677784411223405221330243493074945294108606374652742193889375587389213002268267444918055433605840706483566465780118816897283568016021756366844074277583035375349248929067080034266023403197551994175779940923595885547936692076011545757632054814094008641689752
5 2 0.0010736466800566406875943082782038097781053807590508657293351290742116596897115444200920740748646507548627824601975699830517896784181947939771714889075077927643533009477815204572828879103504950964175499735072747115423817698549113617340501012295461692623880669753727026326664427711090432009033
5 3 0.0029683360362270905472988295896265357433348270826951165157406210302132047320728734515071512440382507203846858101240631238002911630742989088612277879200077411040334244215349882695090126747486770091332055532388762574370935849899933133878103078322444891581806422223478061798935930556542145477228
5 4 0.00034349541620906215091625519779649456672797818157846874478547651322631453493927113113491601127949687102997893310681814051606576181395011880177634536732892858261942575568576566311594720644714081273151599470778425540317510995933473562171364354825131307965594980602406739503978817943908426976703
5 5 0.00090856646663658410037943277425490301446252337968251644188622845934506029166968535698382268855424070170912854461828628856615944441993965198730076553021735732818332403999932366132794283076039537433394893691264582734619816636980429581463215689849715678266120781678707771016067109498069011416006
5 6 -0.0016234379572928348817862130800155622936679765052539811318554711319128327277760614728444717112427990714944963035092419436071610121123047465115766431608467460559497894415281498420001300027620120202159134062039898520602407478582080258735200879673725720334043396344935245417881258211194845284724
5 7 0.0025151200815269728592029595843233636410191955549525740581664248781567750061182140716916747727762571591233573710833614671167469866744212561459306569295666912845239527996874512489691018295104662994877973595383118030669806190984922241555110598935791503736648981394485851008812088812305695757159
5 8 0.0011775172501463241451780457362001913794591268363942939041432502570920670529490568000770514555843484477302117747529793575198612706818108676331433083224978938852940258700623246734544718798108334700416791950240546105424146031564332333297488405679206163684232307219473768721470498900158989492413
5 9 -0.0080533760650211461726919388015721713764568362113990960419465848635774526567092558893255786653308637457270406830495314351847252479853402084234888829614931592211622948360449809395859640228774166271544147818331461956217381673321561612849725354891119187502092839600939896550387864535549930472578
5 10 -0.0065674702592699915376462427116181049404722180499484335682748685779830443229181363475990248836488471589317116640654939961713078759149826048234860393731133138659728807253041471274640240024239637536355928205890827580445433920415483242234142115531526203356803177060910393962996032566963286496925
6 1 -0.0030956855986199749524597335616475794422246786270620174465518797385820609266671063444591037512492185811618010851412662831660812488993183612749390050152229110219661024326293722642346378272666453890242918901205645345459430932685418726347437138480176276252807845711040796501169543679672453312355
6 2 -0.0038161965579488344119246070790849207904433866590821167570204712563348349225838778064620690387903745625237774843462544627396212977915931095119052119954572678461317908874087753957883970748601072918289512588376698933212873810569002918133292900984006772321743900625189712963804782755002699542264
6 3 -0.010528894970334214316922813101238344827311421902132071087775144445354687325600454143799167246634772381334128834036582095560070030270794057796470313874003381834707300505774113423381805860376365295482559614035281869707575948922107439598474075183681641535459370745835936825569595210258200931694
6 4 -0.00029500240179697882837287013093602873239915574497778066881313142642901444136008589086344935637483486678513920249258998408588352024549084666817845867870027766939980944800943457914184348829178814896038964115367133939177653531518302705253012597701063784985838534872591445343088200613359008117708
6 5 -0.0035284989266778738018416211755206631793145203335804750350696848507991913380561072486724840993657781962487863590580517033475983441408606565382704541223720636239031179618896421097109872253041955406887972196237764702011659346712990103819981527981581280396722889168319124703939281850032567675234
6 6 0.0054264456644161034113999275438770376612770771260210207162042998280376581813739984487347857094532867759576554759943911829072239334841062440259138661308147079415184556009358294965255005231694648183944285991856332093483445723033565306904810050780458828857520483713425016820676782597351692667328
6 7 -0.0085050588297132476896749412043429354828549855705205859730865119649121340495759753545972406880661901637286772595954669512874438715048614629947595759452833112930520287148162438593435227532241268342157261496008210810778104128191758730405333614391810533913631897890866851706254421703197425179912
6 8 -0.0035308090661371050231653709204519658467686687687116909212754868118604566024197687600168856960301907582980943244084525248799208334163895273948666199851278770435584865642746956647529741983481725100915360677668789068851861389012144968494654658045889733762412761274499235534654087187980025968584
6 9 0.026931381341689277256152958382319137670974001162402447894561828074952382178114986070787677391691252756443703301309559064103337735062952226108470206617232807160050820781863116116981193905634302593016200360200038267798104451267422726498602725827613987277105729679407913011692573203593658068371
6 10 0.021238965413455052276639440579348895344685843604051080035800179998501152407052466811649623863172027385889953429645128015932193662484034989702504563796299241441874041198175260732770396104881913167477786124877585188351580517653166971141010068862728323620597912326059619308828034884738312757255
7 1 -0.011643054945780182402608799969121067016526967495988323534038165416584336829585638472542488908878504833850379791374772150404462714237839986677473475859667021845755707470176871745993314440362157863131266744948971565263652546697843200017516841934268525023709459554784000931858035322856773248974
7 2 -0.015338813910471944153463335621005823792260222299555715149284627171455688653513787715838410273956754159738171626238708655068994058823538754277086160723078441239592992311838087000768610289049186946031492368723331481805523349662048137013630469629632122598985267141553212700231605348297719979088
7 3 -0.039186286881534234680051452889275146376538578969427929687289713043124559489731742216801723416686868254414788471799394162265540119553033569627182615646848931467987884204147587126968104255558422909697043155277023249796989210045669603681591805704768987327614458292725066338284536545436804366502
7 4 0.00035562551938621757066912451868500347626329235479414304116603322630978464081048155108212477399951207962949320911296030185040313835815577475359286405023859765495661971932378266577299967038869860085760094199631034363398072929298475697768278015417939675985857768800844315062049443547305376284239
7 5 -0.013722695396433686126785342179198182358342569590486724423696448461244038990848662270681150257400967257990596829481490205106420598299962191992723022441349389500372997623965659084132043386098972609305680436974887596240925243234556751092296358575947933228153857576509992542109663428433260763265
7 6 0.019072900080256776064650015092539228259887276634416265567644639214540142971537826487791590109263793668920502371176320699973482483043564695093511675494482268250263743663764891126448462964342304326375743999313037587138912039863327646589686975323348004334214196768875405856897456864150284600445
7 7 -0.030411411664755858003696222183018954815045380606846899859974280051363387594840580377600222602582692186316035723021865012097000866843723560732972494873914914051920964443536974333281837180273950152089686529990375751495246423228269347802263153366667677391027655097988814279472859194263651636436
7 8 -0.012208137864242769094258756551093233325575240645462725496034116800351663606340484266397497401053230895680678150212593402645989442512800983128809413874951073551729998602948716670031270371772769455831457970474000507148964741052968427616218633908950795810685659204312132580068513164940398745849
7 9 0.097601085930066685200963221683012991403236387346740334876727923692732926595035330593705861127050435727138102929431251065771898435685461289000982820899881122278571064605856374159336235098980948951019986778078898684289740575054276840779285081363953383549533062622808574807670046687012411506197
7 10 0.075606784835179231339260939256721082650146993349144488197277037369307867480250510911038414240018853629954302032846161595451449990853944145262260134138141050331310267394359115350180902645802127997119938407778385628712686672953947143131413437338653465531272403647326154721180157295614190074469
8 1 0.0052175723890911995053059056406116606194535066293856217080898862615127549372658683175469148513693808713215639322334126168547934176783896666653458429091389229765731648933758369219046366463589289278486971184117446262990105243258017730067715467046486776775748431818263721530689707678623117597184
8 2 0.0073114763509314896270187745579890072469331480052265488083327774256472007040318734670135604983719628226449336378804807691270170160650584895758337556573756539623909516105100171159810329293107882988125639392491008231582123876861869183549589421527565279970482429955091071717297040344120020522122
8 3 0.017349948643224785332447195304990068693374305317519200837095906972726563109024361408151761079887505071358900695789878820960977998199031823027929697105102517387345739417830906944060068746174082890504149048393001148628183091088992010531360317138011597584225287505926792777658433267926038503981
8 4 -0.00083257571547378477982229259364817180844387450307257020331405847454849589033802212640649999579177666580594427234938820997621371331141392461003038425895194410946234201317818612454064795431256597647351197197256198211841970851175902927780528057384048654483945751648370003677574812785492824049303
8 5 0.0063493319878640843227711955394477953423794471939280525830332786983002159286890871292535597461657908529409472016965396104897087968415005875163293597811649436356697485002289704747403969058293254151408522219958038759913729862276865774239143380780262550043868321229942012376808474376873334028045
8 6 -0.0079249096442466673110599394495158652868898243358340073720091139634511021717691769407494638131836256331716838730774690247241920779453767739076403850528514045015247043989046826173698609056061138663233255073077785644881956923369204658681706339654588932140431279451568179134070682549141681488968
8 7 0.01288988927079263175955738835674864276334521007411409752200297697984957428163787236829354840816922313092564746268759595648436935079413454509606988897930632883351138897095930765863595342978063221483731077608545602731068461787945668604592334864643795030763068175842629240986488225415434581196
8 8 0.0049708753439722781401345469812668225190469864784075853831841837586481447062318104092270512158428016751433319592496860996286292920959002581866857269123031555403000833073604160779840830291173837097999320590098107572665921318317561068687392609013315831277199294547529604515313176632504357794217
8 9 -0.04199050996930023513166283851845254363910376219782455170134789947481994274937576767892989648167323009627726361699921187363059020352310736144012146620157768473862220300883286436185454257038585704908085134866515914862808559948875590981122320025175195754449497010440377363170023232935225536652
8 10 -0.031876756471893583395340960237874093218736873646553939681036957529737435745789280671233043177600096623197934235113209624656756775299874925103822318437805699929995337928664101487137646390073799334441776309373787483066332693362307066255226248487594449270578789872404139848849655472336794038527
9 1 -0.0035547849079558663446345655991163789883969176534907399417297548085858325645197190928361880151999895885515138062054567157248681889474150711746994803431141038696281298769613197780872994612966811756717022518397037856225026190066171526331258555580812354151068567970311068670141374234706784237647
9 2 -0.0044392967313009104915344967947682395264644138445680960402256753801480877681185093328266247320520178081832601694048838814549291004076710352926775871468134619697839462239817153305879309618406952155780849739633090344899304461759416874298575417638001584168865660523013985427913852720550269775471
9 3 -0.012857982610406965424569851156484681969058806149840947124610519122569903200466666925638849877080637205797154623099354876748850407437876311243596699411778547069787434621487176767506869365214749963172655487285560968846076876046740470235405126324034626500169378087905786095217377587243836328395
9 4 -0.00090078037814331786894820154696882701916599439300382012384595380943522888366588041503174476699646466801772465682121892607622734052217554087292213193746475116891437476059756590992864733220340041993765083799607159716102504425409765211636339908793240373610067182739063193441694300397274263547565
9 5 -0.0041091513322282435336277462607972138437900540963786726498449066815258246463959710661204487202227638074790022423871466272313173359361962064954552335958946001374720732659619603927289146879477973322713863869214031394725145615599222539800339615542649378239874077430214901357444294727040756509511
9 6 0.0069349547068377708295537743858730513272566307030470674558675987115369760454360647329359767938721012013505690547750881800137382920989704067530946888456848947925183412507032377450873683528130635527792808689477531945868925407996207048303357101133857389627963495062289510928314454636557175140187
9 7 -0.010741768023458114291430675923203425865185093409449988308780309494709107290990315659422325883009586743043279521066892431978997739075909934745745012782375822864149913241221693719146551894426137102026263950540859256673597637081243688633320488809940923929209058935973349893515906975303760509259
9 8 -0.0046732725178631071099245900185480120523183283929403295649930279700647375440386266534211425650870744691209208522164156838260880300207524494422649461710533922468709443916103077692094039054080895858888029276429276973861477879506045086956059953053501528576525360766548757166009462381383575004615
9 9 0.033855961562730024230512462420029323499955402603193020428338339625124874164075926806756413919035324259629861322944065537772453943274950755607309317983972261261374561322563390353703161113485436810955047990266515533041685521781787165824715496584048664668328329214758193533976085866103068746464
9 10 0.027177999605474290875213710252718270610719196500228140655271483838929688151240930675578882314894780024085056039639826150442827361511768249423898881288122695375688133604991070411222933240060946667875489782391704405996055518077416792068792878234477546088922109810011755771604936834973724710688
10 1 0.023747284642388167404360471779663825946965196429081652033788705527330294108596270122684493191206265516654961867495627162525310188061589285377677995581676314348953741240707647630793326866856256851569418368884047169256006132504176096004361200657486793693456254098307375265381288985680326981539
10 2 0.03041157490775940157024841710502551029588643843996330109960944468833471737080716539877171779167344953075001724435546391463127352872362316770197650537932048414377172987226404676545560072732850413895381088882444202773262314918116389796588187968293002353545491027584836257647621155554466105011
10 3 0.081929384956216940439890505995942165037674041405103361986943162939138351725045749710071570245811437008829810989759824409768741838238837555874783942392424171367559206334860598137251132249842286422073105947147087797614413641683259065589127017658112080991312143127888567151292959747398427446176
10 4 0.0019128376778944966472391744790136352839049693644070948632385547661330439408165852639018801119204214461814743685304406886970904210712051889343287042447578576701241913926547738361623626239680615918860471433035952243985101627296868364370311001708222141786999225993421856228773616806338211511986
10 5 0.027652664441974767007983798450564085430672763180603429643111722442129464537052738828576572112102026607044778328543610247413861009111525599969316267154384602172446404627376611119551259670274587473891369706513516079619916010037470150415288665829052856784430949058824255615478141002858785741773
10 6 -0.041705253709553808035765080833354216870533084753239778664661048062010816660119845001672014433424139235184774892067728059485851956104292417943488646036436587880766296127199258374521520332360773216463678864072136673690833378399524495742879713965952844735545614092958064992738916127287701858225
10 7 0.065634880118652667836701377308328760864185979830961845932547182492615823761658395988397097926020151075706494503799563893516147629280038055325040422289888276096735404674834818646039896748340311641845509102716070366616133750882561601966640846213382919490640289035311311922419299014249338009055
10 8 0.02725991326030034641678560982439468540571092026470074221619798679843892371603187111039828028329273586387657410495697718298723377599487506098968904289147060009904699864241034228040546327055243035142673340377286058724967496383506729569541626176921820683661517198704778280433690713241702641598
10 9 -0.20884807539093601403637551090066311739022667069978812456943464441901023036320289482792759824430404610485868457324107795125589384368252141257672887983600961201417745629439830936694024175984873073424384999525245411286610904125762242698491020489545171429772156640932081738166374438134640147096
10 10 -0.16428610121419867845993911150267457866586562300353941595411704614156121279889919935465701297875213107914155870714791150099785226435005281924415463868959889032925336795429779955154536820267736856132802408118680145773973702976677851337370208848433762280764791625001257861118789179953089941981
11 1 0.0068499056602705295274665911098325254274261346554686739474383376236351220487294046698165682671596084776803432536557872234548148751560680158683464033821233141660633415168882406448606003429974339628513733801794948540208068372867732759445354944046822379633570895652838118550475383925575404432135
11 2 0.0077986526677088724251948962939335073479916976921021683245573807383673283104638825202808825601363143209604356834444073976122432617257190932074287419193157666145090397897141769752039316952722304290491047211289132734503340656990857264365213519940066410305882160492620961855560326106535292627479
11 3 0.024999713848442897551295690762175608804638433913524919138409269557821287856306987303747794905899817697826829991276587353495342364022204381069365754837770012061024812113901361353414022288230644573466883893789274378383100962098634013990698205779960381832856148441708369533295900223225888859727
11 4 0.0027803196681479888988749383601005376685204406215878107219979939986456660522541165639295585174633803890924015374476444737273335798967065657129326195994483167781614860240403987860573336055978549060268110764085055770717156474976703333605974394875240369369158520523105440144449049022504815971503
11 5 0.0075690888650965778024359224276763371543901235570553319400651945730657731878922900038197905297213531196695469302362071097616678024088611991857207045602849213941251123797545033573054868067641548598537907743765980071106294270747161016750726670075042237122604781410733988007663680078562493061919
11 6 -0.01428941659334401908148815839212360098712667745084458901000103100027662258016187565296915182819589321611661424303773570382402628478079043213648844216350344898433234458300211670087816275780207085389608304084537530619361491728838547946456315724379538934654181948211907007128297808923984875052
11 7 0.021776302788141627509007884888147639133848937997605431251913474241202988721210191095109117680346476531426478179759211829194413637919061352044683840052286896580327925484223050101886566239196252506264907831334340653162627622977390968819751022885801583878171532456794100634978049388727542728003
11 8 0.0097432554538556370898370913794228959462624472298953548595928869018933479353299370984758104273655889461532477411270080099859708064324544616274166111297524483629325812065557432570433478174360912831487298145641751947195467185191159540959426846079701163034187207063587034847085897733600805210803
11 9 -0.067688065709387229665248520602853673426303523090005926366829575820335515017268057571636392274685748994914875475189549301617991393406767725701998541076823642234322807979950938512480399214468453717375010176787507538941105874272281172076390123833845051300686809140592566005292078669903730293289
11 10 -0.055277585447914904977727959073418528359117355612600865538500974624768482328452160747116435719713985589540569245307264562045243080507491885395729352018746388895053768114883956454827001741952082887488696519632104461985095878188184997738220405695428934668740787211437099084495393109785286109104
12 1 -0.011146459004722213625905219342353663877743571593322574638988362972819368886555953551265065969242354650953326338028574770271100093779686237472921059027091318782919652958174514032766795652733028055114070806824369557233313584523170410868296063506885874533578737571393670467858415881559720664395
12 2 -0.014828743608809151436451840779616059159023461423961217014021568641594275566201456265671535541094013300808073498715849220172267016696187079662880294573192601383014240346047428251430909479409805035863306012390680046728982559761669769453565644164356732820782072780796952471494939355667725532894
12 3 -0.038075050010904020469485572053220815297173833579122998020215435608311191604789446568380208816909390378850785346436805186406566871578635310886305634999898964373715418002381984769490247058611464015483148958890041413936857398696448717230260313725608271539455185036238762786079712267267810999267
12 4 4.643078616318437677931350187893089592269772648826650568135147824919839757419406917462432398040088345356578870219328658544128845694877742889621638172754139938574870931918081497312152101635951899290691576341100476079071824671386953668661786040806727937879208939522342515833276908832602170103e-05
12 5 -0.013227231335458854816885858564218041027041612312374683057498921159867665715747657315595295907295416532993841525385340686636997158206100821049157475052874990435495827301577124324193327144084629633391384526737456463413819922436141198189636150437733577946252039882935436864474492096691773375043
12 6 0.018679895403982581489837896455957119080060418084473359428839224177117167757226684093706703942247346606398289031178294718462593330915195514020600232785999420607203800635704248950855229226770519541937834046755869587883184902277318281691396220308237506714759471420231323209644713923252243692533
12 7 -0.029722814460272826891631586789739529845272197440196270399560202288804364304616893149339660928930954718782371990534413521790357281477442947728805114290549478153116473717122725822056205966515823354351308824007693472981903525113366612544481362623351821426255453280244112316383065580730892270362
12 8 -0.012066060420789955203224106360037388289127384514283998960461113160610701087270353100910149812614960640672773924781223096170460569860287539999772223112424997860281385192323276545981395527986701701210700487157801314263048383281568898876670451037567992346744396088937266042604523584211406320696
12 9 0.095367410529743787799037514730204377668873420180431464875790347920625540425174957555953714862693477942765985158680327589027156795254051283294692573410968009490711806956783051978723760750503342667361338391255958603837627118181415143019168900887998839152411365611545606148324544226484501892397
12 10 0.07414353313136646074617555829552636704921587850586976929021711244147993453509117500402478774247267765625561807141300691661852833588881091360062550712281107896234349597625516620453149159556704599353775548581565897236299352687018444720958496394907552310006927280659075812216543969394971072461
13 1 -0.0049257925712506048626046357151725942653401142084766784262620220383575271632559663931339973738551343802320983687882269265783545688148159984613490962712140498666511000638022278452345745899471428279260492589882641949092918883445184288658004041537532539864384309948182691625194253608804697496064
13 2 -0.0054306560170594029562911313162945452614029350718367576224867980069724772231861091730841580229660025579536524572796325572366388952097938454332481713988518520130486935166821020947062774738150382307575972121009276255758890152019155798105934232863048378410877269449966300701626326437170600381539
13 3 -0.018254249689728642915243496863145547128033861782297464344314920351515162750034446922593784263316030175926681110101946413899613470932446088066297746217864363673934357628625987631308784057681903830432322181221374375055487166345267859175369666410715740109689557354672414346516783576092399461525
13 4 -0.0024273360838104477322417243217987679307595480689054595166924041968068137532596693585022187568113289142375767619539653760835655788313514183774483442118357226483806434908559223839341156318515153485036374852590554016179837653455532701634952140455643129272276221135351605494732452780679452934861
13 5 -0.0053701729792697052488666088219614763507555091545888082303774810246458479810619471206610142937876889309543683072498593391266712450452233429947549255725587406045041067855767450478621979217416379650377948361828245142591975643667591052179057345236490435164235840243180988541918993022778227671614
13 6 0.010712226180695965625204913408005894745071434569316985263275103730629958368294099396700641113507894851819122734848360768545363289386188642421781408738969664698461341118954841049831266103916181435349276560181583049112642446661878655879997389930753390352035730578018234005862768784180923679645
13 7 -0.016212922295707638978171451186932023369363123211872172376515255967106563808785770558674698705133697324580808439939891000759156429266966783916320184774294686569815832032583834851882767358158676573756869759517525181471005521408130884136254781021237041877126932571914449809229974833468779694289
13 8 -0.0073717607284516963768284505422666431641813252849668467816054933758475215995463180605503687301161212609885600960149914286478633095851955674218748624675075126168182892685255040400577062174154347308911285220245979304927784567213503462477607685474111588244691039013390799771491146831742064642177
13 9 0.050139266837042761589792265534876671668051944615980677550069768498943596412900247648870582688946416942236943507907094287202579357312035304503677942059171747408733549158350934494501787508909823114146171502279773522706537511417977416355900928229660979698886646787700416854811161605164290878786
13 10 0.04129031517959795619327207814366528517699848447337331007705300110623170945365124875535675741702748520552051847328832006529827438460419994407100394664984358690186567762087078113381243775662467710407552371005692900537183374898252070544803979929730913409309613755024499646561179142620146417483
14 1 -0.00030640053461016599016847212206060830535473563457150527718784828677242000104765666005568368976788682517859359507247983245424711380215038989899223563789177885665786088790865551915730491185951331704585660954318816725475063606438130333106299672604391934470358749451311888739145265353157081661062
14 2 -0.0010251566221234153678727187743819570418017706911019395044281052440362731600149355172356018578232300239974780400799913444984503623365085258276289566299631507756038045836555965280750185892046397139497595608519895126814864399595973622622624717795933528240800232717977409869736005509393688462393
14 3 -0.00079905133724424031879059653191661882363689258161615652364136413912313847697178835920351023673539962968286350540717598505127870413120360516382681328689206804131267285207278679255905062019490291376227448284503011776097600853524801444511080683237355089657473496591778626361362852361499008865267
14 4 0.00090966374693875407531249789632095189995601248828906707624015364384512481777216699584721140262085522989227213813934957391460690770286014454186602241789494466549990158429030061150164485380158553570398803169839413291848059747180892887877300855283979850645058679649027872450772866559582349365075
14 5 -0.0006469858925276080553094836628993253462956225607364175395786168517712809598830587096160763886282078319257690822515526244864756475745413233999474989022019414857109174136646365057377837958547422859855666101406311922222211189189251170015501131991638235204966754297899778811219864150438870318222
14 6 -0.00031225883177015826284228314645438876760881530866575365800899863486651940634949377493145282524620814254865032037053981852105058372891993721949148915540209813218788210146386462190569866842148534302006923377352842268393300065621581330091517391029671176265776105559645157635382959190596225043052
14 7 0.00015518646040722585106112051488715775415837399649683153367549070536730338933817481950891081953048989033486542754243357424393494903821039452579863940622860012010341879592366608509375440841998054968696710853384603112988964879701135451804476513844308561952620027870927577429220003248967321340517
14 8 0.00032964804497844944219926490601901472559365616177941261614483648915372939141830053267566220125062986565260177600928508321056752979733452289196086630201477103081407796810637425958181378474217872324720306666637415152937980225205439829971264637756665321388567444721512236348005185431594973386358
14 9 0.00035599411142778422322526136945917067452737161597687063266689587019801390767511787200906202095486321734728837874456845119129566978521399174344482335835253341713990188568666484779922063666048007067506161565203176771921631427245639981211770181337988948278450517089114416433924741209987472427877
14 10 -0.00059531679291027083623050657086193287383121432507905408749529126065573209382025498006494142198987158611473121077046760231467390619507968063202153953749253698156742031297645152604127552218738600168065318754905060622152461059198192974377279258461873963322603586260943989785118142242330872424199
15 1 -0.012859205606849621959596713834063216957518963600326674539777683694382864531332890264612377899222917959830811894471774932678923811696515509196396065006215880454444434799611414745410405551818262325859719514954776332314968653410627854456662797114048605214433283930970616086420506937692309885364
15 2 -0.016198693618412913092795014868328508739339737543326769850640916096539014737651126574034933384053460699377023808487669893424603416036303990285781363570674118274867973772726174954666867071660241848419575319124766845098047672076086470105998227425981997783611537172674082311192332775581395635528
15 3 -0.044102460376146954474471483560593986879506903773163666973483240288545973007855263428356985397675736524050725953961217993692680591588929578248306177301524095015795359947783931111845045786258908831975852917951871461340429112656580960425103218846335597907550290674027585520355295728604856152318
15 4 -0.0011281335345032259201447528208949791185709112772483642107751670659976582574052757562733330033169585505513868702758757038075927313703083504148637915148072748188849585497388868143536333851221309202776595434974557088816259890042336010521369447754419261088699877248226781897103481927997452416213
15 5 -0.014836374707115837349868962741040245178033023261466897581519048007338811977184371285476197678799470329013311987096418260410735611257994869648748242468202719498122423286503180637093181096671498467879107820387131088957798005350227605256808010706692539125852640526405373504510744211107113360214
15 6 0.022574748884452057608637651652327629215585212793367003742678756477158941810136893129646020313246818526246812132153311666769830451790682981686915477751763918992502698159066994923461027373973260099236343193714176399482273022475450566940442132064179151855674949351308043170236141905574569796674
15 7 -0.035463506846166353302485585776534991830140028625312695747675873170634752356236972252682599267224953793353388287556141890740496253781067178452349367562404961980866184303126763125769128982959754816163406507995932306109107729164581360088303259102962341493657147435380520092260532413079587403472
15 8 -0.01472960516851986187219104603519422824870850535767573381362787399877540833674794945770148567773112008152475423368271679215842612956321998998582573952432751973357531170029613632530772122271354467316372492136581884215457351124628222576791506424876284668690496093163143285471228613110334406807
15 9 0.11260481106998921451932823244123516446776892005093048996639070091959821905810304036621611652953267841397828993852479412377334323682452327846029278845552974883756403783013896635309883180359142904543622396012771386498035974780711978936287672741305085404336710360128411358700781614595642372402
15 10 0.088683107791489723435596387097961098373767212278078049962601853283916806016732862993611447746093148779838381328374205645699903840807852641832259508367350404840736496814688958492711435047521017216660557068188813074380983820366346405835832000146524624956105960495014138618123307125012107404917
16 1 0.0029970503845217150125782835669851338296841291068057815864206169939955294749146742804487844686727325614865236287842379994515833087141230706555132808389979380134797160729138862668003152509714692221195693075244549975942526501094478319534436158413001030020362988276993169230571697295588217154847
16 2 0.0043906109530821602324028290210088788218848812511626525285218373782663387381201365822155909913020650519924959012961110072190183513433264063862425639335292946320014886464624978966646626224558513577258086423060897938762045430942369232525432545661144164492294644101204455894191544568402841389175
16 3 0.0094948736638949154984481793510951202820081023839439770468585275561379632509924423726703429682300061804016409819387967601518056514656416035143349191260654978724434768780350079750587481739626481155991148088002053644151757965171110613695596226712559133153267187349137821199102668598911105803595
16 4 -0.0010802886417609911712952774504160023387579078828213187396573890845005802115085725693368640417089420847974298194326479155086384994470460207441761128221413134825176036883482621055535312417083732436888387522209169838116270664626516517943690185341841078949712249045422798633016956252129476460146
16 5 0.0037185506780827780811392935400819918180462803373036294160832207577406207691810853860734242794756391110720556608402319405549840910642545751196808041467907828675208335190737633466627217452879536392204278140729191311687681928934812698606596877742796363539059421288125534156982690446779845360141
16 6 -0.0039114627454801798521729402706206342473665594482345938094747057915845991088448799970414849137426919453277635063323145215808701265789478442184639789481459778586149096176839608357926812878883058793882981006582577531553112670776766029550092861438627222828278365270033630413024295789604778319579
16 7 0.0065751213398782051860757567418143309386083014539813852432257983325356616571347884694249796831786322577663346626408196902424061484837789973805185749190492500782658671551515720790752887365019689911297783383923864485543956381426693318388243187534588457949313246654215818456237282467120557912095
16 8 0.0023132192463277989780240148893442605610368987960696110337021325361669701064180324386749389646893940856183697404997868361547249562541464567911448660768864255478583555688938643238042208433570297533400606445005079348365265997829512200090245653980849441370897979765087622921781929640409246254719
16 9 -0.021856018197363348961506084849107051942977224535718772431894913602992691203232732782083865856486389755196962558783609450912261492435634380924050172317932019800382278566526812836422494665239382482044158508399118801043257453147405739281859357698237910677187932627976553709625097419391363909654
16 10 -0.015988905133113399046027162735681465825245671015688550055900329621663747960661879874424029785183083040324737317932798639044675365743214572700451583404184754846225989394935633501011696622028717562914976784067313306843012067736637437812829622537243146183433489104493439146225199667842061226637
17 1 0.008913449993360236748768564247811502719894083433092968941768387771476484623227615606197368449954868048017513132121278353009388948660293935104424069407239241668816975299239982923138564178139606975789928196761139725781405948380727895561721118452815906188544155976703144018947179986504733326306
17 2 0.011963668551038542426868758626879556147838211492472599850620686492882820774048458364495732183447603331127339898125438656951378251902620349443600174642390140253626968905897061436471902516237635009653928678922401404234048300989229242180706231923802598352570646130292454916006651297933310216919
17 3 0.03018964095412089503401505559256655659299837570761132175826386858627242749264606336988922520261110349076873037259608852162746962211875399874811204709119300794628170283563548220220926813460476169306882969323638495264657481206665822965789486418166693543597933199635367840953263383498992971688
17 4 -0.00036901046064908246599565571252548898528281571709123116809473738214268564206505705394014218845745938419702045632727222374158782143121345127670916901156922604784591795804736986081941467958771001430329454466107391905634504691530086630166959391171847224127329495805033173850430072911788579122923
17 5 0.010617678354410131814517585974486660796767899811951754975874865647895666838821541297130707616933367622614450254883767268866298611213711689884807272181291779860888652861825152354300709483114257010204654967703173733200048482326807518061458605799865642522850049889476844412051394745560227208141
17 6 -0.014582283276260055576409738832904238390565107938212229369057441023162957871624907205662915627823852207590110720613383713622628609619354557684148706815260096202309164824554393205896664431261156131634043856008176944930062293910386145495889276233605571851663428559871970392302377445920804034754
17 7 0.023310532549630466756529545405224042947456887710486655252933130004673101482618829248492007931590038158218014590132558713075643088753949411573564119539199462646118771715425161887207218288259032821032192057023822565960558362619220885415475588681965178833547317344546295328040280031837246113777
17 8 0.0093497671197672780170283265835246282054357006644976518354265068818744773839591320567590972356868161493114304918483628995984083825119879538132742805317077689658659245082387474727106113585741778051530628848999228354920661905566848054552222913420028498078111532532355340277995281878609268426669
17 9 -0.07501751669005955653691909631677046381740232026469862998545046009886025781775250192042816235900484741096329756203293846583717737288069447772411232789900083693233092481811643360082321612284838737510632542437180437433677466627193443779243139626918313477312652069521057468141769129521084935246
17 10 -0.05801080695643271205453462088631808089237730049926952694461152776166964973488387390406402873378814552222922491817114404586849746223800686731391195079969903109108803237856529023917855265352185799043178710127537760091602088120629321858127141017460597315629466961711719262963369132788551934872
18 1 0.00076305939033853012944677078208440145021246898254730478633172804575278487250021326351494031637188741903230596962029847581270467361670164419254451640573199577082413332025875022028195645953117471010992468283862845451719129513462314854620497882062209247330691595316453191226847877794455965344444
18 2 0.00078660901795715945648362853054299556524502056351693039463182112458860691698572044583873859194079055831696674622801046872927542951436004173155161280003055453293859957059004448927299129786117202932346902035214138919344134055109094475024463962828983125273817140742987121936865646795517482738623
18 3 0.0024723549720655321663874587895064476157459446197849771579438988693044906582365315549407511453227129862126738786165562347034861713836485773538696717050875330226180623130315862784615892505451439853174123501635132835675882218124752100876776542402750807608321128493084832671549560916360167411496
18 4 0.00014965958478586964929417559154650377106197345424365606510470504031816746770274490324532131980799598872111962737991254853564659488562760531255562515114014433112720206300461237437782449106039771773794625903239873672750308775816809177307376946269808884427172388692405104356462247036045457708893
18 5 0.0007911531733199398337187853479206185967543907298837133939716132981215004951102167429297956942375724711560816878256046264093248401095556843153518947641272037166152282543023240333761015936086126810445777989532036699333239573687461138011514364663702139712688355854352629009228835109359095107169
18 6 -0.0013655074439242015708157099785950521645040117323041809251661757122001583062266090049404742525181466326868575853654759145553596421444411833039609115212185425395021718633043000686619781802643864271140394578289302448492107850407652039637220036222702836194619577326527478087435220059027671934434
18 7 0.0020936065581913532816509637722327297055074504906851822197562496204229905647150581862022354772119992815561129640712132826463119664619166887037611258426969719071707355766152491323094761217578764811137377116412992278571081694492412043245052382283557182740945910588670710471743585566570220693298
18 8 0.00087828761542153223321259347935407376263472349146777197810299080854091129248931462733975194326419747739537715847342759180355508282066292855276445491690900583608937106754546389149224890496237916737045124482519158083244975827792957124583001063361813419194805878971898550719949952123303998517182
18 9 -0.006474029911117410065649819832204330446559027163547940795907404057014671796152048093854080917549019247372404183954957175098302317534919916884015760702602789079544428629762285945443873356364352768084089091594604203323904202409962381549147019335990011649171397760365277240964665259691901920637
18 10 -0.0051904053625283960159005180605271729183630142354883554044198796689218649352922650487658431585160132400150182846930866325702233669344666135020074731766065027114531843552435735969839032189661109096633711530617555662207255839660889049011002016392696594807578064477898234402249722350611519672542
19 1 0.0086514087573122629294345728339032564501576917521383487242455198073833529628580543335765943779834070319070869695478522267644289005536889663085611232082240491474396132175876760492832318814214867787803367915940577643513798157155516346628709345062608948862672338061320860038147925033738578943706
19 2 0.011676714438526843397211952467236006245776980002839882051403551932266070931057728201428642164051258569439929475098884261514162145422771382146483709891646134518149196721592573105658974948315640038152885402859053427286603965923405875459299227219346201955789749375654830381266687694224858830845
19 3 0.029233302051724689906898460625976144593624510247412461707452023039829425914106505717001047794573954577239220731518124106559937939382014223035064412824918414110363943418909320701772977399158243009398002277314487406210380469614297244349146361657731196910262445382939483858346166970365196741471
19 4 -0.00048891482701740320574806835104934302064095286876628044129357458307971890386657369738301586274205971900421247271235960285607266153187753827254835102340857785532327339445543325085127203340166767763219497909712106912969281097812126389847820864611084531855102631114499536804300439772869166168379
19 5 0.010333699197970902278292769769796172625208725051231836784519542062260921565972417281957905834265333662205128655996067933118993034372650452339822609906414734535110472777395734188846735609185369487885512807449641851095946269649255093288001867650383101162859084431502725253307536749019844185161
19 6 -0.014023097461739513453141474384162492991949191841445833572457265083809758731286083437840105119916223538225385370489598752566136961155365633880072369369212758992600269863467763393190658010458734606194250913825096205725685221001363632813344244038934908925597205937532238481468543961469649373904
19 7 0.02246407788739193314537572737875446490322825473688767002049214229434791467003950433125079735258287125212195356746849002487271147846067776879951845044748540471350997422163034020255893210916279353665544314801683155102428721120070993802823146205177761546660896372821699621932655579956070027131
19 8 0.0089679262150696244309048021540136693780865612802499087432949809318738406220378687518757742560235130556493479213269547272740576787804262632144937834852173627316423601603250482877981733388100995483527748503116599995475485490904141029006550528435664286429242603189896483999596337413945406387918
19 9 -0.072402819168821746194007446091955842634952210795461655979329473202810716416577990555488505687856649292169837417363619886338966280048678808711984463651960447485055926116163772627869646203935797888657757715534937219963407042605250882026750352500497010595188525295914317168422605068694228879962
19 10 -0.055862236494318345502759460195291896015892943248468069931843895265137188633951481378408622318973047279862799496341604845472940150601966291367377394320550548191048536516222504323839530955825746265792117392991241480724741084982963635381354894685346967573877308937850751285197488832161337502291
20 1 -0.011691814515024296025081896947492510830397556882934797792627290314799220443579049976261245434544188077104837872746002093286523911365855684828533165463526478851079024305411254817657387652712848768252080021663634397345955274495515901523622458591150719652011585135837350837241144249967332067567
20 2 -0.016202859806555267700742376706578365440046485748225163958521122792193561845064737754024129927071408989060818897119445379547308901597266191904459836507759063783585637818730305683496105947814862454505566816820369282182484150785917694360677572249666976773377771080376625421639326007610072616112
20 3 -0.039096147365266844610073089889658572959564852363548386812568477807179583772680700338801664286130296823152797108899859540764841118323937035083007421056762343291805147827883826275249900352450829131459766136936562287410320682262578410350913776006326958310737448637909269676158146902604203675209
20 4 0.001476700357449218516320030904428147111313638810061474346322772452062810622579626627816583696572319879801440653341260870826827461817250142329777534602141264995410478460238154565396917387598431043586369131644177202004247723919837842765950523341314002106696546119094241917842659271701599352129
20 5 -0.014148437553626633539149164307900242020313837304676414579028409226802858829852042902673892180137084338246502474791939560935044544504198714123359512133419613422899217636080518112483809015889138751708353256145543664707651573940811803732406971160317892355323643855193145980148465698571166568204
20 6 0.018157514235227781310110822901444272906744188985115523861142736437253783933515610260217261829465197458843117119034578284923713079136760030925604477285588456266296317201831760176658962720011430880682385024942843966760865706884213001157301358329853309145335782142522374710396128250114679416688
20 7 -0.02937627557458874033450295658643885823359424736878097645641118834098153887044227394059709036121351942292926005433560806168142411199511790160145511363040216659841986331327144431178448978063394016001185918220783066029714715416386094324044635100744452814343744422075467650585252979895102824618
20 8 -0.011463673895585845382766768514418691693741563328506235179682094783446961109851069080618881121241738978535368342643020527383102982866117228765535439760533050313174130587141890114171189574601256147553976690415722924220510027152462993602712516100056063910318057893803628592983609021581504048523
20 9 0.095348015721586303568118733171263663645938283281684911931534708638719241536236829180349927504173083916660273550202419905147306120587646939901765978641807417499822322736757166457195931681175821916028957906386488780877720495716350949908019193226273555842787218894424871852706375115872851058803
20 10 0.072781537195769937326933743809831019556822804533827451874337322761116955012925569477919825469383241659863737240499238033055106420796111239260505045223420089311708866899714059415163015270326047453913867570294062547080397106505807776698263253643703890631426350401199528100318813235849381918006
21 1 -0.0033952806001388926720828170762789860594320534322335498828853801752713126192206373600544174467380640132138486486247433520165676866209520897329366522721249857911740380732019006088957901520745461461633574532818811225125227488085708578190543561430684510364257742062505857899353426362333415034006
21 2 -0.0038965382976337353546634530699175546076506288985299180881360331270552382427298833152039635892936936710862857363585903840222231708584552978260597094810715789658001653701088955457423839421828406254980008207258096305764440760768838582991190380832227348192061311730480801950214476389400904183822
21 3 -0.011811602681081175674464786968382290943436299101031429609790147822166705970506968118134018820298182479180517207293620798693155577905142752740362701084691643912796756016605012597547642405982917938499229173177800365526528332922552383144394755556688363871352253445288114158587233963523397608522
21 4 -0.0008700303389843131869323582808670375395750055530197663978115657963717304172281368477350701420442151463677653710648702547963882907617945826737814171358222612257528120834402357416745771964248070140762794418345595859574331442288490807894246086400169480849574152604121775814541540876187070521198
21 5 -0.0037430691061352158427148445615653813892371523486376120225993701221082250276824325393915647309965129409800503542830262280851425232161841503240990594859188923935040766458343104643801876679365467564571770848571560565547060830668942958191417144945462942559511157620863301244789256410019764131098
21 6 0.0064857488483835884668902403516369964995122365379268490653475648611126855728981628455291046107233263561931665744369688623654190322440484799044497476725448184699613358875466638036851729171385810404634757366715153242818400392967984409466126330155747175603103809113990287527428552354161403558884
21 7 -0.0099840700064030452395729231465017674631713030322647802567868510583347167688372315813614219985118086800539413254042981083468750021238589418797428865087986999574291057264692227526728740912151356443263658861598358105649556310964448000462034868639694673143138754425605243164751348166482506569001
21 8 -0.0043100606640857982404835633621576926659871711646056926912705347204818382956794868696627800861817502797413992980702325047612996604276009618787984540553509153831586949696335076147994765659811440046837270335754708462374398109700791406126676887336972731411474555795818951966908682752701685163798
21 9 0.031187041267955598589978103800962832057518510750283521504566289891350447131103281716101262871550086482668628917773765201988282119720715179054340627085709040222501756921120357437128850216006975540156841007582102692359134201978451925753704219310226913573831727346484902077080822506758917778305
21 10 0.025097020123408135486456347489664948267964792381116389939138119928062724559653548366338339696186718344957208073297320900763797957440893344875941727688696433098423487555305815663956877834827808775849452332559140649646347368373986844516729120100359137022178668592290047106701735102780615916877
22 1 0.015212432214725330906039426303270361485359529789959918239593155031255671691818862299229493682424752063585532847138916695680927533491991818712768618607485476796035609055586508504384653133502659293180651899318414810467849146752363243485611579926993934405641750551155513608214929876561242272795
22 2 0.019518904111523774604306646030983697055172293599772157675323497199572369977947423907398757102457613811957766252810610458326907627795321300443486269258028264730972308131739678323425780257634732126662561007854505635215550346044329045234278260153296864811174807890427658733868493928696326166152
22 3 0.052785180626389985521673199887402468811646209052015256716035274502615831591040930824292016800573475106295778284081689036786529708782952559611000163779931424396371932258869765937477999930559019438513183223950438561440926843046306418576740112983303649953878125008894522956130491395540733784999
22 4 0.0014291984531553448822884214010500064445746366409650950655058085467555135385244755805021780296602343041978674144277703368382882304089020074128945530078311154586303775283413749195014001502485906284126442066490870946136205621309979935863011361903458114784408526240580399014094562212363020311302
22 5 0.017743697124858643129208332666685594037468326106362445304347099645038941163673946413848173163974028973455888555441468903535243795285908693428352871691012946209177342074865484265395795092142845438228128783772883749946579721743522655648776527374964608053972469872464320378201550049842294637523
22 6 -0.026979066510784847591152079191295128422169335761813226348900739761082644070353155333822502504407104439176355344468230164812879513380935563309068280691447564297126223452363998355640742043398734747519895983580329217172229023042325281504839530296912190841203321080599408655827161160995719921784
22 7 0.042413489437133318450118032253751159163833106052818028764265711345395721311523723104799526198102918965504421330338777606365825247078196759609971642228088392194280492409952216939642685077038538117521054996681926213050144553006617771620171354916847392097042452309372107150617153707675499166387
22 8 0.017695016512797836568187675645820403218689989085203324675279443573865944264128513337439808374439870705448905014348370256534719408607119863488491520830893524575466451322851510844168039338994615961091375938252294894462740086285080173090148069149912676513362256114849675826939813471310040076632
22 9 -0.1349079145646875588320288902960663566113519708738215493276163844301421693911350296224163200873205164616474971746048044461222240154944564582775349137617214559724278193407176363779421891986754384289634590338257917656775969333838914042825371828650716089806884364054921439102399515320970717275
22 10 -0.10629671386948590190361081273006514493389605600921175511202029263848943157419135431340534797344421412946483311602081433583238017739860555034197160346616268359999829555144238939998129396324620077633541410485073292721089508478659516843612887141714141784983601171010264845832209761267517666856
23 1 -0.011146231900929607007960117208101792072496826619931442758373204475794512624119101270401503184865765960233516721310571771929453817163902686861278282317650529794532238179071100594246920670134541779088642887277266271133275152395444286708938935871598099278788912652463531160187209853329383451469
23 2 -0.014069174334103641750288154809209028435966968270565771678552518688998389443684953077571708656484876885520844294512573279119070736600290162937813057491145448564951989889180580323994583030179027560900240881238610993490927913040331170569442286789093630672463239580925279720380762003132611871832
23 3 -0.038945144326218843252202656142858806391569374653942712557382299289405967804550089494694521975251878759981371034043209368800359557799572983555858740628349262482702369800613435150503028492528928475391546471848128283992863343688352639664192566255188042705088688971264416134911034093719920781277
23 4 -0.0015333821493092676853561111093777378965917501928957619259932168987550848001371015124218977205648725741581233573101379150282480297592281411812997348191267240822153437414550969709513040493718386199889756454791269286049319376560185416843496371285162380766845414416942273414343265988346615244039
23 5 -0.012901001165602864568134887747259898961842665186137288545146323991963933432856527047900301534664850127200734999319732063620817588567735525658686748508944891479798115217471660009521686261104068902266914641312662997253992296637997573493552555132572541980740107418167086837723970135913668616192
23 6 0.020253763243377085353642991974406255842353036106118505528339175737726920883851216298287584380672388142764989253615332536488856662100661433287152602992407778804599129323122109901816402668292457957046046358930787605395736180569039568556209865607318994782335089473785748971647910123917863494087
23 7 -0.03168108217134888417513943507370211806611047904482972730367947871371939356242874227623897432800390480216123759904745452897968016507989748244323683897025444707709930277567666810141601686812593814666786548450467937020875991250841312035632661552201698128317158155532712613935232737283052014214
23 8 -0.01336626218538811773384751678174852148613399824911828338538751759829760136716206596826358120149986789705126668975738200141177412117065058406972162677492442567573134095573991020366546852226914055771407141555234884925513193955151741786874270231995673481778512065720029152172949366326826406875
23 9 0.10040101767557366261713890555855625945143272664994317455836323355435319598071325281592683302360904751676848291540344581052800900968329502014239786426513562392816579559900299659718446297052186390295450320545740934807724248111389018476672508628106970637682015776528216802115897787547848197353
23 10 0.079553066761246972381985884072508043336010307619366271469890212625541801246529237294175753587679410690472587807608719867706463327951916727628989488816246583429328620610392997557473615089459587020880056751340426554015255317323825034404975734788962811507670489323969169650596416296158648714659
24 1 0.0011659944956071878311360363505903648244454150506042322770840666135287653968359348533195963860928948162074721284496991949194621341106774801716159618849827424491307692344585925507787914142438093024641062235119582432255541753184824927605453294903986780924746890449871492508476923970862185136717
24 2 0.0020778645625191552604560970173045055292833541122498556328691682054975229525458995881471409594993567282818993368564626353486370044669944739316916740888095162413509336059107896804400447529438984230849992081368282674201062221375474502208515016619186141206810196743080349560417896706459041751256
24 3 0.0032100956255984760159993649052960604677181697948061316497280018991964558594719029539262216874096311647695324609477142847499727634749150881514638343423330153534688000696976324964715170501455256442033459217915754882363837445381810858158456528753162657954553313711195089069890111785374258308471
24 4 -0.0012383847494867087840222932198704021980081932083414553294077233081893574532519501620926136723345939990028357581631091472418863921671217274370324454458849524119887548749486671458759416779155807150279567948288112806842416235716474413450507162958186041515608694750884190791524659803395449732411
24 5 0.0016030456417728551223482558808308723498831557974807783107915824354982581294569148913864143947861332032580219572142048819598438362690606007563760170239485636238242797176811418013187126118013300582080719466667544179159389037587776990123536578780675675127660158860961727130508539950877260053005
24 6 -0.00069630494670349614879364061678118984623611079200653493035465278825849879458048022899173568035165321176933576045036969099223148554992217154333108029905983284189488941773825755536881741874015033971854610904878863332492182075646220106177482009294013485840692326911443529365370919370111110202563
24 7 0.0015237195297540216191252892584875389493551343434747065293976864816515390827677984567984971866032450822060991292952293117452948467380470250266619626992640144313306201152463570420955020683220315618554305766273820210626051110418186038312015566589551839598048554877012951112783810316971039527375
24 8 0.00021533822977382316959273112420772119678776463437637385368806535074463752861018751441646522022204348534551736263511852555892927932147944913017900060606168111323424591329492399093579377198607562763433835141801833170909641612507239099884544752295994019902881395868563194124366352423737745469689
24 9 -0.0058136076442276368003158588637532564543524505781492442639720584615483649324545330642526946928705533348864615741624035444596402654250209802704872377189369137323940972667791951023876063047986590419570249374982054259796395662993629644914900611295253337397911730492368408707651678748535283143468
24 10 -0.0033563914306977733442107678034857236945453556135555974573930900818317811564932268145834322234806259377994347076080179403984362307621004485088015746280065658093468012289635032187586521717297116202011574103199487111448418110164686918445340216694089771829203149346797902396820796948920785734808
25 1 0.0079297431958775748381145474374426586319811268560894283971655846686635066464349820798912232597937547394284890177253961276033153418463773567684003299894684682622757186551450042683856916876263000675300483408058586937160182314840690481857137364007562977795525204288411706636659446630099489916142
25 2 0.01083710609601742272881027347785523821555569216993647608178376684265475128875318249580223370937466263081454126574229710239830500687009354594172286087174601074279851593380897901182607436765464181725862742284487285349209931345252614827169471765501513261325501613462765436271119792859851286751
25 3 0.026506405877828039056984862073831249251771822984891719370663400784847350512850614798816091087136360857970776469141871425142954022302998329587857752069330224359965664502844882167297720367710755429616144600218515807516732515446472022120292375706997074484534579969156756426849216362026394351455
25 4 -0.00083633768430878165612944992351002988492765020995045987079679934443933608737821299687225274445505030993338538464892094549313088508815877571818433982886921293165348527771534404756800899083802790751341074951538003507002352642045955266926471740024791232415219769440997966681882473039125803623702
25 5 0.0095237460297006643374995421646194509293783801203357234170947719800426688981112745171789487533023572938223388350180542515669402525791873348952278067032106840060558737277732439782975302658391353506998669794794482396456516140823529878248564537660961324396709922911400845910944230747172596622905
25 6 -0.012446087488293363832473907827765578526519855546790638797119939675588331573092565308180445459795299014725659487363101417120164346853354312799243581910207681074547686899242499856791815870237254679073711972019934760541233665815260954829643063116075194329355975625521502235504628772267094775578
25 7 0.020066043677979181443754264394089464454558775093922739109119635881940703383431987297501912250296838299072608998778361613783143114816993331306113246798296483377358295421801975370572182214595912025431233548991405358429441137725109133945653364462532653430587683357195608353273954846122807515938
25 8 0.0078760063372147284991510312473488607275668867518695973644850751677017795341108080272758433094244294658544160834876548390599931640034635778654042296207415635071619867185132554211940623697382626632721755328490012717098276611880124547200407223962240919778452207043032756644165423107599798709219
25 9 -0.064942431574165676504149293244453751053893444048133330085378452780649811614670769245977795986303048244872088508967393066281516752390996446566593470272076283489152624477655397362148475351802126606941151150777239178228900617897221933584449620812776150888991966462046826050740997596824935409929
25 10 -0.04973589942834037829514241588098218677785724906823123973282117660886637755633266676571993483725334294717702485850402725701660986063975926017567602328065623229685453409156668670586112652984078901667029117878585800350325898545187805400035631822606295854066295927396254818840479209353840946702
26 1 0.010753838424718992713091378995458119132841345431172508272819159655924222359686291121838954013555623214795604627870246759132003847305802112314146140566375024342353906542153653027346883182344534655621270179648324431907557010272135612737492118210404884980758769766845110794808814059540602903882
26 2 0.013426399975287718295122450969791376438189128350829882069259489332500147550071281678933682722278418711669581664303969049338662601725975634112258039091218104069640815969209046608849601441860239969706771397364149665852297381837289583498210178779926435474749190472565460529149987719917338505236
26 3 0.037989447667285787648986498352128957074186604897007990480201822178131334174415576510110256641009160227486502091325903848984670400500678928090968817330674258906483957152811463385456305058476290774844449736611180291712041514635377743443634949022018855824171514883549746971249758646872249782741
26 4 0.0019851155193217024826973597960375625940065015655102334314821304406454560523926759251745727913994490721291853343060426767217444589100742748102477539977407361459079324292229390596572785012962070534657643029186228354981171877603331056711040442184541706857083850674587999626510957798184340196884
26 5 0.012394215345302019903504881386363488113006666165053298054370595041162810309234600814168576511606109172536519049481777581412247284382234994481066339730345558425634866760096876206132403245469138978732292987970709120835622339400078613135566440723881961432278215804893771817748954895673862320588
26 6 -0.02008170640103803630232642724031539792376695431870013611066115720065247295399916016533924222319423123893091847040889726193386265198273703958331379863276425237609352696722021514594986470552855768527188080467946559609484127562742765705084006234830154646095432556853975711180368679457233917192
26 7 0.031271328811597386141088348143072140170548763316642646445104141865087177519581063430531302672871484396053654126547158591412667624447839023718406081516765997936925457073141536261226137202339330717985931083725895378826802378747522565594801470228949341165814752800918717081315777374383689093044
26 8 0.013356557321587391358492874466566998115475942518323792229589778655963032286037786548436179023464659672968171981541635930527953620612319257333904318351313456775484199011983174646770936963571858464056271308030141265330500875626508876994104346853629108833465360798814331427208325938659542529078
26 9 -0.098814895738089223386467847984493879923778636272307498335754923515185878924250699618795531387486286547701548184275999143540136271548507069950615634529163045575075333303776607715855169177755937725718081630259382892496659334987466189934894115883971070752780461076776369713538548450095203116087
26 10 -0.078735403350549791687301025539281513416850361610227240498549067982699173849382723778194801564431605734973230709060464686055823646503468885033216666066332805320728925027925337220465290068181189290901056516852774856002507175551295702927901058901225749641644042850889566600991703614679918385264
27 1 0.0062084756645480713737103389983585972821262611695791330157780776350112094432969415643230852479655792593216728488202029124773215255739656082203007794458400334567297711297753457660115727614159935910866828171156413570324456781051283874293950491139979710473101509629483805980288254875015750900474
27 2 0.0080824724672708395646872762407955769208717857883318365340211797834593778857072495542143913552984064525574358570159882502824307112344615525157706988486910889022032175937491737972264856193800358033856033966121750661103065124139628543515458855157224272563132044530565496685191917034649825308749
27 3 0.021445602285117370377406046948175918759198733768813731546729967037026668299442668836821692217332832550292205557215671703492041483865197952873446599912580146720187525704725481659952393764606941488021971790242481669527581840973292654136742019909938563580459074142550422128787785181164892873666
27 4 0.00037070377492883852552918828789459694765955567358758398909012323759319940790722858037379616160762440123175412136945768641989826948318915383688530281739887677563696705393307168982522126823269336568701523175378376309802303403220186261021852155125693768347649432930916304374888593744773476681023
27 5 0.0072930569347232629331746873024316160026220257190386632120725200509853072029537952696134029142563342806727176949708745020291475739389868498015988706551447529041953363565342001109599479744571617740203682142386933498389273707933520470384386229233346447611145416329054945415569196582546661067246
27 6 -0.01080475146108589682542026560961502814943267904267295068150525114544540631521324962364966437919663745533602755409459503433777447576692922711912867746983164781018617891883420785480460598722844204969869469888887560889393231355620756160756963635888673155891648626381578348401033697032979136649
27 7 0.017058126866727019234400075797229577433684049175436364985354646695568266162788769251408692364035300127921374254640698774365597292979596601755719171650885735506074404301224866612805358839330696145074741135516728288535001981043608721517217915686998530427067745102427259853325444270034187313746
27 8 0.0070534309506272418915072351473533238420380882087601859071142143736301086230918039688768453124197850962854596325745962725247513542752111677137869867207947434032311308979783001167235339957383161455394507257994230005611451530717176815741922412196453104180628973936785949929250504139330780681157
27 9 -0.054430805957451557150463268724674072318186601451391133627482469768247998445291999804969097574790710536386470646796480180290298223354278608513632950674071371213386157106053035278118522262544240510637081634020576768684368159432433028966160584337742277982575644382464373880441636941693616876847
27 10 -0.042691158029312106780811448512889592892749428574943206065864808097883747704114210839957994978731390796535590547162688335105933246913944716018199840848642748466627825736508585875979117312940764102277697162885686464032240780598931825933859875960995160454980682286243223350849405267795864933798
28 1 0.0093772076989092701635128473899286927952003456011032994587139842844210917675035091047761052747840420249622009214006026799814897631160194360512339912268020271575839682117136259822847862598820042745318871804903250596145645454756433005111661430601288770566401438880360786908042874197389496106028
28 2 0.010993583886008068991504871355396591459974367292962021833766624804446829687037372226155822079331069533177288380751740407409083251362838790638638956413566304861128457069013116115932012097729250801439938060256720948784980759926970647766352561342306360457613586027293337667981787564509451902911
28 3 0.033890329874414130864870257024307171714376320575395019803300569607281439127548487794771768837907285231303795695805874180738447125875781892730443768304927378381810375084936238154899637943806060784139809618344557889256032396317611611812805052204037455408722208321917657220153211894601935973844
28 4 0.0031709873694255421355115071569062806334463068132504012383423796792868045851954610859766748380686185244723114435904660354511604545865004364619592768214043180927325387642680999737149762068222722322461946139383198004792554867417093078501613143578729851011203893511402973851384074928718404385927
28 5 0.010499309706504186679579059678748831811797918774679693704046138969336872697936792874394177973450659490027273476795688569694892506653098605368227062313405349693776653120962928513160688959294072923336183303115889677483306430747700070592622272303157135751825436227638615645543533495141974369197
28 6 -0.018934547613630947554359815342894316973921322904485645994211557705982986253889863623002401781285590749732819223749838027152894581447375859345668317495100739787762026334877014539602710817938050734029256495217372220592440890698206815773817826540316801143833919957095888226404093524826340486179
28 7 0.029034109335613810235708599644150828574502991996287357994631128969530419547587252371522444604256122207068824638008631244219267291377295081167413385794044589965414696694120990975932155719697149674263265526502985840388344370634212507623977620446168899870644200299509799718912774455902783617838
28 8 0.012821287124592181620189218732929745478135206706955808379336284553899646009811063362130170983290699239936860466347227705388124538563177921932990795595029377039992390405964636495856189691456789744415366970522173159994093511045627981330619894884358366451875010668295768777451045313051731416177
28 9 -0.090679942790141536704237057749683817312798584155676100233539882441523697096069785356484727056690875179969821530036580661577990253625143373248288452291561677670634024727079499791490932925303041341074499759041288545859717807446623753832374514677652386832102675828513381186175100121961559903933
28 10 -0.073529809086255984482361551264070367248392806254768493081990607971759349190622045799413358131754113164895101240364229497213537787576501575457503044845033150228612642608993560125975464491242586998224819648302044741474188964397359685029875652783481149505574214994198760542119880772283982402099
29 1 -0.0032049723353601939274040869063552666356528330190305333752827904887522205228113342651663016681332608800055530833399611753695759903063685560209744110748053973170378502963948635330295886422759673402810298939149913975007395482339744336729844144376158043025239335677479635150533534520935271905407
29 2 -0.0057995703136435348972105017032088818311263523328654933848890752868080385629911519011777010241925007008220889656434698821168752858098363311519508741143148179452488884848509238636712860366435900259869408225687507911400827398748527889149561546791102235309080736978464113487566726110968011397915
29 3 -0.0089040064024234961007368159441277297735122338834419244456128048565622915868275759240996403925690133467682491993104210934637989854515679150291833501188092441351514313490801242831181251431713869209715816975921308775979090636239086928231285710257729657654351960217135054387897801963666066214032
29 4 0.0034375556114673506779161937086154845701640390945775603291375814257577640351997106164703089446910269097148158955713111535115653039790619232877505271232223329479552858507921575570657388129753766290720314497585547179666471858872683590627576700503887898187044000754891599211926089936445353189453
29 5 -0.0044507228764385451002296964236833030315612364032184614747105256713881186139956775518444468269134743578484946237111863203905566058655110961148779122672353730439300105913867994671403301367450572157695718571406469260747392853628992693642407939995160871083348407938820879051275023169126577640819
29 6 0.0019150892678999751969996737761100329598571813823759438695989516228883044807752083722753142198680620944643808265077041084064145111132597015530019985235323392575975461780341339051572134441363276056940125992157846013068973941361244862981989317785027123626799715125513800248707048630137414783215
29 7 -0.0042096403479129112979675653898959487434272428309000437895304448512493456506792912485066124991349428893120753142815002058697693896144532628792806394161390345992495526348357139414398267984104009026700007006912426123249118442266029017303832368993370559396183417266385732889889147751868468125968
29 8 -0.00059927091115543016723479753513799879927850995778495400875705595812394412685409331308220921749812223417912268286116628749627595513830080620650148657856827422621841820718506637082394552965349440664824803632251167081640188938967107415288097214972031726092209562749967808664219916866484267304097
29 9 0.016120981765758479770445529363819773184766169572440936607347311670578035878767340026707441165657180168500309330816935136577900944991431866230803858020614744302044513198627124302030535923709103315052259541992231056842430271175553667690901822688368058079136698643170484901867239515295694842001
29 10 0.0093017002988838205681505501965926123607469740232694594590169571377633177025893469887716048306761853300664582961203268295528246042780123092215877109418717433411743395178463804595012839846393353654600963748540651947797686478741458481140215190300321236047352006532852535094510672033836311433911
30 1 -0.002920162094687608797015383105035201360996040684612054231408194403979251294933440734124189651800219696015528989257099132566312589124024449588723197130144155933813464578251783758181086128387771893695643022600083838890423391486091957691919591340894047063715881138191763928406902708365972881683
30 2 -0.0047551577776196861583738614668717411209806007445537048038640192144649074107071127126887193494843084679184834525479769245090061745899191263049130036682725234368519465704349467869509680418905228677406558751833944119175615692063741070356533015556689612578512716162781435155349376521546588874349
30 3 -0.0083895439683576831453080892367395556781128667845477203330476402058503109474162759436483813742330597098857587555940953564687630281806521051200411336501590928233413106233749495924191552734070068277285551972899919682125521881720782925253973320649847872414579430991287327411428793333689085584682
30 4 0.0023009013741054097695166053041558141279319712230047127480170757354465927885617800905735592257927250541418655601296905253467263411476308868035412034646341933212183979995907293692328505052718180688693831741266584161399642109915780867466328346417971822823292936578621591132101688013824113882181
30 5 -0.0038150408594795284246988726602786172657914288556733651026630538273080588562565544068075826035600639147906790704752168101741943510889675285883186951740989450698744543236338466544539456875375625683740575375635072746261093163754585913119061844366592084691030779032232328552985101469949115068138
30 6 0.002516522775200812863214147821510679792904725924251292112720839626972540266274787897811575579783539730271570369858200299944971697207276141220955972984506955855082096592969359420057330405105427078155502849932926260488456638765277304445131966981549806681358856541247551174240922165677472146353
30 7 -0.0047560572651107100639803995846966712281476460494556990191081222388138954521933528252484871384533575804462694148276269903145949403071680169862540985912430045837873472997240357977128795345856894186444461937538478881064004369486183559908483523971005718164257307542554309898311530793387456461809
30 8 -0.0011684351792562592291273967173619313379877105276461148594033672267817306787332059052626756376155045246102760673461410781621711080663107311579854773013174725254710242984875628627700440601270179055470394403278175670945264135172619181193252208742006495172020028665534286996468355423666611809404
30 9 0.016886518159431600044994787367437567950232182348478136285306885224928500145875555706450098300906352766248848661841665183546981124639837332440858830626672513228849865086722612000004379498123155527914770363641669739867708043771347946735727631806300728630702717980168851752848643921233553258958
30 10 0.010979920150947593687129418330587789196781202546002566347761513590766736825310487507594479652404140959114011868057335376155837733581651458740963190402837602528552425602429550941200580976167815491819748803852593415429330879997182601530401495988558902748264750840825573762042461698435667330022
31 1 -0.0019214196749672331090390997009299002011097269738821303534965489634559595021240894553255422260466990503254147128988507873655821669105910882704111571292088182523931905276454510204162607059202435480256981739240293327562422819041576246438688031777753092278022303118572462257027698261334141335753
31 2 -0.001994665127210093097508443023370209914754069570858675127511048145316896425212463477394232668585560130698500462738894134387404593951239692184101834385729266764796028647997844144656106829915577074892863981350829617486966895521800353832005351999712451107507141325109278168999255418494916153226
31 3 -0.0080432946045543852200366601722390039064083260916060808800496611756634154633279726510772142306669804432960163999651262142301300400514937343123069834427260847808700156855137357150563167349598905335583712186909805088695611363271870493651587442259808069245599615220238500763090027272198079355887
31 4 -0.0018411638784081824935014083767320007846520823674319578024548361565160936813630225024764947622861012098512027609702980763961563899037278014158427467607321228813441529497765538960252590299450842175364186819283367917414996996576572730365235859397716835597032858786060364023944918791111749968817
31 5 -0.0020730248612599583179166418985704494247773945331280437894498486078276070408967349015892028971989789252883847272083064912628479979687707099520971244151396452232553260970513946837780182388129521168691023593848871929886997375149457324329827635699404634155522858441672724584235234833511070224085
31 6 0.0052014612507375437234025507712811677256965148947650241428567959964388468656601344870321588966851238850926396701888434568045436044707527342841009937784816396009485125689137495229671455228513392380937104035772812007078953551249610467866500850250632318324176415080498078182641236624135436368777
31 7 -0.0076921676607083062167346732747131433110365056423925690234048776304160965940040498380220520289336588110902824373481664414035966536785162298748813467493230454092290065927456347174683753712666378928062105978260296976107887502980280711893648790801342751784861579041505153598781814605143955302925
31 8 -0.0037572620321156215438669793861321061431338608715889402484078005756491953237409161968798687687610924502758012631195739308114222429638529807552319321106985503020777279899609897828894688685930748395551068473461018897633005480899772277378021814927072080022629509374289100307926078038451872103516
31 9 0.023476249525944950120700163752510653581007905343309855759372486054520044302115956955678619178283822090140815408864071320800226229139497481551700821421174254232802109267661165380920082534352894096144377823129496538327192424573377116881369818700508988241347176882062397324368861061484988518134
31 10 0.019976990938161889439716660774823033302932979442242915414495471366474516914669249677250844729370821363483280338210183202189121348544380275309540174877034520907229800065897448723527535950251051922279202592587103229623500232928580899049042080782796780786127328439353685843684388941593700416202
32 1 0.0016443102936518199292419137025273830565326764128194319538108487793480158997750307610330580317687502269389664146983584462653644853278471949597980552602276444266368742181744361886883259980240507230352812445187453687646895279057007540545969437556994815146639679530851001379919401947465415987928
32 2 0.0027659797965227061333025846064558192121881500929041969455745165594280405836448287915006502534402485855931875784434658045552184414185430240401342854526229207988555885791523033702963446092970816763157723422924397394795986676387299901203070151066242186451342735353967593452900508837311124970121
32 3 0.0046117625754249281181252954195662054716378451621879363742780038172431691981352740233864157456796583503817354827969342760723467127038058391600290233586788647912459124309270244473830502100119972244167987802832267547331288467974043550980475947339894327073389414367237508646787643218677942236693
32 4 -0.0014890383017711204376093119006863407101523714014638607366227547790705243115597402769173456396584974470407194095453646047300599467977255637639000822260901509945669019891421692329297106728558788352458720063484917621070105547730026023526764810659488106095549059611838751859842839369608513362251
32 5 0.0021859483826166566096122081206415131533734351144631915943167227800685644980575500436018696306202444565925264298798512416343926761079186514107244564942597584750481053359101420592346071247537928728146371664495726564006532054307205194513583181941774965111596190029167045672752828734645049093084
32 6 -0.0012210544944918267475156527016010665224635337966930300888159967124230392884338495306713865858138228619491280609528482194640532001533800870893744221277785395900221588752470119258539848433367810315059721807018669774616897128311224996167901508068763126438264880052884526087016567595649387246001
32 7 0.002433630327281564829250548035151752625063159130841156067644423613749936582510923860841674260537911345329349913650253075921669322936565482375432520706479124567379853138325622894019932308627875821890238515597394191727898891515004700550700665971964430407171452862608088752531424681591172030457
32 8 0.00049625734830668236252046804725453102741799632243199155215589858090795306862652070172241577059543911718009952987148439040048032788929175130964417081846110888440363265108873055962241945385758821860002719366709994849375456171115179189481789540392396251295582126467298463512126641645259068087943
32 9 -0.0088771532605207468785011067803114580573281855285812560136879050533460048423675205650460982428886963715990792222059038377721665456949062874986909873207082371089492031583525184445723583251992714164243192885764688119405196903954297337229597070579380781929718925651280438513239712066259911099411
32 10 -0.0055077208032763910407743661671612683043508989313780301255764819238777212256987994648007245543032454424827283744425933870814346593881909657892444150254014313863389082268738986771535364961249340467229050079896384369559696735873106245150852867766522213150922445760784153141578859520586229538495
33 1 0.010659503917732036766979134986670985036559591364630972570115163928774944260268291486048041937655432312310952584886390786889874107276663368639412891633516309119310667526875149138864755298373065659648830806010947849566789830429185705124849897666698018027412600265253359825615919785923729847335
33 2 0.01385975954133785372548273379128847129016732334329325270508508799086639074752361262870019009496826440974169015376583959872541083440764760995815222772960009444406001617754588520290476720352389499327519682133315718180126457427126438144646357612584522867504976882098808402231363821284104616878
33 3 0.036250833860875415851921534420915329585089701151616660830548888988452558775686037276163232619778785232026209062972781759206554061429172464897075057996022983197252463782900586012146377612444842027078787755708474078808637645532072318561414089762501194093585104439684402568444461817362343551255
33 4 0.00018935533656678463585934139950321620534235861168716655208373679752102852733265525881102336107069050188342894475834853050626158993401358512843688527224424698984533515247055878466527397776138219631879125159603079713517476676622996652902125414011915038137718496215854696686785874144844414579801
33 5 0.012491661519753182727936773344219994655609159578329386059832250335103383186054850585053499533073166678757572026647900666077281652676912616254766354580544679289222253302152228078921441672000444968007851554490356189458237124309183544244149950661103978405853178011511896282480367797107056191639
33 6 -0.018000973719259693723799256385086626841284564826660562064308312950389383240023374158110800660342557277692080768665396025702761883446871323151591239936260883498802792407596883529553814012486667018091466687454638365445466064415403183520744675632585588826741217411239207491787862986577628865334
33 7 0.028534326158536938896836169383322944822691766753309316411827578952279885513183624122721317115842928146122799996962351341466721228053830664489673464405943741054634879852864895107023092953592551018129524220766708218400443124760280074120508663492960145190466811219260230104290516670762203240454
33 8 0.011630920958302578685435625827175104821766715565310211236128560700555304891360147618097008622582818763985438449415378171720459613928305092732142161946994028505557033689289416749915838364307081436389531307365463270689339999978527588488434974698109989230243553213771828896342211357430377068853
33 9 -0.091222511097176869586352433538368002256317535384613690607625321541577098200875859904011989570444890418778556096608649592480421524417325731718498929633722250920201733516692652392522834385008490453538807832487845853978084132853290150569970497295478217765124781839419785270372953768440772939046
33 10 -0.071152430163263965156971376080963968583973696747107498474274613007124840501899896512526929216568874508912438949881389661497278966878043226285840163844468068738947475730179811918285028889450131192060082310191719676605124688970404172299864575331522214689248501253371060119596118367857819304034
34 1 0.0029659936163178168567818201100319528239344636150880707900982275671057878329704510499261285176577773129182375655858182937440594344326456144272413414714775764285490181802903180029772985019168321021505146200639765891712534925371873492522615629074880600847972513178785074548580467931440576766233
34 2 0.0039319998576224730318228310706237046601429570091736733105402875351047040030123590007440853556859280312047757469505731100961839472127490959984429459622791684394818608189159944294748068385644313308653040912826484346217172071975754711001049539642182822581808536403904319586747247304220691690586
34 3 0.0099407346181426394620359047831841981204209406690298219129358285779967768399953491217003469296771282910668437329697822464363912359183927575543434127229648788434672239505470316113686939979536673492131751761550277647666314331939821861764261960583251178854761074292462355273879083736881789070045
34 4 -0.00015203564943135552609709566719182686482664137616222667212747438634323155253775447856682196376646071484798352915292491409379385874450118498701077191179816783248665307673894662689495180478531754743540386747504504891514472865633918574114697144754457352279296583518328089089977589739324782866305
34 5 0.0035053549310550483296608924985939435344282905306768143592348824074096693023883853571776755804989906253800126713684479357068506250059629010770530665589408076389158397994057652493441022149871987185270813735025018947774850993489056100003279867583716048928453400372390430314871224871722933646242
34 6 -0.0047967207470972786035721457713703464887573177302689238805641631450260656877291044990149562682407143219319769641872285372933776968973326172926261760261999347321952931876854215800485496995395293316335533043843818851419948998965590272517085615921181959221315422272810516484094266207276884847393
34 7 0.0076673653598271054829434029562750460168050958007428973242743303933435894443045367167563784924629239603273116094861851490696255347776390163577563638679545769396973612133767967528448977144490496706727124555462959200722465862851804318434059891047140516259996574663053165844204001775327636196855
34 8 0.0030572255696592198541533399390214241012250228728439353971934231832882195032008292480717151704588175085166532118139812692335412474492445805212427179324396490938279042035695636508813201428459319323233741544437453832948649554823275775810443741798036815084935132295817191947117148513507254961556
34 9 -0.024648896587272231281254041365479645203160661841601030116523153316359199201887332300612672787517810228107910175992746217670342268121150426438200379037836198639491920353522888256435857636250666175097282780217913376236744009926184995536997641762026759940151904430376290042838107625448716438106
34 10 -0.019037107192160370025478154441248924742297066457908935119629091164966597829006784784717775469423300305746363885801914886639227171380720686162884306253453978025535644879125661458875632751323219434166374647677772082930819881891393625752431910725853502956902972854556873504433358682459514497403
35 1 0.0072420589168530556268965803361625079998510381970453912719698611549017863931958738697816666486969774271609837021367637464623347686233381118496865693480727866915481854068257444103631159151752506129107469295766942961332807691282058944613576616055699882587844350694207057265797318356926673842787
35 2 0.0092691577187731454877298765544203470936881426306171392515575875786598066651557304222204056879010507817433395799389786040546011777482730183635020682006540761064708125907572200437569395228049612680553925656846524464082295794904248735534516376017518336474255414986786334847974000311976041435175
35 3 0.024772844994688016161603561595239675792759623137615765984919873290514915702783699179688762218726403839939889948426058200323633990519785694038123847252973409980999581914912705864336610942869432720478812353313486623441829834678678693103995304275932494770569444760259885421684464568675824572953
35 4 0.00041451873834648914762614363498940679164314897687753843936928887920428364567757191128895513380857811615491654463421655874149851414484241612500412322431930939121481708690751917049900028400546962394231567471319241463690803399474905243481363722870979218097206329182690231976051776811301769564125
35 5 0.0084226931471092161867918743362143491507198695919348841178916388747970904818946317231856925873773200925272979719937117458167908019556532502339580951318710831494333990050075270736212304556504253518276349937334024557996330141530644333495243017801856031025434278706785208844344881817734140562776
35 6 -0.012510212595864439370776815825352846860463222905240209961241711095718566134254130398223466159409855692316187463604550580997264600621108944633166980519780237631211171420267528647693519039072943922881705312248435509980780215280278950465294876653556330344115237145745169663794950506290828849315
35 7 0.019732202235324486101886257736570785477479126612630985269135488014372054649989459194880358736932337868733521216688139546469596315459579856273907289069699089079813141575019479944310354902105091096518748660079502314639781290410286002190570388367361994232381129386930667030561531898271903824519
35 8 0.0081326387313199435803165495248622548107075085482984319790212663637511057305540152858559941166184693555636028447522992825594822440599492176105630339282918711588382349728928774642032304522664202484995540570935049724002778471331579052568704390490537361135700346002315677193791012335441508308912
35 9 -0.062853893894338232182467393408346695400569392356391900095621922632013559291521648664676192316527531841701290187628069770337741974022263010020304750432366974098942698130925968450192343026167089504382432976191577274227830765010431728505646387173844941070312881214098676829096607499809189307405
35 10 -0.049294195244617134310579996010703472938157370577548516663866138859307380985833971829823674352979675710322276178619861419753112857977920509259733644452832108414535305082660234758861101107179351082886065861353772447755981392675636121420740500627698705792752466550270257532433611334589959392092
36 1 0.00028635343616199459998795348838196212523008391488101551576183767351750687783214404161190474852606541965512640288439381475397817805966907785909907999637587853353667323191894938768151197708451768637331561642357481814452583897658576424844500942689052501855514173236529174624062110686926310987582
36 2 0.001849552893651587383353467716346517325004933358093465663948501354363632055404459617463303304609489621676945497912123946229898852356623753091364447268364428750354394059974553415382680332648315452636576081481729535130858019108559767006761542696920678089454242648920271835716658532090457534668
36 3 -0.00066118242471046382954216950835459662718958014806609274972176880142408701727714263751366188816593775066275644716283388140547608438634157843541478952741953592422378096209325918553923682111682919128460822976126069034847760732708330884449534917468212343818364334013717570614045329404166134570653
36 4 -0.0030195794905397147443022057928286162250081505622884845064758563552747177978077129781106552058504538229091397825210057999567860629929635493478631513622288254588380262166660383382564577825223235671995044368906079822325421366476123180834066797496464837178243028108017957497804199376319632856868
36 5 0.00097204971409136967017346951095436267705462118946641510767905414079054551147019143917143853550236189715826424425903738429594146823968463800216940238804847266473164739958042579246868803598919188717203790359757502543382955212843248366944404714480294205554974112043499624094725189608023157275901
36 6 0.0025189679692356648538375085041695108988887517438916015533205397199283940797018579502060113311143093909783091807641251835897704854406008101888338673830993268133681244865996312884428364500159993471163884143415081063870259447656010979376072532797589584135070918469216226542081108845644451093005
36 7 -0.0029629704087806563894561429024408521224905816603456911485719841186425067939760100381374292858340757001893785597913018951820654950380686869723554486720019426961286666257231437650121032633983778425824747529880129945404840465566741596265792078502353417193587177952063226601279989868299229011049
36 8 -0.00216577064891742085874774686440182139950993869789320483104984077834319169913449754360860106926758446281437029647899121468064333293391413012661045484614803047112603015416149642298127760526392755709457719135288362656583631048468712027285803261009757966382512579338317247905569979495411940764
36 9 0.0071092241823300040217161916909070158406603584997960251203661750846822905841012614049728543203560156781052629329612755235203478186378481420569748910209593050543414393005360811177740502090063381105166156899221071784732063375483845581668267623612017046138194492833261585147567959512954483148739
36 10 0.0083857756760138673453667473956767201677821024134671341076517710001353423568198309432297766098582793993879173134468485602765928812848407548751010073274898037943848692476566146054485962201234060854320881447453460565418274431149481020095337900478658499933464071895938221272993838058627905609393
37 1 0.0018172437362092662820932555925419228453821742340361497528389516841672030328450905824460793144785185917908757159613368260716071762912351021514574849985604258946980397304374695413604486432122334310935359880204894109522039062135981398145368644846386610885389484951305545258471030207650210311754
37 2 0.002575201411333728815796205394864678567374720008716984154343222080318161001824403807258388405741171534498973704930430126595195068476981245570726974978828188816790630473210633090871054884006979491416718208661991263264116903622260049614731679761135020334681919859301277977853250486163945366133
37 3 0.005951358808771310730646475029884171261039821628116578568548858231195035472273330785802145838350157521557928187016313346044644137205428138749029388440763897177860566165515438631517722525513489611837124639302734390008191818255776244368111442590873317791537360843131756637936019383850625822103
37 4 -0.00039623800198097812431536722721720658974951986025020690501871147924947517137073846806367167105564769893710135970924387696214267682457135222243761907436475162149507907371655945014619242320677957253932236566121174581583789909825085414553430943851131613406640523058094195749649198126107797215718
37 5 0.0022208002779496942659611957619676106750060937340279894530540919071648182606764750307158596166333581650286088666116242293125257597391828274521737840362151664871699449358859365047071954688527254639924744152689891289673203968867180664753070715494891441727647012826553212777684959104201086747916
37 6 -0.0026471998137336952823590573756541586543531537827972741733173082778290649158607440464058845148204294947229509484030393987180090417052719690772105186374931908679848954554090978530206061100240598139916483369665858636803948791876083085969934209576153477021321775333712627118182304413293050452756
37 7 0.0043401232568429823193377057930611789710669064686679186166804792509267277027523953046966887224040482998936132138343841587934799371468034356461836334283559460536288569082080358791555828265964792423985236185532619954772973153524643851102613630864256389854282265268652127091419911479633644996604
37 8 0.0016337048967511827772815999356372214814044114796331398218113447726002995812314258935021416281394122026365323788192628697276987635221094698044410889607249880639192752063622586536601695062215050012983802682048142491394236855332431254504592430786515420123270393711310570510737616410269467993129
37 9 -0.014206223972820414507439143440236175462419373435427854931277773220824893883043363420652383730597128510188291357212633786574510274452389580757245277239390114527883880607685580418060858186282439942046775680650560100098464548063610302047226157508991927771452194938996826149747048918211574077643
37 10 -0.010680184668173388499192228278447915779472166776951292769427775506213510952711784953841449157987434676527671312029333951117945338740945410953266587336833206821445967683531695634560550885319266186829368167295495296027262944267441635745658973317265493545059176750721182766755822709254190738183
38 1 -0.0004034167786784887502976545728816808140922683664935446982680044605499666241327259849052693131201271416302757525160009702200635127731075324574050716357793565154337838688722734922981706953352248687383521299129022010143277357054862038321052919304760428973802822807621138089425460751171030234672
38 2 -0.00054771936156751083124134825285053766521531178650741409869679884687764734412461050032832582280492161922254732901388730274920694751364627782764367457192625376628683423054553609204239196061581320667344549173126018076569890020947427478769115789866917949261730227560186532456486711527527356451183
38 3 -0.0013221100293559462214046649488572961655417813811083135410339279481732198529447266605922197819662699016646064829616366950793648613557759392523891765527921470986937596810143506896520594626247295945316648586949060143882839223392363672947693219381160525797892675815435750168317793019121743831521
38 4 5.9300459692960182639085850585628335585301926758614061186160341830824448663556991501559631086360740549523491046105226656444566613982367350225265703479650052696806394181940013990006724772413549359132736655801722924479813620214538879112774148424344143262441896399468356914650793897987500097776e-05
38 5 -0.00048138443799280731127401985560950036576100788043448547161635930865019162631698406744960571398305959976439423736622148544238559778263530934006346612878964755429492304864208329157227890018434580808057229181561160526219703514214587622673707053046420186925295503732269031753076584015173657047797
38 6 0.0006127583312100603961046744536137449535919858982341392651321426017402546399625858909882520107203915455995022170254179129657549443790838942957602420440020330468857425853167838206471681083525889845798268764976860067473154827663817323538656087120426586265613470154372778235326566751686871120799
38 7 -0.00099083424285952147526292375223675148723010582146096966235603347414126764405405578703957639826045462253970325631917178335966141165203162880877965813101500386089464469777178469854898617232813700328033721657353838093988234162861061968124104114900077688284733637471094529567989858358883784951027
38 8 -0.00038157442081368004989376388061634469191696598049111817419151653564338986185986155435852606612547106255173134998855419352014318469568724859402797455170122807353451745990597792566443662964759869109121183256466764799988032470793930162975473806346833376183727104885630015786881439255055201475352
38 9 0.0032088092111350642769134257070529287678268686535918292176592186446786784975217763497846258133883564369661996965687308457276202265408615290351181323787473517854322730254225173604006133641277091069058644992110237799360309319587109083255051892868169001681425329912742808088822495325273784778177
38 10 0.0024424881016307463292713589643250562902777063898748724539663151019318172122384316930959981160979759667528830841268010931632844920326711061576960014384995960610908520392163005559023778525848858371815162158906229124975354521443992909923083435557755567692285799578496151087183694984623250878569
39 1 0.015370682331000652100055906188857550158312336185425212302540950021815588611829138867395620786702452111309659580949506198708742464267277859159100459442773326709889818043916358620426205151418691462615707217725513209001575709265472120521662779938819874350331982092067681877845608897530899181873
39 2 0.020174485528863966522632587195470269401462039399096051442828402556659447309370064503065266827704502059355998200958795949725483879014400478478973504306782091575455100900594623332525569898888592102278256053961721968781792952894005224631567715328049243661759956669269815893507204159300514240137
39 3 0.052302079901787122771333521733515915671541490754490545714526715116212645880352033745334629476008098155168384554928831119378696566541647264765073907839051000377986426487866589077277247429374972865580184186372588318070443265415540098091766273671808893296511041426086151307770915436444296555092
39 4 8.3602495220658040196123146555050132185149539307116499051871711943436901171157255665706942473572092848883830994779384348131811844488370198827752423959207725202243153276081015769845271844119654296333506241275593297412851280846719931501199056534815042548992875383047547051675542881081105230654e-05
39 5 0.018102048371176791167327276563979338024874290721622187655292552911303958470597782914775617727853632028062787040449547742655609515361893950501770102957690988410579946189083490186772936490506714315700190864746065417148481182886666243584937799686239436675796558832412432540488354839214536037039
39 6 -0.025816713096792386713578042029756303501047374971320035286843328544580186512504110423722285951261268085369713908991350607570391100239330204467201966785720065286731061294570404993729556530483114135631429675062493315289394351149579808902219060591639221285705897365466264395621470500673190704566
39 7 0.040997017344377011142068628420712227247523039022444110727494075869607349136951410207164742724049343438416174784223579464037820160170042077100185581753319071824732651294123934171204737108042599660221629453254737832325859064061835770011372398448138799342618718255345687510981828684898898971413
39 8 0.016663311919728019320068293600324968182488964336482319635420413113040749778819051361183248941671235488475227057450658553896932525441944900253258817771813198259030754971434397746774789839308008197050271286264796659573224174613191762864313438258289916022225494486893026508169045191609910338285
39 9 -0.13127334969379776198625831156189459723309731477240404842048383144120318025320540760926419547441261019383935969677897952193580544165631686608021764036881394997730975674736678870284416591216669859132767647789157723138388066121850662142471742085720870900008366632418822083202455317933416823788
39 10 -0.10221141330610855817313783319905751408076154610153343970264408207873281640254169909142894832799122540201688858117523252341371103932295504687814519693713865380541461729761556178039838189957651754492991455682085735778755466364423022483575759412949013719864999489964960024772728410991850674171
40 1 0.014221429006015940082045008186110565034846742431931101402831064772089981238261124676832346906546385300552793279905876646164557276799697826374396852379989843896991842330954274982545468980632003473751650230764813378225604327775411009162044350675206510541722800050512980549751194892631947301582
40 2 0.018943187056705427702219115633977552198680183834806098047788922974349386569312454157664050790161522469593488593517231758878722066101850512478290702242438792026796975277628815893371277728479922154054075835244098540095331104857118103904994084164146229021597749355571479364410055818639872152773
40 3 0.048188351359526773593689916486141681907952180101906775247826298461735661893137549400874517628414658298354687877850913373898036409035695963499846763751326469683307693056193673227340449912947317853487486720115291858863280143056373982826032848875721931483606339275524618606920740552556231559151
40 4 -0.00040715127518806213765729766462489957550837505042132678331071667622468398932668355762524534419747748226041176342779934633342259142354975324175662160997192134927196477745572222093888081082878670389190844729586882561769890708073295057511028516272935665848413546521203798886232267536438673362404
40 5 0.016873039211788106587576975361537189238623486051027524543064538985580384599902023648823137629643248479753120552474909612018647943784354124374513558044021925696957340043978615141141965168079436899188327122196022765953850215673186825553953483363306153516111312803500386525644323089576227240673
40 6 -0.02341973349985769593535289115914074938834957342049084584771274578215700311723279489323271161213879460939885840031437113385491336198873310837271358348340432164453999520588100051095813110904040625500824721893194394846627627702622196618912032531688843026276377621628609973351340610393420334223
40 7 0.037367058633523338263776224849385609942617618400847969878124704942357063358366661726604505412108851004015650227294883321150736505966268536944191578774691725798626939078333562037891140431453578711865161205339075107545539131685131747889832374786435612177275466240069412572423363260072778820892
40 8 0.015039166864897783234295066960354950298083716745180487011992550058839859211523701156387848915170002066492895492613142004722397906112797269531084813791378859229333819826732331913727000226077554635385059515892802128322489361744195102484484813290984028108152884772146468192212363582507056609826
40 9 -0.12007054879704825467106275565858741774810610270316301113593955664809765851888725203085223936672016549432848626456240880323349229403035850748592410435857110462804010456279721575456687187265923060899257926743177232151108348438839810009097236934987045856905655702389071203902313628952152144305
40 10 -0.09302567689146549027512564758066799389873332960400135995185757875439670695415803139347109034790785202581098656690376753233509480668620322241898109526385410450904390213198731771721368337544747240528324375261998556491794913993034296772940900911807318769443423910085739004152454529032467008403
41 1 0.016219198696770892595651058291309237284446693003066770404499896729331289572107970357015577866836410966159687738026001936581731923292434807946269110891134927985620552663979085000039384075921874432975835090258589928203443098185350419040841221305363158606926221605094484700223888814212953515553
41 2 0.021405669215399541857039504665817083524853010934326850992191135156212819244891568827584859414907156273119666382968157764610393119637655382369268963407699873002386299047823492143241881955347301438866959281206465640164109134029299626717748057858125174334420261460338250028821920840585710657899
41 3 0.055099362887005428621321284418649113848670387585785765331527114935584996145336676078263544257302527709866684279586202528727680965337080357520916675047181631349119902753922734857165616740660688146661615714316234787479460838537409472693669854076000165518693975661742721928345697437656220375663
41 4 -0.00011872833073738845299727210117297016540347256857614477816111411622707398382525957090852114302628551627605315073368159815204364500436666507596143496661824810337210034355881517648257625192435044374625760193302799671066285259644669887180484325464186708175989223169761755907503108738321246025895
41 5 0.019153333326333508600602522389032256654797739394832000680589782436425319669066022372092776018015936792906938679891515818015486684837976517267141687961447183326754742180547532666882621873845140338494809503043916951683170020245364440980763181936640525633971774712991493220024547126388278261964
41 6 -0.027045579793451459020135478541856240343570434125340809845051337586054660570796991510843620618767383794144913319309153211248550852908997078964963396891262583176350261831896718252077885070668695762832403696070090694369700916759232941529351065019629003300529298335911938926500090238540026196259
41 7 0.043020297759203368465276081886753353092748822032551197811502534804221205507473782280766599989700279807399115292689120409802126204270320968881375788348113049695099958960141775712395505828877023915435664434715964392446671610182041909713439991220793372532676997479137166395685081879803572903023
41 8 0.017421967708700300362365908156524375211500364972409245785869746721292319076516173808863003528998631080127628041983997497690852945628533357241114162382274100266770374364955483466664090534745544412338685644020966847579162570069822074934946511421864028658067165148483350233519623110097002317477
41 9 -0.13792169567100735511723908988029592732573675543610782466677280914755536162581197731100486716853899412183780310300342150666253012757187860132047495811713782166139527011800853213673026087414473642071955469842344878052718811427843125118817128805066051255119192356318965509525851545487255019108
41 10 -0.10719335639602539335981026571343732279135738247490007071940042212598125340923568012418010170380568779770956912040249797441890983613723603916221544970976559950137174326800554435334897055451669264125572524360697416499800907510519835079056788681420603379430999406065983992853702080899836118721
42 1 0.0015473243370357595266264163142518545262971379237088010701765392625090647812188642978233808062173612752870034272053019883907513775731996522275776902711358954518363386102474053201654889981430394315857799419304788901576110288066662287133021213072106809745687691971668665774618572591806569367279
42 2 0.0023597543540409384991866756314155829956897155729626405055847899952226008699714983767668733613191088814401475063153814661448653317518226553661166975771349985176376623750746168317344178098048308164155632895514668796562863296646379355266872073277076448237921136665169975133503106323348472127111
42 3 0.0052265430719191648114142043030327116419729514957722077827042559945703728041369383785683961718254542815514141049915582988544655443075817543290354898004638708443857167333737011545155203053649088982838894144424017789745410946785714244988570679156932305979344015221222548836975842667927215538429
42 4 -0.00039920166671633059960287297496117600626723671426978508871390058168218814165940153830286523761782931588950426086656263715656088084441068633414508191827447906513363546437006515697086080369473304466019947212649185481624772219760555963017954948152662613635277814932024816028261417239110719121991
42 5 0.0019769453407516063083622235714316773325967373114762035639621594500978826523904428254370494246311433508981673898412448443442423414906535703290721704020296069237091060586774955540930687042632543324707746486681847158217410268439862866466873682049447043536698722819076097666855714306624771578969
42 6 -0.0022508402510683644474110245508166144315025945391389948167316470309869228427539259665692192004046678373794901892172695730891061576352957022914727740236286891095380162408757015305814408766072355899119280248095128769238572376157306182188217358446216734731847874189182864185025714904876581862594
42 7 0.0037347306258491908006962329962379296551266245466166271268305382797469158199743750386252462815557242015274520874156962242506897611257764987343952632320353042115148672609737279443838472140818356961705821083455367261050032246549176985267289859886021412198080813068382210588330872074793373446498
42 8 0.0014053582547089596903886904198152369297308093341805879199906604405907880742922185215863901446098049442980381542736753577058029066468844100544392873779126770599828181648668817949518697194665601696432132946191044950826784828786786631173399093162838450572462041626398735067085340535748816907003
42 9 -0.012378621405912902911444677335841620664860286764277490344197260872315671193869605773445307846154690137384258485952390133813459087030221186694020685505498354410986520929683740555207002266467644358377726493193988953829206176399407666719578325929915447963466060761380094010163503420445143836877
42 10 -0.0092442330281035684405907511653210297812845865542683482774634278114099587833649992462824890671870075076869411966092987932198081575038062017578681436041767944241425490240438815300694300523196351790355329831115402190421348861633309854567119948691834165139443495462279233755827014066421414234391
43 1 -0.0036804013621844981095395531749652491935787530122452869058150458579352463700406653628936430143571422154614695499791015991741875640492830398737878552383280568871174670102149786365396381698427403158508553969983198737044782842259698096738289381178600334918549392100655631678572107677594512720553
43 2 -0.0046331058741898603136680519476416138856571303084673595090780583754372533703970508046425445820819908565793210183659134588743613658212999768364187368967838548498686956089839405504176542173449999192750823101999758196459575676761691659341247471021016991972567031196830887963065982481117929633968
43 3 -0.01267661316831534360484374587395796156946293952620524517002437043284556440546216399286794603410313134274215150949580942360467642515911250006081213906113762874439463726995805409499898976053773577580441009174286143745439506359178702833282371140365515140449444366515949878977407773855310999803
43 4 -0.00037302868451961633984543038475056537910204688182326882644083513009567383741595655262713014133871708273134530995245767576933177800780124753022028721482745381563623211879711141674115549779653949189141576211101824025710391385359603124772689411111998103989389233906852555837355502927953546092638
43 5 -0.0042457918409150945884564964964173838678868383797164662857283232407126923873571726784292239846706015014321506496538582818206884916357703592627614100786540451778598107461451840533258290251346717057999385634349338777472697764198202123207484236441177042590606531234933290135823502308976593326082
43 6 0.0065251689196915688575691736926991068356705652154312758115935615335506704583094620728018057227233322131988695163243763316696465278764038821459618816377952617407656295810088846018827449341235372649254229971036906893834005500507858497605667254943040074481690077520897642137337112741036791674092
43 7 -0.010232609140153104035730363608421856329303764339196301777249810863383780416907705491889055382117427330261509552038606360681647914152705130962159705550055497237393143640994394718020172300394272508815190238767665961362889909275221427434550507139779843087011532100338163062612715868784132629524
43 8 -0.0042679906959131000256806190015642117806440316430749354430273087213874381448762084543456976718187161467572908366247102373969319033373711782435529355956948883598958500584404752660657639089452266201130929637011503065061134717718170202709641509433258218570489774767256905301512157952922491182771
43 9 0.032457541285498944794872597313440983299341637232833544260151423115920443105462995084048318444747235704731878675781469156009324331984541998387514948261809769326407024311389694362602529353677870109927649389745690204310644114296016370561087277910852243081834571026000066999683551503236128579623
43 10 0.025610519710493358703057934394732531112049359575478635022029030747083653499995071049301123777002055687067436525408290324337608551485366667337007646983122542849315172467425693167298166644241511358637966129745856617610202794974042291753914359269520634835729464701304003965221042970077046322242
44 1 0.0095557207383988881946013014571883490138354291472042722553841421726054715091180047534842742440969726959397701502252273751086234553122313282116257825834915418327989063821419253462065711044711058728685797081710815771433051687065804682591307447382628104611678328260055894913005643224759878365102
44 2 0.011483443133886139016223876908953861688441849921070669444358319255339391691566693310853084344650662421221844160878802355522677874513008082018106607558096740325805712208300741516846727026282867664297999047241998489906052221858844430431463264110572177152380421770812134851519961710299042375775
44 3 0.034224770159127234303168568453031543416378159343149097116861698634519461521452209510850855590114183865259684349495313567981929113062472502555632512936925472490215548068628147939298120486618007134548081161362482977867999917306274956945369171506016022399188871961782145662110622737296082328945
44 4 0.0026574008764767393121246620016708594426032916355115327588109271964691962072926457027603376074023899968800934627469258495205570930012629009801587281846072604803195077276505673926174868988770849814828218562571439520207384185151929779520923707476257074368569244419467750626657789201364696108666
44 5 0.010819731238009012370867385411354513875210561140386462682441871865461724392084853476116459531107036624308532847497295016678854565199605464971661171104997676562184841470120644358657863911048698895439373882126791685728374002171392516390104279713330592772768398685130216563393258029451729834525
44 6 -0.018726788249911068955801736087095683540751747840034791089068916815710124395245971168065614694614329392187403252280297196807349917825329935087744330275319572219452095352793182711696193183810671346969650723089147269543755426931155393689730729546840674478036428669611376636742738952346271877096
44 7 0.028880113886095062495664208931932014742055968505456511668977913134966684035265679695805938711094928755422590603954163951252029217399172027266020248159054848007190276527648589829588475460547152564941218966489185589520547037942870019686027445222329234109969896240359121541160090954980525997162
44 8 0.012595507939288664907369355623445147525809504404178371454899894282618634602625634815604768862603494300057970089248438911279349579337587494394583625740687676979471249375281777108966335382454774810279918269855689423286885147387483953746333714552037801443007934463973279410166859414231458302811
44 9 -0.090591971934403607427630496438233177613722200315439504273421749945771116448677487570250812889452331071806609858922073981876354797407259033529904401012870720948360531100425516768194113900798765172370300936221399638435963163072513965774309282231516046009167921498817058029433108162391220276994
44 10 -0.072976743042897554163680550720665015215140932316043140674079466552584235786488056924439094990975557903736704379332875553242973198701327921919376195734400247937718371004730446022512377233663180618723566965851600409334276080616962334555958336426043834199517762754525562117129667530279592125151
45 1 -0.011036605333236224767855355613935092122922877870058274002806041010242495048472736798053463952218487009617146584893144712030366361497829321129938506976749829557772093995147038243120948829423806266080572137382851714260548626527071915446318251881736996813984483576133091642696967000417688639093
45 2 -0.014187071263728475073751425983247888588306184014283482918721184418201726984234141414833408955528765237692511471828222535118589118034312903032792162866115611186131545775583449961297285356759951662693093870600108494271535112517307703980178347446735485682031487447732955339080425707470512728335
45 3 -0.037703152388737013614254828286255264712745604590028383827377340954159488005648538252864784426914841720546184143830806180598356783753819939916612870630844061132314692004243422727591528584634970561854226377160855291266412391902273328499884380764391561842798017772954154536580957939650806738113
45 4 -0.00052252194665576247381340928408603173637047048573112588106705497436456037867538959164275358782173148047417989850635408196782855851555454555474530036632165809226181254812606788984445383860749559494585349786254948554048989039631581179345393871325885276705254403088552976449701269484496897746263
45 5 -0.012862351677521244225094560706850029249709384170613066190192366768272522964106851632914457356901927846847356084287529887204276658782461649198504722194009414408856559287293222402297586976899766509757153116892858241012325917366526685435689857489714400255188070104761809469904314134887515324249
45 6 0.018963109563128232603801290478256799493914481265492444949371814253443448314097135451115747857258240407368889836384243681553881655160442479484088158398923841572284919504761245242325176569591790632407292629455875429589861608568181849213671312926672948182235208020342567828170846344226848893305
45 7 -0.029944889655248494768831664648460911096902010368965715557554816330669740968017716277930626776121921236667549926955779534706855451204660264228158049021491983553054267737286095529404627898932212719321600603648151502315362066087867964294211022641239350961859575040216831858717333538906928416286
45 8 -0.012308766313571474203560183251738492251522305081027951270255185129412204888135784336244844179930396053398926673694480115648156709507274263231128208739313098235023109410020340285312630722824469734376894085060457590950893904706366274737048087727885131298675501940551025624056963332410908366575
45 9 0.095466980179412721386311770317712857749475470538455426168652249570420100348673871618523185098544438121721820589740219823684250079851348788587793160477747385286622242421826514708713287654523696239947838456179189307698186169072964890701578565934656045894678782212844355995510667569294392729649
45 10 0.074772505864674542994849880544672114072725863145440852779943301114733418989925001225299634149119096282169464705376201539897573810023142392484234425110169293002672343762699121195435250671676672804806153781684808321865789556208823541677318749026056316729013219914082922478017902677973618170848
46 1 0.00086367763854110742338661302769952174859270924735862464294832845208749728192411672383136707758861338100591348439485080862379662506773456273446609447536295519527188118421427186413212874540639236099527415073354205366870657658116246289964165010077229217753127184926801425398593568156507437663037
46 2 0.0016124314730140332910524739909897101921344063216848704510662847102983581272101467717758635779397881159239689494790452134648198425389190308873968319867095453011976667122557054984704039206229320318184800244438771101876296083069310588104561296230374805253198620528010678501504764817573669989187
46 3 0.0029529553164993261311225917525684779780883796414134996160443773688332925367930404645934073779659242268439015584188517234224349073577640036452443919003987364815712502347098461607850628867937093782607560846413315983389965605293362608734138748573819590137192642060713253893402758861438925628446
46 4 -0.00053094555879813729177005335601908814138310476469276162039619759670290456885223599989160702896949593401067099968803549436901597579093604445083039859599851936352487921398610921767393129596867669649960901680236824551495276781275213762108224471828017880109251118005456345028234032873274001760391
46 5 0.0012448626100674138898354301981181510227591763969307851013982674125781745223791055454890227460207292050757453608224141883021697928409452171422766873816840404120909351841539078782887231036147896352808566745086605858017784125960664250698920491357434926572204677827808142478870830711031843528939
46 6 -0.0010146859581877768080241593134903172004073965362564775028512129056434603361926625203541761967698629861368030192889456944332514011848928502901191969340600365511388869375221659094757897312432783669125197003448749741172495244878770908399757929011614275125721012614059103152379829817793740317193
46 7 0.0018282744072178590073637447042609740735718008554524416224370552903797947072007046240067841573584081692079948711910915645124794844086189471076778325411230500913163922666152199420845870415936650639763250545068987252953329443447261163986313000687358059008146130061094734043809082667135675070596
46 8 0.00060121340462459191182387471971408542461949268275407007336246533371689574747077532417319556391284668984802946046190816011438264708012920425654280005173742214203674324153793287758399147845929223993233017161471970113093099852803848579882429774061398103405233951740736595596793946047637643912526
46 9 -0.0064391039319580441615657691539686184240397491114249476862557064193873684378014171196015808703737256060765606291019560987819729149425895996400583219672268537961311421840688575979106287739749012171010074553447860352610628346867427367187344327643955135685094223562672961209100766809344944461016
46 10 -0.0044934794823290224861607665940317104799918921222565216482705865779203936660163293473237832485372862683265092230695326289984922320588529694082822316922790404964120222498393237094100454033749896192366513234451921853152268765316564967864379282037948445538179921644914037887113407289589969851336
47 1 -0.0045457079441208093505907113980497612513285868487014014714017336298791616592377249458778395212605578939147103773567174470358584686332239539058024311210817990730025388504145892110224918459912213674112221716695838474879215917982365341440497940397857430087384868088468505176729087949293633159997
47 2 -0.0055686848366138509735941326037309980987813248921636991543225191598581525809296284932874184997722430048799030613348859194203475107279832635125935567030544337400729743106877368750888260631794898045413192619838567241953874756333116526314183476854934640747535935201604705648548106977545505495085
47 3 -0.015528522195900728647949472488800977593958651684869426458114409911045622090625262271601826356932426837109255835452056483716159365039692653999741620898006047678198926713100682933075553434405684268094542781135385662256260438502802550484172065444715170283823230042907483981515820038508999479319
47 4 -0.00052856545260524412019559321199348355258069756174093033038262591558900514337876770304210222161431930896582951681661127412748793192382028748458366143786039007124073912941221688061517704844930559804529934151663147039170757691334583555378258754468463878799524733065269938225584843528159456932916
47 5 -0.0051674431372491659916601847606020382740909321904399612066220336417481823419656026371278961810695449676051569731465305525005570803442157356924910896067486905387100053416398657200664953289650070731352048282723398317589885947462112076655107477605950042752034346335121626428999564712360022985387
47 6 0.0080677612625736943746338732616759394003401290633774686974066045813267359390744641537733896420695606788429873566098408365089256735414033762927114928235164541040178011565255113950765835885621645508933999668830556315939603202829379926362152349717667647490174814829454813115854133584394524137817
47 7 -0.012616279716686036567588522361841400395974151843006139310653057508174695319061600581817403105331691545299782083553905140625922922839367881614345277030069682134478243753458089670410218012047520790570022734602900422500483978031072321660849068197512067175099269111118989815104278240741471594548
47 8 -0.0052683218072027408173725181089395743674586504753259152732423616558783490048211762323113960619220127953752575690590425538392182785710539333055643063987324547531251907914442602665994603349325990003582977133808729182878479370513105301081705859057402461554014003678812058231224792587929050255071
47 9 0.039887964210746093553804186558263932892433640780357102991718189331725157416817874062844954751938504102165536378412077219635168230144256344692595990455658109826578051625218173328257244188909318305633498944635466526501496674186400415981884896568160279018627068046349592510194838936959079788028
47 10 0.031542566067303369160390515246105763222659741611337491629781914162266353268205202807374850680048116513460893143049035094760126955885385672361455598592287111023195454211044396116315089066965111137692164528599546169105253184081004279608128013183969942875961728648523463723417080513275447042505
48 1 0.003222294669252197725821858657572324049742671197956297568483174688736164170802256390132657851134769703929531102282824089252392415864966017845183015298162755314052085675667346591190971573422744265040600064804562109364365752898421478713089217692565153398294771643246271978354730498845432712175
48 2 0.0041435565940761015384100648037837384693571146344332666535042601062253022785429877872935479754643176907769714552189637403426531184562203630392249976769236210389179903644167609310365529371914074456098500159831290537895381569761933065690225346310201684969965841162940456885601133519788914799384
48 3 0.010791672821359281448420100781683102385300059266367874828816135599275394667844288171101351776468401004342794340934566636032184153212061052039936240271624664458039515241120566208643967086342675297477606120878291890672083598565969500535429318255664605561018455303236248752712698040391690820637
48 4 -2.4947371001424135026337037552430441987644130899061398861554193505364426321912280571350569759644887780515142746518761852845622350584906536027180313499679780629700405065038631140684533596222563162170550714944280061509297617740692041315005289214187234628240608420938612050105394216640976429951e-05
48 5 0.0037470724960437083131174362087715792853179017381685749486627503081646673708860802542806025136863434491046651799801569803892584572560576610071910771125698498634164481689770904152701573914504357883886925443228421836267356295753664869705029597225929898063002895535903089455265829680606971324069
48 6 -0.0053247676732103782349678131538556703967296218999641074901804118418893893302187792978740008829840363334754826567131659010397553009864832811138931617544227588273100675019285441284896788333814350005080441268686202295232269281132330173142342972586207730957833506015969249057919851476999357515565
48 7 0.0084524203355553814446147175272510430771529597471440145544248852549628480241998167350473952661062343684789558423126529202272402346294438509058131898442241066846586136341262341535261294870654553514294984144293173028258167308532598265012650930813364042254020740600761680009329643578149424286546
48 8 0.0034079616406437640800065416583896824472369518915906885816605359443015701738099372368601924110347640005884319828016648969659640451833076153099786017893534192419621435244333385108921112312637125151726034134089287087096389194722659323682491887167978359874831551815400821819907495532673361172001
48 9 -0.027013731363070389115219065120496412434928496038720149274202314428268382351638430674899982917941834415269000228870203402925070358924519893598074464900167680129669994198642074065766210401653672281157847156091470234716797998079423130541022423288008106744271264956696860293600714955645504169086
48 10 -0.021002034449055237429486633469232695269224422944911745349643913526717445874095406869258032936681390338366181430304503018836518974413661701943036046751193150833850680792810547684264329456214585621490166771965907597869323790981889235642728475739494097848040883996029731944595090220544071906812
49 1 0.0037702402787727073243508555230916393971824573193315692336152313333159131769399244849210844226882066855359836644911407743114386668352773164275513632473258250074838105376188823816907127013887624892024906208506971321273701273651655513006418364108837908536306534540896151384363845077056368520845
49 2 0.0041395327002941936475748811692768346812406938665090406180704133502387405770095960216198025953483012320627301009493542906317037469359139183635600982846344443174769996164472088813116342874048770098712146309288118332055875471148213936146972524298063358225726100673594861979253771964373930715465
49 3 0.014054624088952895857901423104127994587008327660355519395691267448068288931278926556239519386408278094406081544787127343020461452876793482924658785878211028039587171917000195890975020660085988012716846034934848648531920729238559439455353368180752857563356912521973665096758676815954128831666
49 4 0.0019461969424169413297626807536058257227772837891898195993383753132079446403448822843314834414880089813878151288455553150219972324572760145399410279528346640726455157977541329684969708889026778055788866264540925669068051224370919012475682757238476378612220603996256667389525303668229033949226
49 5 0.0041050270322691429908309767607874840033068438912440421218380522794979821796536553971276779256369233992210489332666089133748255198600028494135778953293243868650127671559605855432933533255638751056698171428483611914320150248758732721907016668335380755774062683323749072758995548682318871821065
49 6 -0.0083007013306422308565537585324790691601484309152960419707633079325240636295327227265110882926138006348418073177317396851285617543917695937197178830043678986375090254070070615047520054528930787244755208417380268605953894525029275972039254623425092981622942110723487222006698472233496043555003
49 7 0.01254188840333259536919400117654812384397578657425123721284066216790755512744248484440919473839265364413960253376244917345829036605256989047491904786390225875013585475962612942499915513131255099944000535289470231214248640459073976196017837514103968264648732520218538853098525490517210121581
49 8 0.0057276751389237423200702101493867092101904849903418488769654379371863984035511700604498496388662301272155399944990700634083126116267699567752697205285043646452044501097027981142570582765364906877009144937502808239261932787026663214895395511132094644732405193536557934800177373993963261131464
49 9 -0.038744643986129124177310784706212842032672382421836796814057846273879899174337407185079294789817186897430962440165375972758570982398126042811338853148007093580407657036112027485290510786427270165595498565699498919192396719210620814597526807000039217222190843574765291646196501547425045098384
49 10 -0.031973927164986575441985636186052739063914087343079325260719826519605868663700682815762623121537021976997679171640592211506451482451794830505166562970574431448801349431765078612306104286026480280348752075040284361814657145668792263930696986025274000412169754561873066727951862373180353813764
50 1 0.010373914760487541341801628238746487980472293637191000202494597721686304599166785891155869919649346410305699213293196849809088629838128582672258463735067143142900059144404296095677196831155285612070492430387449856815465268469693412085036612862191051034586209153936544354681805860853076565657
50 2 0.01316504473877363537241472967482864343507663143948736266692323627090382089886905583841687235584234937056481639559666303816583429768428298724743137788132645112640394428423783144567509421133755376971674930582423965091928048683228699324047254225190613002082159328438209294642719248707512872969
50 3 0.036554135634074586269816793476356798327046959769322481040198073222755953707786216272845638363779801068933102871649584321070098877308328510578162975045887037789059578332920464246207759804409191391680956654996696794373876925759594208756872011894538214846629675975917422147949292614777998341566
50 4 0.0015956531048521207146128214103811095075749297619677505441024045013246223488815522409085278427091608209446488291457392243823967321724008533033037378720001392276692488953308873340473406656403693381669355467703499339319955785780120054806439570028909029396269369143560491706276547220845622148486
50 5 0.012053616833103242992350934995143953727377717868582228096226118827863558497276642702268284139636486967510491585443210380202166890532358081237840326366891116127530427714149264458726083376754709588156928844703715512252510782171854684554853170903501534305804456271837982331981024820491510403881
50 6 -0.019080847298931010492828624438437149092962496549160415988688001731981738941479472689101708134648630980170984054421940238959632738715192658656891622420184134218933092081119253758099149826832727306930217591273526167934312149100256833191049715527787953520876684357973888736368013429111991226816
50 7 0.029821656232623010990757834348206658459221769634241464744844436194907458617885665229955101673072975483733025432462491150345417741967567736142996243163439987557727478697475528655218484855889177551948310027012182228879612249232928947415337494655314285491359973745074877791071285849078087772474
50 8 0.012650383971083463945283683570308064836987724094355467751497757243074088605990643607036638153921002848157186996275282227059844300346752157516645984180948315143529650415932264781945323899208858139633696508455998027194402785707433122894941316594058531462874952310907129017687960850383654221751
50 9 -0.094512631420619001593317363984350269758163107839175956096010050400882809473528786698410144987211018326495247621817529245207801484924025316118828142132992133977005206888594952168312536887754503243094333554380569653585668102587627342875440655141675668642319451453505762355731567758735067631671
50 10 -0.075017393720811153519785261465210952824948387233134706422522345035479357378530968676185257560388644099033581814175994655925716342039240381826859672797831320317489922939510396478316768722040009142973421938092551154075196735774605566568287648855475420469985537691452704293804462942923758754462
51 1 0.0054719015075568045316033538319591293957817565618521859696152861601525374731973524282615636332628200410574448145190614270428888201426569800405414867820127550029267285388846015820583857981645150794357274616860128417299483312378700617540344546721992975194239720305431519533730151995605827303585
51 2 0.0077275501122342676137705740785217350092120541847668716279760711308103735752925637727870547889427285111382539922652326570890786262978179144998483247496876942692720599711143415633268162386940680578762975741944047414926451276721716851019815080517895481646612326237012231273912356270547711353559
51 3 0.017825559476182800288290871699721810827369548347285500290016731745938265913128519732281980706160957290814320912332618872640244603991284668666802190136369857199748676042198627713688501798927513884312285525064223440316261165694849565619105760404706760214671238962545982224388554794300304881731
51 4 -0.0012420554204602888677940998959346680192828633341462533698429248110019677813185214708994898495256339344237848652657318577326558667829430014529404197781353399255333897146225030043281305480157961376242071448667023933256587944150872119882617486940075252527131077405244024870561079711233122737694
51 5 0.006671677902914629503615303175389401270541015181924140303129472285018107486088833943759448062820354393986807077926376391532844838783528881290377405949947531437843310487324342415198034718569234445173654563059652214942856026303675198462928632917142573473357966464081023467792180888493210294293
51 6 -0.0078957583929457635861404446974489780870500594750410172416114058767944667355670016021413278371549919110161170260386918373466839704068997155865062619331291002979709237284992228491951338189366682514331664989756046162883761257947480232049859676545988057884739082329383276385342419245329484476566
51 7 0.012962744267046641482293335253202388781351416542272304093398726274126476573686676771390783086360616590217827732943833469006102611361501523009838672355611095561178627866330139340948841219189830543633544204473370328445756425398928362262879690338751733495341080398214264550531373010731655165579
51 8 0.0048541287124195476932882759366701184698361671211167840700808040422182689952185192566318023785038706467478353997203565897831693366971847175817163921450271748695014281459559806272963198860710641843068423798922892501692426778640423653059842420780236853980688355000337738040280806708623002546195
51 9 -0.042449156601421531045886483660301438932937929713871773767421912690729281791501872677354276694522417177472413916366428543972034521262617619321351068032604979412481235352810262807925352738293077864321263153514547037939347367615606309480601279937770926047270840852353461687299892421788206089251
51 10 -0.031857627931997863619969390896393563515162656036841956567063557603512284781684892422727224555367158395694917395471882444474325770746630577116863455431934282285123928983720108484477215082113388914745994539641337600814842018321813840900567268517743653994993043979347978161053758527421446377762
52 1 0.0024191978138344234634226572739278800472141304797244337173563045273722315735575194377320575806257213958442128876567511756491585604754490601179652454695271731992562020239867664755669964010307960873699611535978112644947451249797612648790107192802300322707583573315351378193302498201029284178267
52 2 0.0036997397399877412349615956154985213984147143293885060813607114391728553973712536382887175381171344769775398612378448603680025537268956153327487151029045541471468941800547852626590972537133812588616696760805362525645115437998053084771752833575146589624877665843397711755293105785286745571111
52 3 0.0075009545942458157847234531746319662165412082119132279589414092254438885042590212529891884238733620511878446526606569341312020661431258782272552386276594135084639973582070420267118114319269774830639031925041344064144313330293044357695547057894683611113884810422644312912785702657276213300351
52 4 -0.0011830010411088494899633226993809937729903782271993756964864546656760027407395282136467442757610807307571428407633754528859305145819518182626156521517545977351558624816438690968086812709549312619351053125363513961172919093122982471313175360888359282154841803660864773984614459743391801600284
52 5 0.0030689039830478200156069926440046040898577829146776329021510252307461313417072169255041742550723593527272553516578863426887927678345390051678240390430219807445325679291877451056695365091381535775413207945338706502318433813070067960311766669368632160587014948664810586695457323017624591394768
52 6 -0.0028509685891259711526445441781692434039647203034566261386285465249064104624279470116872489273225077050231052423313160997239785976099490388062613907948270836846311729019919499984997109601631028977973929548685316995428686662654443445176860032676155670511004380472878868250962323267413152755269
52 7 0.0049275929754471630138520142369415271406952275185927051482603707774340426201028040084491013688137380488606839579627014968085851971714610843468890975411747124768265039165994443511506851033915400659237207624746349469127666739996862272638628624201300264340516837101529622586717211339629152896745
52 8 0.0016143792473421235625671183371391921332594064462622825645837636430322869194378985487342522635130479387845347511467985259949081756792537834129722802108982539262163391915816847286722768592913251830432992472449616603643656336209480348335522089664063480773016710644981884001830522510426778544381
52 9 -0.016671672634878353335822267048805694866005552371124424852018060158068317362077283157815045234888939150255532136740956390543005256399400660703623829908369065773886480711728878226448993692517585897822698133311327421926722393549540242884294737274162806625395214832325896617906754148779106759108
52 10 -0.011857592544682246659627958382674104590731137631369647906057547336523049995872062098267480552559338064902609472821998917625685058658951586402194050921630523451744622895740082392537488227866127014120902729289112933818378051780075864974683604726422978754541223509415255702387468843089498137335
53 1 -0.011534973200368740445222068119012905722253623355209071253223355697603667512293534670102227910014399030947017572562612044510047785552175356919530554466637101856242626155025863660983127166990757514086589040122076252305292720928126120857113796741755753011940830162661190387665049257197909933313
53 2 -0.014836946433721902728558548907721915487613233359588488030026661563947011037790557030094329303616870026145238760554650626600591745282362447586139069326772937416211271166926386566358695621348335129553178847721052893850187914211544910104398023004389459152327406261105323348457237696991056082384
53 3 -0.039498551515840580656842638625216228043512924995601454194982772429697534196159351189799879903841134333743969705150645724685124903960150909697903531880929236911198322414301904825184085586696072566410447141922851030779774688304592912961217039162491336016856966598371075669177569553609538885766
53 4 -0.0006132764295293931809275389556575589442680632941009603369801940748873787324994515586205523979528652637858169993621391498441536290897596658781444425673220046470606236410580840766769931687085458795518525969623110684137713638470523445255112093538370617524613411867211004489830085264036558144499
53 5 -0.01345033080201911785169632378785372504594949156728604256881842382650647582850776296244504978128702577057084409279683237659287882802043730236259063464143763934556590357618333243041790197277330608203094590131183120507849643520614945458537578987512470822873761437611119774133928355275648620121
53 6 0.019908347317509978206188962362621413609621890733364886622466998905934948855503403891781537161057539274514074065568343411821185424392554873331560687843695756235226192119307490124861363742497135340248765364018052241200423131791885814836727354819867737417541839070412350447335858496615034882898
53 7 -0.031417729406621103507467210382441724366789784992626600741627681063548924826312012340599749528257515279623437623392619138535330262578465513610784648530270672958787689245655828492377572457630270416334826169878033424091918476527460447742205116554171501315705025210024629061839240763188207542155
53 8 -0.012940427325928006378275368397113847203935527581180106556474894043053581364740866144178140944623635757801683606560935189600711950336495267630932436305049552644768355312079988035377248749492131914292939318369526292270979802544591966951948192262563350450007085840081949097193068848298946042966
53 9 0.10013353633033188716941434787007714112976453089435788969866281952087572903310488808731583037238131195120145471554851256909826330364532586361297200850164163868122675266198215917895420187079737573846977813791028024577753283281849868901818071899337303277147271787703190709009737304154258839244
53 10 0.078489753934708927143918158918760169792452503938959413327727025270522543559864465453945733992829069133166702278209937587998044733431754113778086590285171354439737300731198132061459623316100289934489343145104729854266589761420949865230270196212705685254713131265213149066409196852883999682105
54 1 0.00079769019942955401145297424439460507916405385024225782817695137421910206956390651120728640087665539404911372079677649804650354441635160946805632233253260752092007777888508008849282892550645899842213422107998150705600649631969599434174630336947942582944910130259087189908376840510843053774088
54 2 0.00021801715238088941670563463785787360331991289113340519826543433501951018642985607179566979946099015068901227102320605056717905823131136396365882542958732807761930220664180704170880713605316394125803504094953402706343170263010655394307877418839988007859315669709068848554311148800290463499272
54 3 0.0039337193554905298811412746194521278328232790114078809801393166634809014097130901022922485801764823770991326351856294351470615807294489204723876286582912044636365688239296940768247792142006817335047067027305953502017274234722631417309994486358111602333024509439535986726475685285606835742903
54 4 0.0019480115821908437165193433130567582457423460033488690061613440829452046880931692207085143795395086453487233722127468085468636719823919695311273815683106935240464648732765959280276405442245886322401517038758567525618842944907628872842688948372601502602503723966263516458328222806201889931084
54 5 0.00059436178856026345581604241533591038792229163826546018453769447789972179832447454277174312830456425828941801511200998617853132715457731393159924025892431534339396039354570612002605580307171989547544252548176320530987299479732091464572002097649740709550347730405717985910019338491291496813087
54 6 -0.003321335991806523631506171763612862462392232539266872304038261920416898459752967056527528362204569686540889057788049386409083927537596991562111572662862738393218893957077376308879062334333593896848696378819417871541065308124040009682435680707520604814953620631397270350805877060599490452999
54 7 0.0046262218016155061750348599074801150458595565248149024906534219772102967400566009279032512699009972282982461428277406161486990260466555029214971059557763486837876419434336658898286511521629038981419422401725874752556894086710301175074255355654967976025733419125081832481582245068486829893697
54 8 0.0025145754514937429561173781677334575498840636112785870619449593472913065742986695894095945766317360858361946494795969918617935800532371823909679122815961533847792805992662379163356272631230650778381425045367801957004360698649872561375803026404192078192230794722808013183509680852404162545191
54 9 -0.013375207952266436525326550001391491155529012418927411342132707692640828876742111070745324726862316582306001357833921607899222013546982148469118048274202231651900986239819245785942666193417786164262152836786096162038942700179356070473582722242616653104310117433563508219029176051126064861337
54 10 -0.01223897393545246444763404343306834160926945702917211257311576583949576284309623134544025514798134033321632536364421429192119013310720620105388728114733069350148344995279547499406196535405325110030583270662487335717485346573790620328824326334972384834940669817250676882717197626812003006386
55 1 0.013329620104073323658039355388327533863396261792772117592909889372344427025006913302240182134548736165810702676239386184202489944311224680428921407942561872532236453945942179593127574095163933897362256729174621368384251882734048573700839714579657657614009390789958056773663518590330871726888
55 2 0.017748925527821929888323629598419926763902298973886108984907447926243028800438433474152725470169165602872335439556698511856071356305601591952122783292326385911603686139452204313116190420109656438721297558030674653986909423113030922399476885562085959784312163895638253185505151968074894468127
55 3 0.045463148618538055576950997726109133261294597696880668655200248023576547591740964953483974919006198784962841271740298236237869927404882841115120458097716855749199616792254576030039610342802525576540866391493694769574992248174386936867284130336730509400298126985423195269084438442326513346109
55 4 -0.00013016546101747712499394183827185868122939841247458364371340961048665100829706365443241349393496505788780831194135405438397305951169274904883578284855945615161121241536033519729785292575241819724547099836227934079857611072567262531162401540809580850806479980773126000201477378267813717014881
55 5 0.015822736559151572969947064096891473766263348656479811332805489346198613884990226589938917236813747561891354402071420011691273879478645599108740134095177533179656129907389647864580480627936960026075285226588992651644690889378091079576317009647322251309987345887936219906555394712880033536293
55 6 -0.022255602185374413819895212669895323298620390422067752011625767699321104496114858415130569579092390648016861425753640654244569454138760999684453366649808478563606720630456497822604926417616566749223425520113180289307986127010072812554963683003239966166299482026361592856019223734152569611099
55 7 0.035434959301157022358718430684195972989157112728438631857248115858844556872543838123389106502793343488440454058333078615517266653062430401995223370118445265756757144724080733925090939075017396019052142515260714501195756612302809990679961758855010970670046125519113331476096916655252103194599
55 8 0.014358408406518560637257705918702368383105288316799694147912585077360549522574777502297336379182241527120627646818498112821887228348464615754412789119416171764597215502452324396783465803988129471068663271874798292368720864022069112059102985047265026176015779257605401697452727534532966979058
55 9 -0.11373826813160643440132250623387928232187496336161066107164550213579724106310150224999596460003057263765707428057770647808637942392298809130922996508958561584145394597045791267976000504504502820109585951952856642547676167178231957037189147824892364507691988497073417376184397149151113465907
55 10 -0.088356849557997676080521007741408538945380469362161814216019408974394046369103238787810329896571886411029088166192646466932594354354310383203838305139883447591037175973351784214140625413797394030894862532226536956811109545661146133974190349778738692387874900875025134400840325801988506758054
56 1 0.0098005212946788991872690599864989805547148328464209268977768766055038275887611629071924992410248582103050950192948318816150350529727809495737802839883062395835892651361190021503055777990062656747658927696987029046080955039710954452246300982960448789338454688728682018693234828020243949447306
56 2 0.013706610935998205130837260079946962254172554332039519558861290501342509759702375953326615501964033369035631026393378209003529929504355122326952987701195399208711030923340560893947936710971922253699378911473086214713794254408992764247339695485356840459234724814467059828941005001652490040737
56 3 0.032262849358967904374764821947442276177248625271273822803531187223414531308202375710242186890101186928720663596440898934807230321296934703381590117194141883779396965355728074695555924312245160648779650088440611456724118076975512437021184619016867799609939274545448877843340939113801919216946
56 4 -0.0017963356852193690981907436931747871534771516653078161629228554504312472439327546649859115664675529365437957177357471260585289444605906042228929158806857249939915459556496300878895175950550019398651046949574457248279089876200880061445560385865687301697164870452542842515733862804593989707707
56 5 0.011898813553558644282375949185376150603370240363664400254592298484472185137824059602324290764879665006047190546298923635405652752047476683179288025388865760454858267981781773817862863290941306342815357438600158826850059130013633068235966739508087555744645848119249537309089472030207483238549
56 6 -0.014601004498642573806308293173063697469767670863047760444589744515243183894164339268662965187331520167060017351928223860919259957758723218954198299215661695443744155601990738249872084173904271266216319158707379155255732190763240735307349407197061683733120797706400191991255359051775052242977
56 7 0.023809686562411255218582872566561298319349072039324823092998098867381113698965039267535725835422398714395799432481289410508838207452675982922647819685593273904072080483581106498485219357812399120058127045324958165837176794348256244605652157760327783085346257407852289171231362864773334511818
56 8 0.0090810297049565606830397360044966998024710555112946608980845894240776768484731772993142697539198512398222565953694654496959274628810419641977186525207377811031404515656881521126832649577155153073676638500471279794490838507748837986658176373483408266826794579230583297207693025310506561926005
56 9 -0.077643805759779875482633303725419184653400120125982875544379561123521167915298381084119665872571938581537073666481287468994550172406791439396471544201519144373851178266444380939069235157214912221067623743101478272638798346660006418421832341158740440351095553878500400677679357350872860229287
56 10 -0.058715997686836792646150589789570151732792627337665249869145604327871001118598374430571699129247253888154853651431670298570692232457278043204557838339932364431139018711490274762674038730683936548699533537644661185005351260820289045888722161517134941549732476468173330456210718927424656966332
57 1 0.012120242811788123184307973167749290035780286589383875937960049826091139441358588531804695048086242225071614090771486988984065491031359753180225194825336870021398795861972112826453418638803592258666322539417151750298977050820877989625063683809953084609241819298324473378533272330158972112711
57 2 0.016673847024742601992022921508079630657242110150332537741007688081343703383352880911661187724982034230857224464482962702207935450889798450224127104900352293150922621567842790742586808238382921296118711832371755390893797717023448673536646866137669091091038221441270233113468559599789991501973
57 3 0.040033077695091015537073244588178656091233340217285122633225434285135156680793199833415772871442830835870757139480825135877505953947930222695486071296014769255266417373387905039170555092697922488283597409808239702982906950997250865836019316560345880794981710640465398866451476924435422304545
57 4 -0.0017967758137404420288554510963250327262380017041789049708623464422812913654068153038360164735758086271468830333655045757424591258247247088173735459869763358970053830277305468357443367614445985308599477722093667446605380736269477786768534113984597103508474784773426578342222835422337886793897
57 5 0.014589732997727664863867250648021264578281895599952044780768192346645042896059887903308940544469373823502104442972721573748505094678907818465615431898848309711642521085744314703534849838261842363193980313398132259665275909628065380559697256935218822396748249304107267755092534400914935460759
57 6 -0.01844540744723633976913698172904231270776514441111122504233938118923701227652759866027424971009176663449992043883586384117782083583159797181013204643455361828297942295164651904159232249778358629686724305331076695884546454162642319671799638109325335772534313107214947164726704125902627121353
57 7 0.029908484753993049023118711357441053869062837570388970371754184575833949476161559781460444037313649891374648698179392311925530233550780774315596705588958184599924923688650837708138697624661286882114584355470747848656586990568300315050173873339498266847499237862587071554062474683327733878526
57 8 0.011544782875167101604773883908879270053340070655764068634287048189657869420971362753893229791875727939192379051962799188220992721027972009911812481287430045765399503929368807004687964715860850451610074385805227782234630482749919303216044807083193658801848791802770763909645353528873882584028
57 9 -0.097123860807655900162264065080922822352495910259799819972586353732620437321286623057660122739625977271772499353725050291073050857136836518246635659528505301346411359262332314603631396160463927589245830724426479660919663354448144099711713305857382074811281129540868748044284432561145694487685
57 10 -0.07387516815157993768083292605159774163018815495275347944525266891224744464320899410468149527650745552308626996562923217176160389629063800759596127577620346275987189858801498890817766787399566998161471722424401880352470651552593440978784669382989096991675230868419551054142202912404274143691
58 1 0.0089014425856684673751638374335063233079595131127967193609591006496184089272788906018534402329337619642489102581746753152756891773739490642718460002880749574203721492773789381296432889091018201316886952768452538124291577128965301672233501585702944591148348015248164977102577552341637567723528
58 2 0.011288648679593989787690351573052051193139719397154755760368899913240917830832716505654640861991002374752832195236944941627907084067831666819891485528714079377813154608941157140957606181069847325357299043436758410237960079629478636153052163811851537446826495350554592796086136744676224751393
58 3 0.031388764573965262031710184698088052954584251638837475453471502670704813351212834074796765150134338858971115940170436019531341033193917227993855522922776073436055781552213247668200897433095484172909820361759345039713812721389332115252423144359534630297434920275982818257199241630070315674251
58 4 0.0013965691304470531415924525045314837493134954647779883398124334456897786746518803015370065757682610903851318810457050963228219196607539367014486637898915671315302355086284210010515873585387601020166315194170111416050518620738234076625825067593483288503868059246555084357355122267917210994031
58 5 0.0103401856330527350523224042294430896624828940651066156068818813789645666489202746698797809421824119742872124271689991637183149608417019414649226192880664237534314545713262117909702538494303176619900334471595077373395588162966448069880735332933564082542983129410963207876308530647394524292
58 6 -0.016401502949286181688536349426881393554932011217747753756093127921194016893266015197021244274389802301019198435756093543360938451463813186564145475581091121204366800533934320617853573206762855974907850093639865423285831713704144897592466877362332939741189361466273520779778330930463201159155
58 7 0.025627059420493211451897615549066404707470152703487330297854218428998783079896599257064218610519044245536591749841361943834797370027586212074988664918654082716787733819754413943065255804260563243941987567618654334531370959368756944465728810193762460113749019123802850156165228166635573531863
58 8 0.010879830315417161873420495792933199701520838010825851436147188481838496158988804328187904655340075753336208858000013355704921216414308998380866605324162493183062718714421184058383665646772895190312765216462801433987960002239488570853565996146990409433401086482639581136683883396044639624069
58 9 -0.081204286082575026800902759397993244333987328443002698951161142817976460088894220350554852811554631688937724915075086896769715743065985274782559461550831636910511801901739959438344601822609380927560869583269855659200891414616216907480669189274569187876453373976540118644532024057279269212427
58 10 -0.064477426770754146102111579268195473783424204088453356916619533909074624278797241381457317099548608200940589448530270699044655301051623642344117054752828795982874551675401865488917155762483784646276723403409159738532602787599713385794371829641902619300193298457708384467119932074504191805934
59 1 -0.00029453623049757854807246989809481706332129345702039425375861234597389412593495626887985283153783120820572276051444769970490781846239232612935400943518659895596392427685205551528839991294299938875545112928911235819351286148104188183896048155993267603495256661203372816924196724679759763486591
59 2 -0.00053430439197184225989212673337062285255653619724470335315594553573536888985031215939401092083714909239072503816253799795835623763947734685803310441630596539284260677318146747556295634050816501207476495210947722309643757782224577076087544104861231128152634280069313600416881605810028725189801
59 3 -0.00094009706447457898606502552897116113683263152618558003221145706494185767929221479095610792953637772857718790660123410623305911306247966898659648571494453645615154992208384710742152023421550732900668001502096925995109516633008659293603657456104446216751284910316596351768033423154635851987487
59 4 0.00021679120989021930434225111479166067748444374930293993418360043048574792300033304420119214252728179453950718845678672896990933071016763753199905639443298786622590109047263507622466895492608938299178237530457892886302417599236998331825304692031670798901366244901510160293087207597147580612598
59 5 -0.00041386976403907477962441227650418874804230663699917263861739811358112306174040913249701659109359212264579843947348526751172155688262220426195557418566022781128322865497989543915223877303829304546873162434986539959185737416976713741871460933051493672449433266660150370362735757490836064252578
59 6 0.00029847733801456040266264528400906812831881603204743796826794026195270201101056203771071667561063052849862795383999762189567968208888304420901959933693943487355561985136254089268883167337082171030539766636874176568737307038448382905468765859481359695200277968971237411443197975252845354248255
59 7 -0.00055255060389497645617356555258244156400695757799817598321721231337917016439030220999350891243684533755977340864901926822911479669681923290094778868040192083866083371783094855861453146331032283875427467819642653325063264305796160159713477420487065759578252699569463073260386641700231192927097
59 8 -0.00016043221353454052847615640798019937266934783814454312195381710575797826922094414395031659218603278528951353302630590430799805101367992055480320107243093071284870373310941770210072627831457963268904375131100812656556264425163539563715526513355924913718419862931742306252656022232353231947737
59 9 0.0019661627585172091623667078687772585239062517273113041498071409115334350379913993050552028284662308674589733859548381635473472099294121983948235444865732250246813989790435392713195718628200959732025876186664806187515793321690671152358466739387725754671668725048666306344086897783963515528543
59 10 0.0013242585818739832441932582894842156527396618213442640411474981067813614401615990024670277953891906488617754490124134744052920500664037007770877621955014459954707244207708001673344753343958356628813894512994443844886753071266518251806982595202809461650468135155429795040550698531944980578748
60 1 -0.016763025912434027070402431564908769865223277788634560452512320484758551123764760044227226501571751867478311433311728746606967667460785886584688982879312820571969604505565364925723160728385736638274539282652309508097883103154337019369461780078003467013345636030915652403136297793799180404007
60 2 -0.021560303833763935063990371878951541518361164718009105839010096845136740226574886278281209977380237888457944714866150142660859482798627141939972343855383728773027732012825752824369637718154251818139095708678641525913353468262087080674964198030969346827665595344405709602670514907920819260207
60 3 -0.057501121626170742973308586371351789740907695154164394834639083794907212641657494733940364725273908590277545821472353766717230731382953049812410756696377515499168748161587464995686288787267496622257421885519867865674674869723451229959598610275539267007475777797304646770460366599568123703063
60 4 -0.00097258606221771686032160142643732960323611649402339852114054796189461604242933904784980347242102697524335753405222951199235782326261952225708468817127421115736610852539576011960698392399020276321456163911005715491548926109850724036305199934132460800156459951824979415880834396873074966420675
60 5 -0.019550779808372847081569906096363471321834724322696788760717162804221217994501884854230690742789207417273945709398653740451874162491905394062082347875595644934755767130330531531396572776718022783784904177529272902922584144741798759541012559966327819793313639874902502623845389595770859882379
60 6 0.029024573040776821775435766054872794382648183176887717433247331060080759598362339530823922344670182191449726873589458282714634598848442970934148405897060606632394030166499706244064842871588914383560299885416543277873806715679709021857608226079102678441786373118361884794028085279162344548558
60 7 -0.045787763702604699630019105564574297919219872369762147714588976898890523498858440970800044702576753713131407159698587583945541566741216360177582126615345890476890632277487954495519465808481871855720301657893337840259512084389436970584203597804520923942244634139228403424549712821062491365773
60 8 -0.018889517375193541748454420756844535057828899768430802838447494571909196634993322151516171752349227025522965134338589944702036808495656227535232091942730079844161065464341253636576245973977622918115545300692423064548613261015676692611709095345086154690232669477761786972419812745208174496559
60 9 0.14591210738237012122587117353423108941991207658334902753771985151749933951296754596240916880067806006172709772308662761537154569514713407543475682357216053697941357729092361700770457966698083806066030334603984952635289590599297971130695773555405411941346168361469183856128592963215320709723
60 10 0.11444112912664571968357473895461259772258160185616243194573912454873311109777320319553077249432443109126453423054709195540552590319436164958876590864803228396597966789768406010172445016447749966758345690552730017059661224341721838006445533313261947088612613011422714452433034871857138733114
61 1 0.0078356796929971432018062793442100017761255951971591481612071829097027168503094807442640136070045976041966733916822017935388532563029644434883124108244040630346663965809084577386436835971435011928000091590433467004758917928615324501508980126072940383563385014589319119634068845712156321531205
61 2 0.010047467902190157745953168494448954029613459334296559956555593642824058443474001796911952769932423001568773464660166487816534624774153648727708674693697226093160344650079472261426826940402639968565818849003141058806432228517798486822780380606302587346188381655659927607392317930755727305182
61 3 0.027561134478745208062178676361468941025994383726068965099959240783293943100882231573151985698679350266234590154019157576959577704105962703092134977980255497225691517431748235364599747481220421707401150610883096030899298515008236463008259470139174862394127723486121265306555272272279550110087
61 4 0.0010497431118147088903252786937863381070387599410945353569259361847999986965058150757293208236429952503357244498846696202434113975378830797432452226787113937965152155839070748179376470666427151443261875019933696644311758298662817559709364775259856043867056474646735239658591056405255424856217
61 5 0.00915022077550312091748403707975726696264888642753404738586871022024913445899776852331964516602334123877166889430516646374311380589325751843976362376370056105920172997345334807275374888824633847856178298455011490526710813948525360623836148081525491420828339669492419190242376281539295892759
61 6 -0.014276425666352207679241224003894159697450660237995214771720528374880835547836911910238467882557265777333108055456366069358181294977335643838485582137354418887505185019621856357228859488522242670013180863610941765317601987493914668709032547316894131488047006572149738150631775267851641278091
61 7 0.022360400040221464702958244994511397237923980752268296671589209501552280091040374893911323591540848600341901805640196386484741828376070854076453727050175842224210796821954856847891779521550994159554154747801885491286284970874250182178805747515531430767508655635045527878788514445335426323944
61 8 0.009442256795736269324230340575711200554491028597992818679299652176141986666206899317443376501430916701781222673836386361403314226054115075168332805963020274191021403015615506986205289782719237431092676418325106994591742798274773671564806698338455382843972156381946710182243222958936660388575
61 9 -0.070987567672953555166417163944096352480287426433069284757201176983841057019489844216155900162498141705759529900135036080583859128580301595915457532774685728114214417846292290036927457299414744223881171729219531246193557409078523706332941429059774979304063064487058805064514592667250570382931
61 10 -0.056208140711762626395180623601428598953788926710579042603676913506063226279477337109897349835342305491340658613677405916238210693054421853490955635464004340742013937882942124902983037456663391928620313201267559710964189715924934320607730104191212596646435801481969618944821103833793582199416
62 1 -0.009514782184916398463063210054114443038075213435731664925816047785367398659423166299684013972948046531321901122225711518717984910348486516085088573935023436282258322376553808219860203786447900856376639742763433678230076691553599476136972192457464592513810021569771150060642958038658001302159
62 2 -0.011736690691719745839790502059003606692338218783040840826465998445237060230806721147784305219812763540611204643663338174299702169367372752709745769848197121735862960286712513586118082070683593154494733680715649324472481139077494728190243348332898410253416158360035088967005698553268979228065
62 3 -0.032884524363427745714247252473310306229327264320341546802098921813513843879730041819946575605115472027378289903815873249944193168856983995370048614502289161546109688990601992906777024840695050578563136816027836839963474530006616853615265740975770905042502100816098437714763884148308940395799
62 4 -0.0013254142706098982015802104507450329867329017066775089574873494356711297594464700790579663897855645480526337091195729537886786103328043674106843624542395721884249478525298810177378059430800766253070467161131125964516089409292918826560337662223979122062322966006984943993085241751213027018993
62 5 -0.010869582597560594926549971277244707708643557801915167868439684162968313510226094538152718906903755162506591001293254826607993045228818103886588764301604333449341538528540952004093289140656488355380674879923277948237028045025543398899413909314534880243640992852788883579519894254999580536978
62 6 0.01718625179571515435266034821225674829813188230782250222622249792244612467725824988172465056011268325717569480858486528315984444255922289052569544101422775259189238973794322349706305049831637553335570292320673743921646216721339860690190530700443152077276155463796630796609618352545387138477
62 7 -0.026837099408551635111907951176940791040206232438319644106976053169640535962092962968228725693894221817683523090814791357221106040614374162241109620136503532086547683438667756710599860795492279586042273067553453335509030744947654754036046521120274044065067033982903667412838773634334392235848
62 8 -0.011296251144496594317326393678985767824945629215381852617791184665770723884289586321704276790480725447709310935247518452807312101399332825262917706575418315368610894092253203961360939554584315462064433507739663384947484405546772335690072434106288680051846716913301121296055731859687629836995
62 9 0.084836873806455870182547325762073490665242900605633352998993068820341264150284640165582006816746640212089152521742703006235890241929633192348804168987221853487293146117352658168423886761752372061444206259291241673992801523493941883552005946151522011157412630930596221553306972401272491527418
62 10 0.067264019541391479658300616833856346429982346795047652594524581438325231732652537989684579778624523291395085143065475029044294799462317959750160047381669679613165139999926876233038735909544926712088436884626010488152044193075257944645563076262344960174946720473372985457815249595994829747084
63 1 -0.0047873127879315106623305315997997916934581567468105017817413485385014693369670535528557469144954834702128140195807492227043987680684695807106626187894107971970259275731477163510156881026189759420106625317108470294701211855234348152262269590122393382794836219196084311078188603384392479143424
63 2 -0.0060714442265054969514240147242634384595552819003596657566523286869298490955114764210536598383187857663054222919016681969834505468428765346107500034696642041961398152405631888613813519634111933299876885270128758410108225591980701388371378284735742561767537591017770293585901026779369029353533
63 3 -0.016759574734730292927348189104624654273731377998585707708819796099782636494361285047555671082346462886685246569603185215947814720179585304340334615752271030186043132491097349873240933951783173320920954084410560871560908307624416823450295866482573499020687819199123175337437327997221415746285
63 4 -0.00065147086150451646151892497966134770557645464604583508379923271066308197129471303245753882385903469284764565390331726145515622687374340517424686651930839442706311482984084658635655174743878166875992124321674164239940993130469546574022237774851835976960425535150678710228925063389522052881269
63 5 -0.0055563364454589473459265309645197995589307347177164066686346442690354163078435867901892001330041844369376394900758893855472220377868193103786843579925968938543373075845663728738976432315028469460041018820833848710682929659763950291358004288039700773037596828093197945959712136935400732523044
63 6 0.0087010858751598989407182735849114210536332701460201491991828226109695626344096910435928841734671005296436718702519558143600302272911020016739413414985118745161601586967078994928847557619705984166243249110145802248069318806602339988913700392377982661341056438927398716192414898373908826054802
63 7 -0.013618689731735232797841064346865707618924289423217121730722754715097244651575064507454502856623521370656852851964684209092789379904424780629146660987668064038274698993215910989582336890745020611436335758067580577991005529703324046424837377327348002588073399632989879337185938336551615350222
63 8 -0.0057466447723879735590233646836246621813099043438064538534374254187812297959426572987380970515020214154934835811653834564207634042503028654814427075835460165655887022137070739348410116791858301618001435791864549385681737707658696684015454989479961581244855073382275982398883572571879486660841
63 9 0.04318919521492878392585174461186953016046296771819917209181741560756862983054587654503758097250050134016520422583117192954321811654039789063696139745525904976691478942121367619298639574534198868831961215243314283742893565703082891116626554564504852383941540818709330957726081902474015890014
63 10 0.034209939621083310490509967545873415938342759629702336951870757701550077702243356630709286129048128300474632680661632161571302809782001138291840057014438700226544071111297652941967461371172363024343280062833325842563611332142362839536105343594029835792116977852929862560078200628506433704113
64 1 -0.010710113531929240064060149589757159611915067653762129216738436673968999030311869436036486495648878062078680971427544803337190319864472771379404580078059945548499928692700956497427647156336013300866100415049810946020704162796846104644243799690511790316521550928921274657695868707062424158648
64 2 -0.014690296122061039033388082434839264063537724730246772994587345601151677151497394051617684822028694985177036866191654321292895883173153824303294522153486886641441116412854342637317459087194384493854188745710326140260113765464065871121956844989086155942814897586927337821179058724123007107759
64 3 -0.035757047134875305234621760831186393895573167684497611206128097090085604991306691445792762661195617963298128909773424398718037576037585418936771951622189954353984549215071436264138825922164530557440414729495657233258919723149020728215747919207363536573664635307373434192006467204677827087613
64 4 0.0012242370698245167580444098178265975204990382987795099645596422605113664907219692440687002950311433939687524340140807723383151624976579213237420344729463695054438474326222402550702603795076972613578604059291622772691449474663080831794035312104806641184895821735072159113906616135311260698986
64 5 -0.012885710823512175234410951511082538267103597944048422471754995758022831842949075053897101299008181867511542765802027546561008069007582039409033513457671636590501647579647500846348452478430425139732668371736456368938963352693727396408137856099722594112836773108242799612888787691173026381697
64 6 0.016722680611513285324329405893158552227674886409362053802680268551453276103324716002265244733139848126062742019642449413549648024603164278288320113610068177012443793671962126385843367776338697784718753078333395160788447451257074222588922003803543711490361695920501944015098119789124699894488
64 7 -0.026992832289257191919795432015798878871883448269527879942718897770223948884787497900264918497064954040022738354612092853050079983359907444511444629387515162891259807248268851418955546311139787169783080047782751438244295917740948137529557878478327581770390483544762084356204604971012481103463
64 8 -0.010564020538889052877749560549766848381247064848423163106588273215301871779440125860348909013753139013846998727177521082507050070534185907480253709244712027385416975890740435544698352889827433775932983822914892981710667786353166399948080192964171988088664667422087574007902893719542466151576
64 9 0.087436053240654335656100380007804838240736976711514529360434477322694526353954388574925247644406323991102993702390760181312483826371190660622660970958048024336208688713401482150436141049810877667099720542539432256187412290207275218230454757845117097311040545577472799051808254435131603340077
64 10 0.066872307519329501102003932967842041065335554035728010512651562736915378737743000307229182936277899215948464899741967406092678781400510311497151091269030684885183198273121003436453258713134973591571446252626055153206718418480989866805358116826908689851810140097226411461933277230712152760533
65 1 0.0065081167690652136110437495339988533169064482344386236323504223753222541490320158779600513114356655907323490387592771021532389696649650489503756625697896387457039938306098335397243463297717396228990141887904313636644824741949901317694188839280118667272964887794591833466220696233125854992904
65 2 0.0082705241072324567382194346986023757025106678305422358955113422286974760011842867355909111173466828888612227150212592241001318178477645753152128806332501724378953122493190986384692387471845018058989682120917032341039208235436191976906902975628600987555665415481265981324154458540375270701597
65 3 0.022721049521821939806558359934669691976815129100862292731279997211357348049260844977950438687007542038726657607884748269390902278570383199177626842320772797745586525641127412586960587882950617520396403564369064817204442155089667052525884714125370766209717871689969823689361509784190748426347
65 4 0.00081603695755263896986956421700237567251829944532880026090255180575599048113747143990509489600151788015213249359936001319592649222653576272051449331520401528247712869803990749420388322126699590685829121203890957943324249084471117947929289114867880834130524428579239134051806724522874090776338
65 5 0.0075586714089487133297435531497665185820419745859506539139566748608067832106171668353122002769486889433562374498937838297817601508894344356486665162248512812854026973017217223567663903025151555166200734431275678136431084716960576851510954885099813490537648696825222679206137474784864606652019
65 6 -0.011753611091011533850051284254588772711285191286543754265868140533825035678449253159477105855698081568999722061115079857819890744727652787425939099677048606262269142758126795813488063149548732182433487310942441205717183692365691911511472737267273576097531603813803849108338499925403003908456
65 7 0.018414291882859917340016908488345444131737459267131559939514891389331140755978558969015049121163974847949341280142247170226288521063883636363190914073183729387577969967308958739532534760875702063166843527637099370579918103240977057318503196444641747919711874122676685685032868868412564475894
65 8 0.0077473274031675370627639899413191588459205879031327785378002713795212817233669768175129816010533260353383359200545317945512093837395457190047627262866215725393020015004198268348870621640326955034426012754409210347933824318464412135553972930827626853362147031458520168576647311675824887174008
65 9 -0.058432122969729024687323968482769680346076049132313082989813063595624283569186624138796074520431034176197454461985733365446736433336424624004312777157710337049308268714446620713484043911627538083419693587367279933815109155728244594275080459374599005939486553376861171955851117958164731591471
65 10 -0.046224579106848375801855884844917420459483384450982246845892048915007216974504576994237482161444795361291494062969181341073761368903805585313723236838255285964328155666704059323929541726351810223070303567435722543145595721544351903667740918781312701368624842925854464464359927102885680981172
66 1 0.0047142451540122635816176151642624390881932571022188343130163924064885105626667465031320119042640683931352799612104744243814620628680114310356999461001083762510008936627840230915457434836392080356348616069021213780849184509317551215025458712898909309161947457388117044983450376081928715726195
66 2 0.0065828512227571152302499681016715473922996551282697746577853606501226041327216969531997140377568303171897904421734538274456634571316811141028298653596842129028110200650485566211643940797304542345748303898307417298044305400054781046484454195541077149720245309417177230103758207324121782325137
66 3 0.015669618456527708375280878951928373918219931357838307768246660041487691848733798076553074807678996959767007584832923396916518249200195224515242898567445182732460043154914130356364190379938122740275532900684753172627687368017459094937384356057212457400047388073865020923900902138805103726417
66 4 -0.00072827889534005087711501336218822553006880763213887301235846981235051112481253771719214893433083565659784032534903090843845486907688072003944945467783581498775586683402306746600071772224406960606656988581524795497248109896424872162786497254321955065090978683575362278624236194432652910959368
66 5 0.0057241433321839485316971024530503384479802574784259171698843450061459897410708952430473815620616059344525047574819581809153830753561254801946000389755758916031440925876770076503603600679433697155588692213504654088373848339772530586949871495758539866581655374279924721525864538132449930753539
66 6 -0.00718484857831658199656279784220697118123672804263260549263255851672339426563248295433649468071554674989236869041876996938018767526532039189184263550340911481112077268517126057019057661470832495892211274317390032175475869166031260860203542003149347478336729486054686265075219665374720809827
66 7 0.011669178206454375452456929367155748520960182686110947214312090800326430417388415114041539911717419014126375524641686267832581576914263055030530750911548921658486468190142646867950503341637488642086916879478553798186201415718709108158719414155459407635119168488606504405796988721838549247258
66 8 0.0045065700618512787802096561966597546632552946158773591745623541646814140967265230324243008602415143195479343043375145622267875156135074070116196198577074844381874924222610920869748017232112754981765703632714103962756799792534812824500935725100021920106871580881818696299089489645117258831392
66 9 -0.037970784225998699389713322185839330729903930165755152386536802599661508386385540448231331287929671121151769586800117232338832211398515549778028940537900218899112238520970807215724569007193015935703583273607732708212148658682144772246181326310778207005799237167407568801513103778346678139117
66 10 -0.028854427433937838129911096847102797261317718659040870134328693424434592090342351233908009791747881490660972859671403443651853387787170604684050842537617240422353412755639118095191133600233737665073149383745848771945604593666501008214330230448442778641059246264840690375395585089967839674826
67 1 0.0086351194862036758237752055917964533641435732486120269689760976493117807046624666814465313902033238384815285241077107056953688370976753977913462721094633320399055054295703085494817280521355934726628647496735524265821981027875513442696667784797190092173904893571731067921440788130716744579369
67 2 0.01087849374795513446133185383746705761897303165874072491615044893746802555136712899267272484759713611479749504627631805834555868719880505565217206676858528755632417771048749393990885681104213955888433678859445348880903761471032232699546076606188005135475944471429901634432789212813200684035
67 3 0.030498945341128297927416492736737396040304670533378225733191621139034163042514648402886589186486933235616110670723766992061100857351720983959896080793288812902152493123470718625080089089563032419489593358900509316372446255335665604014370342115825822712742551698643659457783504682519744019384
67 4 0.001477555194229457182138897321604784917185394263675011278564485099046823046561343278865981444832594144351734113769409862818741962120568298893524489142761654883954719846725231388375910136880535279826320717933352020153197909240442205041862419899700158252340461567602838110999541572220572704688
67 5 0.0099984749716587284901204876178743180924579180775911318763595058298036526004536984599869390341299604981402482826091499737510087149949245493180948433680278396734551771762260460477861610815781410653890167266282332966770390572774738072468346946167173464474514970577682784543677214110256661781052
67 6 -0.0160265457181577517994655309879304918569400389631979870244171611125914176900271670191951690566382806181383615680369970522489910267338302445171040767412585436541590776077039313884286492678293751915145402025455330730109487659251196725326302571461593526379848490018558946513141400330950085553
67 7 0.025000669782483835986479326551983076352204593717466935520884865749853993728326246748533091086914753062093050874731547129258526917531966456643403854648417398906669387089479353527478588231186207112375273124781882712036789494863105765974650371716680060867309811778902130966481311152419278629106
67 8 0.010648794506398928409974934121849309254521336972957291503254650851383116783624313647153642293207983345529216303947477029791111501172104979418306064217508553303067380216850374097651684118074243927960383608348342851326605412378973279436350016951382098036613397922185385561196662566653532102318
67 9 -0.079119906061468980203384687462856715503490448956588534339723320526566157201870352096110480023482172763654522602670748750481852684537325137437998563734808439737712181950455267798747953858041035701171298696947505357437148768028072854134089486151362090714563307000869895918089624003188045239111
67 10 -0.062933166793307589273115354192274236308955327314706204376936735035467266825112536738137614542364603123596920771971484334358785804644222307683900872941121336775208184336754088560818746260121033341358070662664389641969390740374745241891495853978149842799966787877958208883944096456754175684406
68 1 -0.0069502833071274597053336164046103660401979743659401402166030679749297278887955800715522308086423092881265548726245995746625328975126263121146420350259862213024555721231970027879528598051579922900728034540232285111526609774679113420768274284799960408784687005723925321049826895207133806616726
68 2 -0.010528666794652155575128914473409480982580431618218686774465376729574978363438387163838353821358286867142487750528415891746898506292054268037923425337640970128089234219048645581697366328166097636866735164168052745010333995426924703751053174472139957177573845161065382098271888538855775860504
68 3 -0.021741563040083954097368276423367501450181115238388193201144338014027923414997595539147635449475043826971710074563934676311837097393325395847400542733433552393590166334746061689560848744689069857187784149215860617839916773294839381163984055486695616955073289921825953997198254543611263446992
68 4 0.0031275211736556891981711697006977329826874631180642495648791684359233222232792366855984673591021634048234288477578961508172719581426610165178451744335274955692364566382075418743924346829559776310902101531045106438386239110605078475381135909183420960265099945188127929962441045913624214980797
68 5 -0.0087766549491985280202923342039039784615574974905898356855361008805939290745492466244919609685220731845907716288384283429813759675852816372852152799019913115708588417174663516138116026093402594721648345083064870835456166835081145017655651812434693427721597838653272360319325060848173341677495
68 6 0.0084732929541837317424005240119620066793493881065259220605885298392925111158976190876935191117515881468098735036989006760057519317656450644863846108136174766290835360817831134465084556946682698812860901807117605406949350680760207312960470205385378599348669598145530262895128625595810797978843
68 7 -0.01451776992238140968992479048044416425893551483991161891259464248751968423896751751013506771785999700964593571522436578677823164723975828533381526557575584484561920478247283018129222864542820809713913850330761537960480798066892160892475310990967166101811960489578934609115857299901759402406
68 8 -0.0048752444677970709761023509609497212164938737279110501389396792294642722050002122772886712253535248914949448189528883637890588434546844712560313981401693661939879317248919312012633250157231164329167674259065340470630245512367497728593505939450150853710062186875402081718266823021156971399463
68 9 0.048865856584953295558349054079600218375827351101200252370890445640211585833344679567944936169125735346939542163363444172370332935684248042557340584275762228629958678685300349118433654225468181634602187667444667906147168134295738374293992137545133643851475333248844859407258873961182181758553
68 10 0.035073683631366314421628092278902056166754674907324572754928864045626706717311553433313119721028354686134068388756582180205395546943510505546432921112465491988135681267433431135288729109068144555350797046466645060060828886154641301475409866897307029043729569352448534803144393936182410644351
69 1 0.00339438189567940014069768530241963653145335365008557374764990579084045262150955324939256909881034058554879346533940926470153877752565776111950162013568014747450788958865640957583779657536493923584872881633012488653746497270917543181193954885834624610209541099394043229682710574328662895634
69 2 0.0045903137659884993459742112733500337759476041322153867208083269717375319125135443413533071780742373650580191565028674893520366993949570321678834874754758000086270220675996681689634594773771725805886983369307772720194849424022616891210921580994797080523383101332184652280892061737571765397424
69 3 0.011956703996224340085268083499770639740593605561926986215527846988715426357162537555050516626755204016324227211812686468828063896905980253839316253720965071232541285124629984492955828373060460511069018037793745566979045203439422139726410818615080355480796991053480894370116053823051514721262
69 4 0.00019399734121908800537329824937204150593713805809281336054616265073670282246190152430133173642026469768379895271561602783627001989815887067691830159740025710884353717761687734131193942487238222524884332505372861575716359473234026133088711478043377439455582527679983492953295026549161998928573
69 5 0.0040787988828375839935942336541386865377504764230863653402221012655345837817635460240116946607785246955615203591089961507657589966355327921813372722441398297716783828678291933361000341470730995827489646452463493399642759339919290629520266713151411233241573933227199605470669030603338457709142
69 6 -0.0059676657866644433287449369520944474210957867478952822546860852871195533621444945477575082257471116339166900570315016645877766775474868801711539793672132310026551141386294162245341171913449721139060386577280276494095495976869740367128434770977948264824940099741809181104351850704151186188113
69 7 0.0094553544991558552007848841438658135266348836237102503082724513957074407730364337559843228657490938227540233424844798568299963838394219531137463258868226245955100229921392070132090192184159017146378726503650160503663399016625155781670355049295601452416526462925677901092055604149800162841701
69 8 0.0039281104686816420230959693117503659159656822744271169246373417544225349396290299574602857405476755696653955711086003765255853569764625413184027423761945900388363287946003717746131148360875849095098113598366156251106905705805851928977425578737868016603591964126886979564902485565211851338942
69 9 -0.030316845013811211034694934587404282109981482174951313267026841562119777083251306749496141680771473968870458244500620530095551976801017748664929235224586890805119239921724933912176590825650685735436509696744749295610865948898377666948985018220585562737869222249395406696429669287640913063739
69 10 -0.023751098524540508081238790800392114014214464635529539262866763448870534963746769519571153034854366631930525949221251494901275592335299631785000466179048465965852230962657294986085914521395085042685855257151269266345948227946127592732889985937173949117938839805390893197163503166437481157406
70 1 -0.010357658413914999739189160046175154673729861639256650965670900163010596765209799891027247909014342996927097958364098864930913105983632535186511624449001078183298644049771020681115470493332547285747578476165052038215933327351621573250930743814502429529167104640688764998487045650383960760677
70 2 -0.013389593933433271923338941795628872367583935670967015672818159174032289912575441098350734601585278709516644692532674786949703282336276459277761519398047259816331088959335036246270441705310216051920419637189892743206352686054112369438972479642639199415429749404773751624647715918150027701923
70 3 -0.035853906074810276394820012929247791403868853479730854822814745890488469881058656766373225766806697845026845269486373486821162864468129124464537017660269602197978001595124723529110080362370430146471081894868649753309948269149645335080655142018658042045908784992167876497745499866239350866023
70 4 -0.0007887969751258580380525055402498882675189587470786559996353216934640695011864561688134560444770429309273462957716077477518254143030303503846922896756672777919068350690098770990118282704054991179546483341401431058874323416807572771123725624634390956609218264298356586839390598516023901311215
70 5 -0.0121250902480362390767552420888139406428577734871852826722004375787260514581177519467115402936414010233272411422707900599668611143658536651061300725546430708854329668132063390307629846294959660759681504865677072947446459690731783284973892974622845864099088535322358052314876591949476601858
70 6 0.018190325694891921975104640884959032288147611023498596171018977894188034866523645028203228622994794079160073987445827157292226261362602273645179771928702404169079622610912925473254334862072524543091268812873696847962550446260185891640507995553954638975341826621080993062395371807517219691349
70 7 -0.028658912648717983204847615940130462008111343863430947477304115564183807401363810820583056713619307392884809994708030060157150626295355354566403319432499639051842014723750298915470758227084888840677041148172283126229040490699146238782861913993875261009210347864138078582699084282931627617808
70 8 -0.011901575754526380774927500336330176362352321738487711899421728158983908462867491573389366319107359814952990115342708813753821162028834600463249838558435311069769732550702098999582940886468809567964612809336523504892395644872670527046533618489228228790087368248185588362992307199212488196441
70 9 0.091306191006859392898467943445404374078108357200189060257195921694838501966980827440181527868812879916083992683559368234832852313817535299254704744513019288747051489241043604176461074393640267496640613911722102572055415377419240014262526786377125884870102092734127525911066345749910366838856
70 10 0.071772358269971384445021047933583510037952781730013612860378988722106828476032693106075878261257526242713618133346636059752833280594514167705861896470434715925770581960582440639730651434931298000747444414044199017230292796689026942075802505414090611038411235201835425735177481243996912277391
71 1 -0.00062335861080232402891427058367531668820262835985942258111729147488845967442111788573522500557180235298866786357304588904057944329995245023166182674451473820951330761720383811588812100089183221159240103444661221848716190841565846653515628847588810471610342988092221813310156740241732083085731
71 2 -0.00089138278813349168583871756234838364405942332585869873319680070054846296363660200349898840570062559664485070488367225670582997929953961297272878594808206413795383589210726816482326163339155515704672538426394274660441332299770943624707204611228933552162525759027398522883212354398317301307596
71 3 -0.0022913101722527373836226144069263941608594871097647375553606902600548083664540219565343493889109309362518772656288257333325487473558217777344100471993036308837803522944406434818306827683346068667087987486609212777030803103197506298706013784020453103419424765502148880200357339106636610626047
71 4 -5.8319449388414335888776479527513724304708351010217722907875893144110922746577282427830969089168614931069563029338992940771056065597244693821787070765759865501806279664596935124242952326212639866298956359939891191391250158956099381234601099435022596957168545492872594934064802719921668504837e-05
71 5 -0.00077576020932894661605382040185441879120216367969826650094429546826808509593102326973759466678474602028154968313957894847417217446224251975209188565335543617992366131045475615089486572734481131218886457708312966581998675049352980126163031276253866310200073509084850124244695813735566391144061
71 6 0.00114446262230706950078790636005122421705263304997243368798154384781535236303539459643844958074300282536953312283087396226715969396239697228641326646083232308839386902817764434489450876846401779043382419139269808100798561372304239245609293655836938231601790880586124159571334280436445380507
71 7 -0.0018149123671790817096652296358462220396906972300917908615524404306563366505412918602891444202590471919671204093956408746768852091743694614336857607785632458934979350516270026883343680109170776525761792793773417132682480755863928661830748971265431653128090518793712112825405615216187910140823
71 8 -0.00076831093297628260302754623464414059944526621339615947372733888548434305461894622855007334313358221127779479165697901842831226704487446754384920647882291718997866154090138125562115294178274292402202087747931373116549339834068756290799703695378519507107744717673394863716264616478678807533925
71 9 0.0058463642866621995301706782381589859178513060172155513012037264752093011252637827043010982436092141747985041286737454691624023029996009689349950881614429047596820565046189264015137031515634163468223525828827043501586850833892494450770686670411630357456081629149143271286650780590051594474649
71 10 0.0045960297563484778679226588156306822867587333717540003101188598702264789994930355189847009878973349851999950831806926953082334280857593078776433901190275849154570165113946031089337258243387124578557139899280933113590710040831080947893925384025700125996568159108862139390932536887619918468801
72 1 0.0023285267897071682600207771454123273182585707923290047009303831404230050242732976202358052804068964486558985637572077876213832621214615771067094971978793458372569605158882771325969798833422509982157926016193472566327858113664017605297697866061908041335425132115371844950078953280913691452406
72 2 0.0026503615021345281759899313533467601722073911125298510493748502450215687990037130030792881857774577727472564052422843824525745762682239288532592998160874964491661693550580433830559756584306912758919673039327936804807380445203823322908597283743236429333177148947884602100880888278577000535339
72 3 0.0082750993431935053800876608007297733760835845190314956604887990779067377636445332797534054642203598450217193038652335346580039307999836355384446879324137782371470141747630388644739177998861658968745228973780458341748511785664815373399354753724503146778294178058634443580395460245223856472895
72 4 0.00076340105154023280658334678428100526190187803260015208293510022383902938375911451930504877766927078140794930533597938862144146542137824193970151231385434582723664598853186824396411314739779647084095566431840758563740596463602360704768673150517293288814693795065792659035762632555274188173578
72 5 0.0025640007190312114280283146930163345996883673340961151183345804562394150869024171203829127932778589775431582743682062463682728759640893429439737541841295935607578365460196671494592164165603902783613000950204197955430577059943246696470193825784921211920260907751884483234688450885736075848462
72 6 -0.0046375955549924371258689267566826375644088198238025013850361258215666890719085371144912617388702395553511670730256050326514420340474961865525533013140039178684683580298426404017786101172192344981243175894968541530842866171902228154543765191748824928685953640448666422764115854635439948299371
72 7 0.0071023161002913150912941245548695903386553053749407698201585367962698833849610014249679992369215068881606520563638031823610990922465987551594223386586844134775004251691442649882322024508976350511205255126116569523758118990661950734593376299929009599681191438816975484271553852760082965702564
72 8 0.0031204933720190442152864233645183278195027757524076885863292608906448673287009679715824724312784388067910945739422519547280603758815624435696484549312020840392411002660906006309221213373872610977639069988653822104228064840608774818421814792815949781949010612457963082284134214610380118726916
72 9 -0.022124090507678174222642506092703739561648535941289546997304683858666747758351380731200924530702832514886879401123089214401528724235779603799194990919723322615515235972906410676677062533575863781415510434183434476904724137194738383216557913743884628536459049068356089149457106538339468657196
72 10 -0.017935941858231328738194759535608905544222070555106572912674058258478558366599110114348652017316938006827529707535586099924368323833765274585063413836548808358506563187700677953710658078950248232038280059660043501398177483151523106248626437866287003653641498130514328216799173812235960088056
73 1 -0.0079263206925466064668357900015563969621349318966283654245720047320125502752658391998078055968889798639007552477848609369419555127946781770020398850813611290080654312092788516152707909169485450923574465000064286023706648077687930227149245092636919919269710555044340796005505826604229011519768
73 2 -0.0096255867023151264338332562349202631106265813970216353992647225911380510709296405013792074088831874479424074761974386804901077132147754400480737433261330080334351124232567817959026372719189422931107138807128981226344166196493388060322900687677290216225231886268562712619523710878502232875489
73 3 -0.028540638417365835036277647523404195610351718153971142604115486030291148498127041855357104220177560335880331371237891508467102897118709810864778141371776568888905224900271106643132619303493588415087221342401797530355151035856829425822079525321973659329441070782355886666837200337258635775687
73 4 -0.0022140721797326100276868094171541689609815904887682009569805468696557087560437906338667731695439236724748658011625247560288729024366518022279655407580103000768493923484843666011744740303460985362483787631898717642165127964383582101250464809694836668416397424201617964961584709366816253855947
73 5 -0.0090280818585613287303736353365846261262341485260226985871922646428344002218192199823417881274031811016516251129746928836300375342313605995309778436983934462664615214689887684467155899772701686992729666944483481672518490296722097213078059136463152292508418959268419566110596644959318491310519
73 6 0.015590267030661883711326437954244322739811950767263321444737728148690419119262935789623401622516047170601870011897542019775839689927659920649061370043901102998311909760816054033135035785283340915256451521683323787816848853059520495445439988395649839418858884231790758886849051706063755326291
73 7 -0.024057445407456655290584633369776573465541414024751386809810497499577302988701595223008261855456170749466317792663205718096640455076256419880305331079267480724746272312084632621230636433798708199884544291420870854583274182592357540260064186363490674766275793431031468445265729198383125238354
73 8 -0.010506063699416679711119610115230040391432937776716830514496804658444108788836420647692241634016770511138257026634035824759966956876753804164032377087738473450221329975123006781927302274355367760601328422379757264875204655878307152186899391051818055886340128834355088614348266049198898232592
73 9 0.07554055859270960339850804573180551886165714141430834237002102620998585640483641353795585271155921022357898934899154829621840330489093454166246605376867661933768805887001357459855869708412372207507430339587599496488031719189004942177160963249426689575950409067500951858173216421398574651806
73 10 0.060844028011680941140902893001310505211910738159894646643699517746609655021477126392037202778345088148931989687230382870354879365833057186231240244811590095103598712382289948222874132944223890269936423558544303131539069121588461737952621119597806535779900449284996615232053180421499251421518
74 1 0.0091536638548169036220688928959683330450168477333678892081330684383969120611060314098716455649796086775679863427428077951080914901970455632735161077744442001133606799589038937416450829886709511606841383436887308053824274815171483015703072476539586231688401494195770251777624957932303026628204
74 2 0.01230667952681302684356344068165984884535333159906265622448567707997521330522125059318400843215165017269162501355579255093603213259112140443155945163311344621406228524893260259129589234286117203354857949968920702045777646607385332886285912490459242708612312652301454001076080540510010568585
74 3 0.030821003525130507640119358885283358325815834396015218611891013973524150852491593428919038467065395105791297017178201800735622766919014702880185941233094300323686509218984704221969562625027243995598326904558484383906951755217824560293770443225443475806417209208769721917411847690221967428153
74 4 -0.00055168688252605230019872675418094142025129466378318767452489127729021193810905803593437367945150112714330989602965760560950092269330978056728999123125444459885611233863758249953657625218387005759008344339194999414290401503125411033767598871559131781384941442601048742719254939697324625787541
74 5 0.010906544456646074457132201406683197806439614505111700482929896960040097381398334025519321153643942549589793779882131576701525929378519940239690834100753894042610982823216716892845776611240203167291125755188843161617069929381530173185947468520743700513484918372670409496170265108725238619338
74 6 -0.014775216413062981898240116307351881024247155838190176673929727124503877110587189769108927622288269203848943249323519429392119559376842877226454258174805333409756602840083411218883784830688611593981762649959891796541782554634657465792633763116991199933054194938701417617762035183625276237825
74 7 0.023671176999699096223026322093910676866404782309901531095615099895855959339386984520399177246970505198740950298502620921050791581469789276075591265157289798443262293799967773089675405623665910270653098203940788068710159621952514215470195597753912518007313598696732787681657485023917766631357
74 8 0.0094296650840791195764821773581706504121208681209058893792188231965475977707328886407327919111172127829532143533049236378345110790080766358652380710272089791365821848533261753279495479612868909441739544269274186024659497909313994391951049626943775771984553341374915553120146091891636834055746
74 9 -0.076271756159619654980189784111639286793978228010546109354543187979888691375188652726391240547294054681929014557839370221017087597312669028500779579358538396274786438781431838342474654643431687662438655810399209998811384171813983698741540620505417689840598511489552884543905919130965833078135
74 10 -0.058817552742445146882960820713688785844673825226425626455127081456871854121841318430804786071901977828097541112252930298010853155454395053969471045389972842476486665645180398457752130907994411752291157771780988616862218544524522848553600967451938780183434143530806296658552745244870680178735
75 1 0.0041525174417800594897597435917977678664729625301451732189029137179334271704813714930966861305347663928010345819149947013542175877966111649543795505718020495680069515157620706500693701569265948683906973501609771038435264606303953261209315471600028184653662146531439270845659658361699172133504
75 2 0.0054504225113542445546204458303150389703767278572643292138357864048142450309197108274273835450978264939936660307676697221598863868197385411154201869753481547818570560867267391419833582139377120146900094964127179575069111314150874135372622097650105577862295763953786655383038124067358782707557
75 3 0.013837127047026535224621954364412431744570056904783799253378786041205883929871639205752546884402033092860604727709314717066013809833580025111092799423345605684622208291829194748876410731911714865074562474149841284252701605289753823543252221226098771160263038751599227783748965544917207721879
75 4 -0.00021626233209093961548479166394545675396324967570014415907050902091585360451968167422217357628343865701674298999745358363857481617068292796656317392459846555692743135049662261944722138930361910391981800887674300633666139109052901929479435764972064110160753536720839497658370976160474102349394
75 5 0.0048787332916680210751561828932223913254790993560940182417726542810535903262604735690552205480396231226190440550951507851068561651806201032131760022142401437083964947903202608205743807968067615235952277353325674775319561361493269959810980022720124657878029581888746551120513093162034317591835
75 6 -0.006687336091879088211622296531606883716022236528890574585141730588168894632164543835623963386587871148158590732439407078645433606149532640198521020944256830555385596445989926942246426676370981171224158177034940374478639389595371268020719647627703584786525133376171311996559881534600478817343
75 7 0.01068258547876875339745319927880375032248996091032323331595409980504203998971259799159891868567983113074442175873546401008707959650251501093108869287562545333109839753494703767321025990984109913728785812798193361438033800639790574042940066284487337921735007828239143245341216497522069742565
75 8 0.0042506329778041784508786030396005817696657285882775599929778704295938458228757727499753334411808462200122737617024938785125636907330651345849941690675989068824078171944697575068378127269493719027507873862387640077569311336647842060966489498504994179335315242415602020296311666242250657927034
75 9 -0.034303264173619449095392207139840997841639794958623660412151337768868216286804138375029760305768585937141025042475209971392296835950300428750756723273770991435698964325895772742630519647609771054478000037560578097778651102250999964624079781795887250793503713765263051506147064438207428459587
75 10 -0.026492709472489841439840074474483063657772655631507250787468554756914085431959581993736705385471471131314023206581588727023041412217132038643864451035305422433477553176863127540498087994064322927243049540448241081479888241254645745870141642678735855014655495146950926079629085635932746401893
76 1 -0.00050311994662165191792088732024519822521613294187976003817276643892278686238117117896358558979469058344685373716055515541857734472976929901982643289874014279505170298000010219722031679842301096705048875523729675552386694002313709601693540638498314952252121712574341656750365430164435899121944
76 2 0.00013633563254830470476685351243171321012068269312462165181892822952452654672060021858023016852018082058173864257294482026598452880741196064104177566151498002242607833907107963220883724369047210477639267115676716073218786302720824203408191807701431172712627885484002113161314057626340097438328
76 3 -0.0027523056780705324773606276691123695237485497432047490521418375612077746675949353988579057009203163531951981785776698100080533012486245059156758318725318614724956061534992553078754414181985720865859743772556191525060149636645647594118903623681472141492591036374026737052327349888763234903434
76 4 -0.0017632175590352731904087743173647365653775956091000684385718421545527019022867084085934234328695588985544831013472331540661158387364646296872755869598577911674291459035530707873276003022513714728011252494865953161150721834137233033462189298936648808561567893340127717256299530708117014640388
76 5 -0.00025568127075319538805699130652147357810611538235375705538807792439501532686789462062955109844009130119222960510930297868900233308206432232311167766847206202121205887578966557654297311875011376499152196322994738810035539455306998784855570966873689318332235549694419523708117067223098076232435
76 6 0.0026196786143789229617286312401005448092752866931199601007270537655536017494781867146518739806663959359003266605209403265810090447955145925700139039950694435875355246020146899500292185029358586956695607400070833799235561279819237861395233664522924948563182154983861564429712549084967149100016
76 7 -0.003566017095159014077623751766593026107304082187132853936281330482119068813041304233771917584151844887305744412759682726034408393831891439856672904656836298448715186387487222166117274124213938853196239657212193065952278811184703170805920220671794284161293500407602748088790602370168086075366
76 8 -0.0020178520073226962041793193807774872155336406075473245920725777285211138741174484592706956238107062905244659227620991198099586632601323919920718957295815752297598056000878261688147394945483407352709380249330691266061927580410981238377509216427600499865060995837093982367884120274887513168514
76 9 0.010081302402157361454835179010010802892168226643187519758602396505824096559494613047898501956956076419661122919126366801262967109206834794807614043385431945777144607592440245077293741075819538917123895796841185762626631920656262313689842206842983714887692906248733812762674758870497163694388
76 10 0.0095054818433580392005199657390226334551624353176181955066746036062403239720222028745648886647096845320800639644370614764784907727643441129365321156304255640008464648487732953881160627521237926398872475698182420479388091327377572913385924493705616385036903429076496647061999826700642391776454
77 1 0.0027411267722198310156145156977234523505483458103866574468783207422850332064093903791599478455552838955844003656859068711334252055532265128300831853020304760084657336944359730904979064938840589101576837792549953836792707261061800867411741892741246316905138177484724514252161911945574461493038
77 2 0.0037025937798905035134766521334535620816888256114889316001651182147518163578217394064634662731206626130108149341534772416319942911809114678974078055264314825347237280815923933847263066663716444556130342207161710204434893245942565448519028769908407887643900842793085267230659004419203072605453
77 3 0.0094279467820710621221016470623342304465429039974188958456523879722060335542094055774725000913928452866898581839375621680670572296519107606452559865525551248608381889614918120388674998369073595056405604698582263503824677898268062758519388597588466000701054176779034258604294846930889592663531
77 4 -2.3143582648959999447533460193091492454254497418754383875148037864701345221754182414701009947561679740670581018705576495125842924251851864636214579848399731597952191890948140415031885422362325361096450657387443916138229728341288753831770968297318054748145225757230563138696808138419363938876e-05
77 5 0.0032821504567120794000528850671566136904139654026745499347732442043381046725406329257562164176144922351745060141664661430126364368366929439454875706611506935273748126386514918628835096839708585699962068991967619872040907998140114284255250246877845885076310980255655551646683308360806071637013
77 6 -0.0046029744881252332151821252959127711457134635651565474182831880868477376442315445624652092364267394662943214383627348926340131799561836145827359677837803080867436753951703774020729165021321102622316408802543154614743572071504133798008419872896460176581686855355652610619282944771389496012983
77 7 0.0073370021209121708200042771466593502135718324236248551751160317857411114305278053491115996738931041248743332670968318966037081504575158913515144163749743120860574721152636174699911628298547528635132897313296435966182527210115276406228621651862548596334120847665743013243243455297047671572688
77 8 0.0029813775409421676317573713364964814675972407669506338345831783676465477543588439181697714015455190352015798859660137884735083513974272941601651290636045339548713013114266164838937536302825747104239998991930448777689131447753432122258765238308634385390961797910710746168156355955970103042615
77 9 -0.023591241529411166031740158849420345570119995710444180484870939284282582167930434657971165555492265318114702508169758671438368178712691326706571943145579202764632840441989862230590824774276075131771787631016583970043554062937890013054054886126038981501211321539888401141981296809726065847727
77 10 -0.018325580502521676833562961085698106289638306487799767331948987629002709031255274704077523513501407681346470487773400565833939219440543155102716484017608655579321395500824823945840436110136552973050026131337220426886776629421960019851468371166305838291127742815995456920301657819258195828232
78 1 -0.02036543661616411409490564126757722611258846694029773415156140271243824425516966125180600065176879227228145009276760087448156610694667140299222710075769757810323795283047418857410207792355274891867502713459599990483960550297142743889501507662135392095578323964089235259092720389414176953887
78 2 -0.026312144431459196832642837020622213445756462532375976997348107621082075105962174295051474924469067401276813526683985044321031012231921974745180618705136841319452243847948454149317535904823277245088885115409447722631774124366601430511293253285774038975878266056284504262241771055036823950906
78 3 -0.069880206833854228190856958020918706015638533978205166507138810295605994961839507376588324452308376989257231150260156600339337631442485825287346541342948137681862812290457294559181119450367586913353659097703209633717148093911758275542150341358924536577025401468798591391052387158773642278264
78 4 -0.0010640819965116916892659707007554150376426293712785497470484377196452438761873581141087735272776154666305242849146558131579833545061926693363226111284834353659925777037434843748287262800825280007816994014294449197090781452945771479166915893458234346296120530830881499075743737610666573347502
78 5 -0.023809367763323888699932835075572612985209576292977267480303186191443586006830900595815008467524849111575349955959712408761555833717938983531831497775485671194063709042272871045724350376022425636396621717241294626392220214641329204469527278800216185650489102719274103728029647762908344299361
78 6 0.03517214504316547116054742035392183194778305332846015040428682078853641705608537475524041498807962287889636640411824422110983167635215502851891026654660369059475124322449614921767556613668529491145872376167413036452895930497480664031415017077499228454622388709491270767056265634126726088649
78 7 -0.055534705994260784951230219059832000396548178080730881946389958162036795666011058045892643662071183998984702350968327747550839507736476030115292998776397310152657818398867222580827276883936064454615128696114935422792671140514181872134804452649862306389727258852148701129996845507965275343275
78 8 -0.02288177287017752193389096829654699907178418452580356927727668804694867130278427325373561979752444192209595379042626866950700260944777222736150804414382693187944130164455067848671458260509012827144340259117647114497586111574636967924898454038927748373481893795003790978268906507508396905962
78 9 0.17711021210889779765231528691952969018449364243649192669456991136634553925224609227360276078189156378113122497751494800165472648947125694138408661724002298224942108780260802584896433616894995451528194022611451031937534114191885767743543476612383735013210666590429172349561979833125832909536
78 10 0.13879602340023805209166881825053430774742517088408837029412271294556074034472743402420185634503061163634850239546411722903825217767939337760016059283960834719876113545986943014441492205984300775854512155254041165505949015026815967403374493031623178322571084023775100038063223987969281954896
79 1 -0.0084333729542126937144342587941697733481142600181366963631788216775633174817585087749523292153009876324242963627503433108936652820914990382848282492942706255457102668048638415450728628467696284806689035451123203561812307151447639289455747111979544117167723917676091172455297147000581106071916
79 2 -0.009987928411884101154733945132927927822334895651011412735300033645615866789868044777654209074124836735294625391503987364436866403425857047971103222066271664928665645464260875120593050705529542237033202018229658900639655230274651870017548985159029595095965423036167331279852944526903700689006
79 3 -0.030134480849985273314573281947701295680306541500914249897587953092806082131412952162275939366559700590735547265573867730551555563456056538119804190844126050940690428573948957591562732942681035966968146722974526587172964445788187842086939911320998860614483198481374468694653518671103834166461
79 4 -0.0024548164529964332208268275172514669731576936406300954431895536603078438202588769999496351938735006088195389225788402923962662528961124117505137436626122011487200438153967410397499614873499668573440688237066724705498167338771520441684198385447065089171112167012246694205681922099630799883502
79 5 -0.0094767804012359870844463912302585334048369640737695781912392637399796749148757608133376303780189213322858272429569114016419299160679375276320686678298236173714952932248081435218601700851230842664057864474354392641878294885341997394121177719240686169503447469639495259344017052424640476098435
79 6 0.016593774978709553896718637240347054247838026614364647705275702332730967008955615966230675801617706059273137732630178048971253494750774871681506776654006116674848620106838730533096734494184400008625896125106675843712640265728522575905054587364206372519612977029577759159785359928330486072675
79 7 -0.02554303473317800090897531717052257964922382591577368518112821436152046337476163968141981422441873425990580052824433621103341044610183614489599031956958986693370352949601070736291232316790756402081234469377347938076562191970296229491858965672006795001968780684557488499832819334343076901489
79 8 -0.011161098334867600386109352195790583053663136555945977838654379955543967325526714843360070534339963338660770858180062996099214743146130336212515930738033628388656054584530166806735736753501874180332521499679043960514870071182526215135925935503412541930174477911785900619612106670655826267468
79 9 0.079974271687955692387237194965038212200987276594381927530088807515555383966150719567448066632059093330180788670287221025488815041405099404564979936291777248276701074791655309008934444049629105989793074707217777171267970397207765779210073760000748338966018555760079304182386888926189158636892
79 10 0.064531649645564020427530349451950189761363993967395155838351642495488616221700810966618397137363267414162505996887576967036971246102199213246054112404969259658332637629448647519850289199000766932986299623267590147279727944172160385976070771995840301282207376302140329764757548923399449976774
80 1 -0.0038564916727262878040308571088261451115309062779344574872974070463823757805699258589314488998433175084968360702218805007401840065614974000250224110808248403975656850919832065645232583016698758626740645736661818892357006460727835442267153469554264403828987768015791907649348012180164688013856
80 2 -0.0054290661218697013850254061950254452530820035948461338295141665677564081695547990761916904021813114590371856267515694091603398250034093545699012190955764637203178908505331588633113996580419116600699005393845849105466673948922628668806174868102805903066755981526066622496619164421660496260789
80 3 -0.012686385142843514858568296344325204467102937544882110143172569285329783631116766113224589333262627214882867606366280284816050895408112399759132494797514514178181796625062241269712244802213005057936514938403028320774947862139106787144243793691049033741769082215720622222131220053049896809042
80 4 0.00075545922189161634128977745313947849509226597211138377208443408197174519410730783488836703413020342276972636713616190888675576800845862673239037178204078760610632607737257076618940483826759069268928820401018339327925554076735836994882250839972171331000107940216600473434098122876097011238288
80 5 -0.0046989201846030921923589470110231114491062906718470336723905502846801136169178672485174164025105420059315662527719850056568388304432258699896732218778340347548459819497637833019645160001129995995607798849961430517492658968148009905478750488619746708824282479547390495642749615952376491870593
80 6 0.0057010582011461035168984943275998083923028944502609404395885082597451239215900210786811098478791233136238042444510508389597404019287710732920717114481295920664541603477172608960258304112610699184701751425588848770578063558061455649058292840820082821851737006620246968530166254277667198969914
80 7 -0.0093183860221343527608002982906444993349462314503842027210833677076082112903366661678645958256158977430385375254281559200447687069728463626110260616109902432245832691154323430610616111050006243257922073420130767974836939551691882050297743664408520206370661173694437106332501656823469187643545
80 8 -0.0035388781819787362794161548454321256700321632163393429337226719500035877626125577519722862605944100035739010987687404837042269881723398859642984487965639055147126214425176955559917280591096643305322035643642354412782813676568553726009851101213624202717593633063609877596762925749447880046909
80 9 0.030441202713594950100554190370165005090940111276604051046519571081493239051598595146848215171440217436736008221119639850986875946812811476239524302270586329745165191955081277364104091492179117186599954646862526357700237940785056131041692841037334994420461090441040338204734139758591417281674
80 10 0.022969901592445300166815281159882226590212644613167413551407931448665639022272495160505455849271467586040692973289508855488371187958377808345963770226300494602115134038934750245186533036264205259408639082584025053969690058308297921172187904181304451464218581806483674284398203012996643221312
81 1 -0.0008912188951682708245949957228481245668950328313335678463661312169938653417384809009818122045022837792461698936486662767878798354413370913792326576037239083688453875982359341673731331165425416607660801297824925239447229318297836123465953758088999055003449375733149918661869056952637271802229
81 2 -0.0012562514638163001445129235638544033148892502273078428394552458580137285805680075786984254308194977430335941166669868795351458197778748932681550404411116294462844116645963313091480234416080215682817388986805450118740964470750331615647547065593265735624240616430994839673490924057555866082198
81 3 -0.0028075617435949165720405750955550522697126526435770080152937422700474011276992301787779722566062204712066591999372705768608856619340460292868032160071316156705754145858678612092018070675039664936164188895890412995387116783424738425369334093882678770739951612126515153547583067798450449244079
81 4 0.00027714388773794833546515663426924016188542609680838573672395733842235038161137709823530014768169036017160671629141324656384455309037143697858083453796777579860741714994692113047569726228742314871383644080232250780556357152562742383924259511375278975003507360390222660603160542290028588240149
81 5 -0.0010814418530456157839522784676842725300925845877184953419878567482260517877401925003912651191334398644997704402851332141555770480932009975529158015206697986686082284868780664863390879270243383755717705776538108826369685336901675753459022801662973923583346745540349168797220654676431453083082
81 6 0.0011960617599092681814250986553202832721504862605087216448962120784198916005880376062548150564895105182701674451878934529678918506766287545345019093746325307034457406834526616639851379435238216329502095694278337799452974855196039565302876051586405008505236695281584991476585349274912238795274
81 7 -0.001986692086270191516064295165723824622465665676051461449394928357381995336630194728342987243936144282373512250308902489212468879268529198777618613009064782601309736568558088986117574760484221985375412371098749112901872752830860564447640468792984730794029751325174943472757078706112223007672
81 8 -0.00071101348061348602565206125359758264274742418251601822994328260041285032191071744910991379309018498940159328719181581208782833126486198789596273619446452003266927417475344617327888290600870177427021977969207521092784293576282345426722691649059619886723126610184061629276488517121716651894825
81 9 0.0065406747786478355206899615103010897521608247320460900065092968063928438821186476933458579145837050441929268937325294640560393269551236364051656825707049995184349961010148701570833825800381952679600133145982821269727018913616544881948047132559158060947108578284344542873849091347142734205768
81 10 0.0048316228088870039658507631653438064056705133381737746809788908047204031770938801068270863215896638442652911879660358871507478259185485584068466939032402294209689174211748621116026103197986742410155987922429780050051184792408829881554155655296987334188038141956051076818366266118098164529554
82 1 0.0010124468132381960940856876613146989217946651992513494615250405016430117069687746431852128421867087281155469038220723460539450755015351629563427943798566176548107081483775868806655212088379570516806059198793029522777165239960766960028519584211376998302347458120222112438247557544025012830215
82 2 0.0015612530107723904988627677050220811933063685552819221910578601276950700902991108505478541908229948814416826686702828040804853481881783423797279242005810294380585959158678053216892027145952689820357371136986666560330240207346992075068033542997580961142534819640310045343838861442492626286602
82 3 0.0035725412621355157436095724679777730641624421107038131664390995350411352928121093781946954983454613325230684608415243866179014266688709535073315754455458781692818200824185171159885964004629438752034276301611920988053964135331338487053348494315839597702996140278748796806915801624611582491246
82 4 -0.00015725272736547688830806487022717610207326644697240020933956190788633359952424271755406446755774346328713902359101105516010160118508668369780524996380164934474725814883309573256619539627696224445427701247891561166751194729942349240801058010501376000868122349339003117427685661734301909444025
82 5 0.0013082899502638013033296909250697625473433431021901823623768169701014100667638789608935932297068982504383921453730069343539802938378407891969615791317560961495407015577012936076617995511724712481715378069852457043498673694139447219015931021394275395009429940170483450526623039954785763955436
82 6 -0.0016034086778304269070602107142895377002118112348489679518884519617302895839157134372240618506944538529344080798987795995862521020716917266764230166339782431561429475316090398823448748610603703901242550876061364981599162342615931230286195045044568016458519126310340928215320732995381223843838
82 7 0.00262843149957085642021293885706479026111804537392074727861458315760806344341397693605726980213211614998916807477835697611531230271700595234468266294149882736973024529381051857899772897520305905510944432037066594484698261894190579404658604082860540848942153922980673315314760045627438944067
82 8 0.0010366928433734443448605368943710660755566900968412099172489700239755601930520110889953772427355267905588004135482936836361945859336367437688260195329376253375367529511508709196613954306975870950598040526460516333563760718396287210434427126306138683288199044206280489739513841272825602679506
82 9 -0.0086666572888411479328075129015717403525828375722376092084864174774205007349500796474544652855847842777521368065683205725950234283490434191936495293911656278020450107744185395492075439420806631668112122400545253687334374630108131390123634917931374338123770350159008200944936171483316421229365
82 10 -0.0065813874643978171616512134765523814970898942008001386981666272453550649867543512058554402046421815345069817938968804618294764258519953807313837219124364517159355335218050814429789182242409176232043495180358270707205951084333110677004352113548315529348256145965392653617810598052989290786886
83 1 0.0067323080741125009982200652526676282922986484657978090189738964970316329275674958036733536068234984815164183914742499853870575480364605485281796949004597809027851689980719802950767372644143677241906262330714256333515832275088585875046768018622302132161877332803627895139443026963176812016982
83 2 0.010032845946057400607460734115797812768934367666400473256091229461654743423249747870530266912488661068120380941478918036804674651414999597217554003064088159688630493295299051781336960327626554891901468310009104123020234307417176051492006982114239060115723852395380656237189181380500339098935
83 3 0.021794093483784404204705684609776396901646476296757320250982388360906244902655013361316302970226274134095742873119373802896841694942415911408819765216428135179705947161833391857560214824351847685185909414573238824652099253620463269823499774732741873149691412014387688752137377877636983607615
83 4 -0.0022409323020596642557557191693627150097759233142396434342167704405906018346571330816336485257910095122199006858571739694248962956999080903245538759861319311800164248868848645913000079284541957784509862504972201906675917302314672750896496663050472637610669300783756189045390125834316323693983
83 5 0.0084522897591931088699912460259857305643376004844374144993595552791013744960755676387631936186427829819452534813449115437280305139472497750364700419336351381004405229859969975579086888791623640520469468598234172171388269135184933314261124518246195268622340906508067300679986228842452510137851
83 6 -0.0090847810127732728515329012960248027894108484415869311850816978467381563816639982964478586889242040322354328248822024160918849322741750596638824050986909351834087964707983420267924845499112202546518016275217358925079108818824021933020843648416222641182559958486428768271656687422227130969379
83 7 0.015220576514422428753360705981227349943607088573402618002836920135718781362307710579874030316371250688106240596118992968461414852324641922151038816477366253352143149715138870555090852405175678163536188458258027673109276471964063172649247722163605750657168682382262792881311980679513513850463
83 8 0.0054728242575896287795229198696206678602494849254223660175815326254761743599119356700965856960175488202701377658254342465292541920037482445485770014850082513197317422055299957867295786087425515110811739403079229632816103454428558038305849293400153419545159854229117101640892226217401198601586
83 9 -0.050590926205413269610601850053093888970485422949251971903455331060054885726300843081326499046249848923226641169344858988380853357307712169111556962647820374409601596296162113339636103488547846476523967971581978766856919751230703282065706618243235132991270340882658469012586500233642676077519
83 10 -0.037237153674744833037908584377902562462593870405528080968519768059883803591091935869485398268719544957296005479701419311148295088988744543838220728735123075215883960769276789435181678274808924238481320262032716444240857537009232506555996012197602005921881994433060270940788978700304232252514
84 1 -0.00018528805935938165520240768930144081504090894897014788025679312756077058025228004937531690233102586631117614630801761798230388995105316755450274204697832168926937451870211773012202595297149853533647620182103376286176358400510816637989408821630116675611507009844611600636198954880992951524667
84 2 -0.0017794100917691427223057182648545952563380815369695003454071120132729214830647703119831633161564954364021174039747445889505278977036879929909728841247591012692949759684891112495246238010695744495991123553405998660529617829559035955025556755426785005853806455785775640128394274119140204363745
84 3 0.0018347330750062238885508793961153625551385669349643133609752266893456694902167500325564799476969663701898391438814260186267565125693604945769960170995650654124154528833468087828333966268464740486888506514397637808322546709827146021070585238074358317331348173281059023802133187650442253623538
84 4 0.0037665385186358949688006674468072650695830145340478007562899132247448345067129565454463745973578991366504498409094956222718743953456894558895323357152703195681892169297442997270977489362088367291549554141727650066948079030690437876046232811111957931600930120626281281419190835171888616672151
84 5 -0.00084854353052562984918290737669934812408379236013742327605537941059877652003195969874705606719428745478572328969135721540909481946825428368168487426798183477591794045168019096518078282978048643345116199291418617256995990608256029317855370591643281377983695779110627044723796337395638170790661
84 6 -0.0035560428774107979833058552608473272105048997399839791415612974928392963039212089343847400962015446576061738643282749181966731126738867846887088055552038367090306735433793896620108543768231792374909477204948236878434484130451510628103102765228954608367179981339224204846332552380948200524867
84 7 0.0044065275730571707627168159099796271378437797022138185721300302311305683493303240988333929713429001635211393991821159089049365518799646879964092897021105057870936511756035040061683253154405559659931004803416967084537561722330963690287252605646061610993886503845523698054213165809795137303421
84 8 0.0030298068523302321327271137169069898969961276060090193621566588554267940173482585376511041515225698821969540220215100669583612646813928149983387361972396584195858704516829787224392457971185677371392625165887317774035235558731857111417810221879039814262970358176805953993143395948612761028757
84 9 -0.011387654871128529449059249798713323646516168010083604423938597728731291482858647252012643839944512236033388471196887999924397243659316491989966008411984546470534368653411670017826556339926793353130072997694142640590694074766187181749017726645918454152429226113293178110526604678407080980128
84 10 -0.012394606044241922456298392938402793813312440550189459588365517628837171239302741943740658284505292595686575351650760230167951001733803326223374839735733785771397631687856540840545610459913815807312165976372120511179300449589133343777760727633193300237732274367636290917002075700790380552957
85 1 0.0024791689451534608373246977063503338190354286397719297360705704034182918148531759865465247078986135301869468546472094787587946456418513953419751427664208505372102064596569006406247964046634870980022082520081681244110590270112136369910343845701621168308496331211177006675655834258983430545019
85 2 0.003197400161508856427113980330848388170876656407479322404305927238074149800385446270873794375534357436099742007326921779636828373254699101261390222321847108356718203598092944558882311111218795380237720556524073297544746634194834977444501149057250972479316814696182382371238698482464968792923
85 3 0.0081017531319656147518640694296304737646797914430618903040610766220174449521149303096954723190293282063002403108186831073262483494992515227073907974589104065211923525708239364776622664395782642368038077099124396399192583225719153148435979420294613399922864719525155233087738240368979859196687
85 4 -0.00019351569731992908435603565335478061178749056126605609057730355644848015165216418771573730844195651631563587391337586170937217718157201937244947530780452437231462500243243679756671167264258278461056754759085311767672798858427975314556424970402095511697773696183063290225620777104578581974932
85 5 0.0028790550797965305297462148343544491011223793263917947599049169366975600255535486817845120821523181210868845362823985916728311064723409510679597278434197437578045570218888874675914834855536194184835633608509676684078044059206714101647774090459799486951259657938959685404371849022721495920147
85 6 -0.0038921989580967688118806440298114967366914803285709922896649481996759385684763397360860471948502738550377229994645269851571572163223037327706459411819022231219924581827456543811480882024511350655756030659825757783612384100736624323049100487419984286269215804220439051994517568871822034408731
85 7 0.006224662308728567926791784520793310258283031314314809153393740714877705198381126306186605950790287639768386566397148402611921061386098431537853983552694144959665644494532323191824088040443179626313062927054136112083502397579621318110626872787180577306389389167361191975345826792669165380086
85 8 0.0024433878891109824224991671293580004741145102773438587946949832418238720062660772385321225184795219315223275906402838013187958555013446932899012718907835761027274974204964078423887565386935507852563328659734983381530541470513850566971204058251597189395150247821042582336613891123336773022514
85 9 -0.019968009666029536471189996462427028083715079015753521696022644443519766235258400709152074649445531693312706478201045297585989620032157827834898484223956639569753241160614720038702983743178685494331052575991003476541874451092534013685843253837667899828919759938219163579354369482681868274027
85 10 -0.015365678547079403929380317649734383287019367795753222044181456097509370426718570985741711085313415656640674093999661560553920207562862147282924680846295411463876173615485969190563081028462438205954272902750310323708800924310972853647037381908604180275568692828447171716145493073540988358021
86 1 0.010466831903491964257160066122337169510339323406303788337674316682153357925176467255558940310034041959412596820760032616297085838373375177593572614203005986710243591816553429397972975834054650770181394986052363817347253386177338700764595445197840998537092144620616850383518361735054473812824
86 2 0.014997615013926787771625890065876041375114599895207426030502795053011109352119178638850988033475570331444897829015500986989532500934351718941296372216172404729924828725076339353865528406236278501935725814818995614094515230507315007812960891860586068412364346167966969026334139865670337201654
86 3 0.033893023303199191990001750205545571762413808059815257024407781677915567591886927248813533979638514405098329052904976515813555721537093273081252255563476577566334070149766992628392841711165026324979920365385014275029018850133856363952429441951777673145044246719756868254106297132203766892392
86 4 -0.0027887734522597231079719191752362117372448753180114954498697051779042690464863407025661473793445628015786211937387634657515607242697391276436051815111478259638953020046973020200339596785162093621938804391265552804363589534746764777569874990122794684593615646868267837537949299985070862379391
86 5 0.012855680160414022702256283190595061197085766057878102279307797013482898908810777345153429651913922236786953065056368161419904847802422092161471533923949353793807432062190088133614080858459987867363659419109699391783841268369671090101741258378251086833091089868544830906954891171841174006761
86 6 -0.014701813786539846861725662019806518801047422281045512772236469685846632765269998126748299795674151086151577999787630009299546037829855108728140884130885801709789937905433703177147193859453604583798062099616654022041144745677408188289351413468148361589508144496716638701906894997899851482544
86 7 0.024299697050851639306740480094327351401251428684798945641522347494984989496842818973591861515201700552326099886104905366806518636391189046169939490035271776902828620460160806512497694921930415578974719616816512293808207029867201656828232114813859015673736643144748515394770995408165042917719
86 8 0.0089540494842225568026926373517296075176548533076946896649242114806079843998281259402030254359997121245517699946262718465516905134446511165784990150557198483135250044981810861753367432944878349967184466051641114603365670146464596947900164286516008040554986896302671066132373642804342163828715
86 9 -0.07994161228886953081997712375920094618958218863829456322808136496548428134795998802273096177666234319962664408562407068317386864535791802047209278939302355891392283754512311047212956178307734627388596491037612544305525475763364617758797627156565086406018009366452646678849118449470419408551
86 10 -0.05957123596422954486323848670708749148102511644332523781942328677277070024598731015345173690200726800319567085689756347946382299160561856773171022626093415881075550321741144925797916803754794614422555983921199981070896777700396349363258393034908992787410082392902518245233753930919091094503
87 1 -0.0094253191294935607149745270323820719835502769803970840659865963737556447330563635177893250761967699454788210029140083248500057865747676576907342942039057127142753755373700337157055707186107877958284882203503326202462723516109915170033375043098940192457134768327059674712689474186583226112014
87 2 -0.01190579683212717352873282754334450972464121246522182584413141535127347123857182301011976916549895707611240348908386358450769620970765254716718187006483489266398268944246735846562203449831010238913980374608461141234839594382367443325263308843477303973135752512660725215992588496598626137732
87 3 -0.033045772337725022569472267089082864948732353734917563765445922145365280153762640540916914448946069386859958002693496534202815510013575031464713066960090959319602424781432431653453145166770871662259265346490719146257424613957109657072122472688684440949162532490026974684878742686489697608437
87 4 -0.0013776877118716071052027069589184633014398484524871391169562026171326141622405528369857889823227829808476776789918226156487944232461973057833109672751604847400229789070809209105300862476641910382529475559794747392681436720702892254669696169408631572039940058094989382964254662108384135989158
87 5 -0.010918597431401086330747146705580475546749917657673584584733824997317280718341884651426629447171842056614757232224336872793425550464673664448331654076902907985836900184854582974743318374130776239644358965675382917581229541848297522425017941615628588633628754906366543713949315950566405186598
87 6 0.017225003487144478226090212937409943087993252550372251552448017202021336756137141380851155715468624845993583038472929022947074006834090369674676406336404321291255099492742546487466866279057312712855964411484349610956820242688187744525859493318963290175563369419059419528955247990362340133773
87 7 -0.026928981952848684428607067352366817852331507320982151415880404931555682378215543497678444987366643774677884597074227720700643185962725960948882457163121871828815296585244622142737511789118455899333724479528007861963883720822290374586896356337460706836929781058283628161662214852057742271161
87 8 -0.011391417915725490686947319747406982359754472303495471623193359025566113330272087485701781364223132048543286384345921599460358684665636036741378521774865210370568425004654292708070816300804719062138423417887691025761684922171809283334890207385105929205736590310870660374752402537294779500238
87 9 0.08532699963621952976089883657433684799454862756934002385839769247498159284064660702408410696222917300290604172227973123642112969741370255591441746731988734047517775354634087983781026116315275959863956996930384186704137799399760480110880889342201472461544933360025023003104741995991602675025
87 10 0.067673254526422376160330186698213090430432144401640292884590271157415570954384147938183164902389325981904056686634560007774526291619119583951999710642588206514753919381614813384849493590582940967713634055960808199190597212496219649280559152613722242908039181453164779366257995837905162283421
88 1 -0.0015835818608363626944154646717938863928118949431878318416615004766969248167532083353909316413361501486292113061662896083624158117180385615476657545125975330525574172022828715059432602891826775361425433052060026020669314998492931282369272632872209233757378579990365774881677517741451399229324
88 2 -0.0013886180798002839599637921123684514550118856713497860049128256063301133450660964743066864952914207046384844952786405250733987273891254855420348446589706902176497345575005559888806905388504522549857302706350964733132803682464684050261653779052275983625974303438482901570366681756420102881455
88 3 -0.0064420239955066776313775899588551357804634604981481351740005565491029686744899848730154708681030381690363181648572308735794750917556325038046608788990955393172708877755851209632659279646760469652858145504145895229528053192609896457193827038609701601236411301579821006932600955552161426949025
88 4 -0.0016580268250728160744451336554952206110441463106415142517472316991630958002702659130603845788845049941098236363734300393394037775518307044686368300477193916232319077848775241591341675201630661530068166177526233425136038169435674559042112944357388018345949088880826721272292670741925327439473
88 5 -0.0015792159492187565752790787584953096635781201306993641014797251659190066566702238127645854176082159617637216784078804082334529461307856513534410519602223032015088614123773906248898263233148283190342381120611396474447676858618909249192949926866404576102757438729314393868064972603241653419336
88 6 0.0043477505021428440127372328288341374131513881269101942272576932389549592795800374517437680171015133992537446829539198557444572026890809576027786626298645963292319749018656474984777019134783388891426133497358504059058113715719788871194185459115860880366254986968081198112739717231316159909482
88 7 -0.0063558850487541621118643297814720127472472945435515515766421763713561976680301681030825932850647380849803317476971356828178755133490342787772420739926743352848577972222961854759915827226173703483415937758078622166055646167959997360183056820547317753802871927155230482836928140868215797364892
88 8 -0.0031233550343148445873099713242334282357478235667248122329243283508363837928810097491924263665151280513369873031186081403698695488168339674809593986147183439814968338710433632563413153895388598629425628759009379727209005148659656289886804182159131636249004131643653739867255572206247081094089
88 9 0.019140558683101093639611337189889946885293673491814521325387066981149145374654773670673683535451547094383920573249205886094858330644795192073976511254666729030225337289252672607540379663921685524612101966531915948767630054623569433459902371170632449886805787884880994128949041389006506523685
88 10 0.016451149376249655747749936072424194697487685162532105449609900757350995658398218254795823875141569071775075161089388217239285158353343346714375265511049614293920566924590369273373608810915969612195058514620440886164197158913459455515497883474339596166781677246975627548486668005590641915027
89 1 0.0029086781337968838602848390676712151766242649212915346401493223321932898853055099955382096607675940663704896702691841002549705360642743369885053135034089251440012402696288493680688647866284381778544823536081645623420016102386802266819139685322188549604819782443664397358164637966378301896689
89 2 0.0041299467885042943744712780065024450622032127215926035234007641755560071206686908736563523097423993804382897446576208505393377367643613755482716294410234642342363822514963243116769417269506108813841844271042471934158810774777734666539553529563183212569925033928560167082667433420273782577885
89 3 0.0091057654818030384957181990488009663797203887633506218232658678730435281326964370585251320884935285318367167502626850395903145819954523391001689499094218006733196596762105479436750487598290368972468359854163156745000102771081926260076781180954558508974084973734813493491745101869630374140429
89 4 -0.0009874439681452134751784084731215390948405252734739216912616121995537340935317992094602530514680793169247204342232508473935923135650117315200847668032179543351807692473170527979650122370019648590605055508149561567112823100975820459217339380976470904634470990670964223922421757139142797398763
89 5 0.0035422341476133183015891815266067529235162664503261091061280516849117989118283475792620951869946938383361849544350816463348369609363031663746567417498516479315114217925089766284587497220399502547999423754160551483211031930566045632239208198778421835590494334376798751906606947871630113306064
89 6 -0.0038125568883108497394708418695368642205810513687457984350687270908952635109353055328719184644470135421577908366756545184612454688337769902474175592899009258481450421740915535772618370277844489658978542440729869384140657791532688525800120254663226278171591977734788787091798564487255045482505
89 7 0.0063703482539097816341926768579689005299016852359561996935367616855451805151296896439287065455276235763340110472710439406220679206510193378011688252470619295938198188835032136490170049741416835820344008779353067590328186134837809228199133253266078961443641503993033900640348592489416410661342
89 8 0.0022466534291087270195443732421642198961609374938402124142144431530330345034747098007616117205332682680442604536513824057300805422748931205185773568414330312005671961796359994396795965948697401860854773577618371362626416920915151672301465779677582861371171574181946229813443804337200959294459
89 9 -0.021051011511274284439963286304565395785287708193008205954228470963384028353460357575684768054046901421250051182024975114490476206976706058491490562605431728371116109127110285902344154931966230419037175664598104400657863221383371008913794795634516526338602647741454544219588768161089253796831
89 10 -0.015457401067389161235984916881976393120240497263774247395731349171807992101443227039624995737770147972445088343830048933023629269034562299517839798311185998828963478475674916526527679343682468270117329066694385262588091650258979323316026919658828970918949652686965346485381854549751330027881
90 1 -0.0089381027534483378594655317442642942708065072246600853995723016804600685590283219417331578030144007093036778749645190383821698026116953706694485579526161329696454024091976306635238420827451095765253552711900819841617940119632441246920765750104101491848863501036011335954562874352099967759957
90 2 -0.012460223418923530693718588410278007621999003286248614796480730476205148924291801952930957504298789148796036236434852791105846505612407800440934090570023918937641829959501188723855145981421565507244121645073874957024177853013588337450027523206290322165090296215551511557177151745520425276086
90 3 -0.029345064117296658031983033186509762253420276302281909652141028574313757712773465834532532608852259905635751932275579845660682669292883707009893460767805327176063140862154551343193370094742018056881444392107861400478411962165011288681360219802400541795512367542144616299843050616562925360121
90 4 0.0016565694088705144685816797177815359719614518583768546316919574218966706705725612584466225569351885868458604188716371007868639342198080179301167529177462968918308739679178539460104242712399460931393759820189505379151706254143171755986629976998168825069940315338011037790260524483781823264393
90 5 -0.010829534726876077172993883889553514206713736375112997693200498293729591221861022455592213661454992575754833895609563655997346123153978990311566984718363013159987995884937609478086895554905625111566979054769464548732519772062317512759115277321889587218069239595679989660589803728971899738124
90 6 0.013276471635513126938996273847037538488419744666345467364476520907672006112539776760915296682570051439926543121454975386315130692010175550026986809519186274303004698159815496587397706849847812141399178757247170181681410155061479332556991938409352297864157326103323426763747602232007508902188
90 7 -0.021650120333531801890200041496862530480587185008884699726810115961708547244720212748045739884086277352118131200052892088271255277230696268334555461164876746750796510250149923754563633049565720788588613516796886368647615750922816886851647963926210306916845067883824799776567722871942873660107
90 8 -0.0082434692300348891292449244374717581972123772569142739300647102045925494886151784357684497031110679511989461444919510648083573735893766062981481832477288041953502738449044301978724118049493003496315564844969823734422707165724977546731365729014522061186939739268120021143953606049961122161022
90 9 0.070582244687914489545694359984367024488923775289765598302565961624255651779695511280394227144729564334742951570564407307205701517082625696135236636603284311485166554357062500658189296621252103738489870733199803575206332509850064618129778088189608977988601987171194155733475103465144599013629
90 10 0.05335697675275013855004568491631547094056411100924579872741879000787653912535628935811313709937271589480918210715801534681558749127202593451798995438324107162780544329830452276550417535872039046050952068104212406351997848528850709869787133131606520882568323990086481746563165062173101784084
91 1 -0.00040290509098753311534438302522929929452702057598737103485621598510481608255122630270111445866163615477198216580943019218901045103552973732383673073963709400689863249515565162063874659175251708625715998691285162307982867945149691277876982409402583830839015172182510254192753942892135122069418
91 2 -0.00085828977001495594761757398529986574419606112300151255535745985455498799192634749708915475071867683042961200609341902228898691186317753048759378584809980072490225394803496872036904834526999060419550901742801649453297396004095753156296781646704709410502002332735863711495312303921267944131554
91 3 -0.00021745700120395639245205346988043874964445078192314573926000940234591781705816375543545599819057994972441074790985123060302979722811169740019194129385702983199801480882425327097011738793352225438330032638032494369702400408246145639742970835678079766417762133529250533319281568323954772486021
91 4 0.0013160973342739926411295877355603693632925838101076818879648566810829599341403321730062519861211549510395673084347132040948183516393190877141870666531077229477735835740864476292175227642886087709696473048101008306876734456356129062580879027538962361377380724279103458752187670521617590076259
91 5 -0.00058488678867603042297984107511594980571940121701835772675706116693051502632254766586733583102910700992090958612437281238907976316058040160646870187412893945688652009178498285057680906443552474196960779881894542640576447902185927191641083548822914183591992221039965312141230361281646359733182
91 6 -0.00076806113322978254320831165645799445110982445485934810759010819926967175188950661145718885623601428173908518428528152433421994160537907157047708598734093188861380850707220361844999448880749935375778158899350396779800368028577157618621192377549138406862197931200767849165527643929795444343247
91 7 0.00081739712152152143938523106344466619631578819499019126355187241987939343636831829826385026502175034886360537506432826919744533398117475931679183980028349657775154353088846217956982450711926726020746989153238539218918796434487764308737409826929665521092394271407119636422256261069497528613125
91 8 0.00079301689037761570660918015951819488678447325747433682088544280609652519725792227695213885672175901237081216742611644534898282639068992727144964607676700657961970570803903136022513542049352206321437233450044163250490244324066667270842217605125788335432929296336695593425969543039104045085602
91 9 -0.0018213655065130216333188783861810304731219796225644521260307349917617250381490526794784314579696801808783291409162881218502112112545354805582857599893041342843812827788870920157557314408197165602148806665529017390889565439571069427727629699858730924737525030200753229375414313540000421642925
91 10 -0.0026383956023921946939716423528758110685198150377248663129940123412586876329616051203768184625117101231167819693651428039952605637920289115578894223350576917824925860166143619264069036367403911113031028150007711344409991814169204501543965268340872172425451999658631975582698781784905978174592
92 1 0.0088590791211552747106410465175796915006182382364787283309555721784064513961551221641203072893566704258735815419796402749454189508095010200750718040379797203162967222785359174744762865076604761716720488286873096949791560885814207971147549356544190651901999839524265893788922734983427530344336
92 2 0.011582586363034849596317599004400232780309286305728392655885628040348363951997401714957136119443550439505732908189650018036006779261012083304762768864948408093766654078564289985035449088665200856462828705676452032234553972375804639614464578452517442617320228568424987589855856479857859235195
92 3 0.030236060111319259836898724785262050810058372633757406987789434010111917470831808512078701058485810296666641794651688227302044102102252266971308048780430635307195502899936740194810010223345916885292884950864399804515525470175712626705264527095681951568369799984074883076915807831746751263698
92 4 0.00017270992560029591883567652184331861567294770864289971005221352858591931870775035832400804690301719739982490277989309283149441091062263297060614568981357849158216894560324045898677333785576095966669204043520541196102441299591329613171135808454615080944886784059578097551300128901811210703585
92 5 0.01041634752199327845809012986468735948020699839494483968063153337398548995633108395131256482934678991091728716495580808627451721740481457610765474872330462852155305925714263063115752268885261265715081140762429430922323330660103775486300907825533797190100827913372858076518026058523605471511
92 6 -0.015006890263169959506225857668845685808593006818654058390816656295985254939202048467474303996556215909812880616730418918695006552594008038730693642433828417902577166484308818885882314514532096493078733112311462490033226789832936078680211087040302924664675384197802696207177819783365611773317
92 7 0.023794253260292856981712052260440074040381739697499729475953326410515382871789589049249150953067561058533308027940946743876331314168796697289770643449653645256431734046232294969580687294851920192410461149007775331791244709386855690719223020122705562014722797836018549782721439888825624231196
92 8 0.0097129679043407200617799374188618917765844891690355588104025142647521013759282155001125193664755472211041832673825374526470196744452171093181712316230335820196765750315477489776508432308588579385579322371154047257292992043190063098147980255168183133291978189338675184707082434487552876496085
92 9 -0.07611145677101401261654705617906581052959355644484144017973966180027257044631978592424638609667050921813409975810168783938211800865201658092075031389468239973152932952410937727431815910542641062028484362062232353427869211476648978572688354293652275959915216752700087546176127769162957213852
92 10 -0.059374937565106018708551587554066162587039838358456061778165279077350515706815068667888865330456315121946973171418671240182500078368617636387452267183141667941769327571940757494037362312423899017517441428500021770051656254101370141179678070353862828465563173737860826237186479822911504606736
93 1 -0.0033410786562573396081372167281985245400574486991320307723506599407643250297632419142717752749027512010511564621586062898744824994046191420751751321889367521501140378477982007825478820108362742790883209993141270482371474752588596723403341035690451343725697070330578495015773078309745494299927
93 2 -0.0047673994947308913786637953956901966756134845800264459669768376587158105085877774740478086744697751776882948014038950548895675383333206031039407214358970945037666073909263941071795841511307920436138198069686375665972359238117562978318595598437951258783784547811474620354597906500782113609637
93 3 -0.011353527217392697932337915824595803477900145608380165701757998797507012672745600563631632084607955624486120657660916895886740507978697331685570656141995141049546931969440334815989804533826300179706349040267723331577419875951406887202562482319294512331815988701892962937581624073384533900994
93 4 0.00043040676779627155434890653476455712298912685159565597863239197497339979213038892683442919794135052338469917429594722342565218935529539478904272257122282732260438424497082269359025137802727582659581736460352785860530890131682187324149934558791935561369980576861253968314878212939763434653587
93 5 -0.0041152735481361486835692441480200797521471218707853984797137382977529185502579225952070029847665834181356032982274818720469803320969763560085529117122056105883956177360249460224526559265030767724814359180684205979631069782416945022302905235617451396383212916087732673878340684934310032120805
93 6 0.005239435867725317926471793946789160003647735613450915027198398393562327391490486824110440859335106450994073187116126478306695766032960508773859136517396283644059048133691723083720936323097360230701538276778537056765048168613294090635041363421040909732294983561340067476313779280305640749349
93 7 -0.0084979331686308601209453272273188376182164148255770680510834973515303534004111597731290117469082350756717317998504501869064599957376014088057405388723372476274561347282904082571326037459877993244506346924977489763389142596877186156828155873795449109512136071019219634742514169654051169002343
93 8 -0.0033326739499537887469497192483874500431731730876766363789931375858501073772201704189360452934840694002139334381125896652518126003576724566932738172463881894255128436892210347827704489396103991822803202551365393095469484370104980588545913780021369840852279613188073475868364819338373233669691
93 9 0.027683151033262034584422104721063942751113527595899574295719075129003170406289757186370877167918964823198879428681452121137713769545347763925283246470005926539575362895840326004086574118589469459260581842883344163959467921614840783912246342031232524200204075930522914532208711176887690263847
93 10 0.021121300104414649818987595478953077187355381523747027665668074236455717306514964406701601281221176007864688571417383607473293493277608304494070662735270490427053806200889530902490389933045845446077630750443196682090097488747880231794201463774253835691365265043308525793815784281429120832879
94 1 -0.014106210102645814319441483855808749113132450923194856611494346141395509907644406850934892582718840709736341661830025584413959791841393359635706864994033740497116110111618002380171272661948826681352995400312207273035003764598255216318614833668020723070494611360382664385687780868864257798195
94 2 -0.017045986198908485742758555965449602377707424099784082838936440410506628459062551274887973848917030473751128720205797472730600754353255127951997484378461125213753833425023240739410687822240051187966993895901236629668341495757364521885977639626910784413588819118928840846616445702733520888776
94 3 -0.05020628979886107576115410607487495996536402641785846173194883783409007400996116431218017968560781287871102277273368115855475624908357120270955113724246014972909901637515197748953778165854384750611111284142139334006794837879013794304243805573720804502606748534588130470828840697650945081331
94 4 -0.0035570601162768911403170709084433930774182410928642324779213796826115097145843140640777924942958846711392604813529004931042862081957700285779684139246020618393722750567701359182260022058947141179572624587136203954542315519572671844711008490392193085215202024191036978263798449104838142366861
94 5 -0.016003992161970208912850027587662976424575441210958332980027914833125889870149934186067843443727157338482173543451216004053473225103519148262870104753585076127310137014311783762248832908511287704495330661177461039802972101165747226244060016065249654609470456387876234012366638526815025908759
94 6 0.02724500768218801340707692246181846842289609936110836460316885763615928151928569198317069374427829926069013585071320839060320041913471057242556635394214019905386311989345437620207438643297573453823270786205432318383797899515624593288105741655937520812736573918564276518014794747676546529882
94 7 -0.042110145169121825335327505195058219625553018386386937016732405027879776145731537802227667583213525053691847161486986849911278567860681508719316551265744432708395648758623161030917848138367285552031090241929686432467902883260758844613380774468427871175932400325119513032180413329592699577562
94 8 -0.018253518184899375536326497173817613483409398058220276850037275273011794027451816055077499143589776713316530885152771202228585778151291291380196839804060032804847776630316076499929422018293651852512625416874388412169692680613076498748781223634795276489750682283508235770625077096569944450764
94 9 0.13228119758223833822573576825272636586361094416023904849865076073304661101571957505707502320858835786174811191323351607425238605974139267289426717915464273756114457041044263634924521464865055985551167339940295575526488494848372097385490617655909370486649416131721276397948848376745750753757
94 10 0.10626006693974328675173330749945851302641419268784472437972581061673397719448507255809707507142541095780128686231010353264145901576248088898993691531967348661576429619502331808626677004664026504850865674936498854975382913637259370535225029030178550771274683265382894729845096994521856936386
95 1 -0.0059727276667201722037941784005125749641745702252777708588881761195525415972981647695601468099972173314686329417370296088472313826010132993062969718321393099499896610662096877248579765417975592967214046260130812200743694063233889601465337426189280496159976566203251586139950612265130846386309
95 2 -0.0074149657336194690252464145170016167635708682452843913148772383331926695327639868070470963630493681321301835423366471962169947538348161711316301821527880029400284910228180065433147898615531835238016887238183834343669773790301898750485130452474608522439139070331957568743855189305660046393165
95 3 -0.020839930418576925304772475765952046882169148915692547347019590573312393507009236540884780804459459637662166336227736072698381823831103575661638889919066085071352041371679568402287612757117700315624866952129951334229739974997658873738553323524617467762198952365007287464899963300005510849855
95 4 -0.00093846728856781145601404611345966326123908536291772906974417182125718471230887932683657954540647009739310545081776637440392964795657386718962343315995760322172639433168318895455945471320479422059359308348844549684048595097274870099026863621867172763486034805721858346187017264356633419853588
95 5 -0.0068536396093639853796866373353480043078814404222530439171611254404311790224813052534628585985107294704563652741270804852391765012032856447019781880574830367874708171070520016394565689271404050389984626505904259926693730591229966351880177432067763902051248935389516541244186149392547239937921
95 6 0.010936691725132675640771862865715898891839566827099923829520078235363602993975591160740804231498334664424137067211926796208318230641778619548502017153717846912772930597238079821268925518832048120222045544534816417921523946514958394675501461149231353554872232883083611495215638042973580560253
95 7 -0.01706177214489831688448591310323344525129702367122245174774966491377716296688014321883341225968941912191871324911213798634144483113261156241256662552686294082295347898639790137172125975107469860785636102880809468878511058918253402238126743860720515098306047423244612040851709316016680953298
95 8 -0.007225470343123875721253525103235269753975922663350738662979570786874958269046522499909693120437407237587592831783098941005805397246438761957452870435299179156121593486610109673319305014790066257468597459410942044926139235492721406545930275309022249396709362583694444411974927245588408157216
95 9 0.053938288682936688946818533283174398887450694269251909133467016338082143064638746742368270662167571482806245959174718856161529524936472673863155435221922000175307245511976218551709429278528590553283449738525577023006110678352568922043802201397871770015025285904241296911890897325812281434854
95 10 0.042848513296469072304876128333892369920571389351032220875167283675086645851490693454842866186746755333950362693785379793274089820617607848111125060043712431553673326687633865709083515952719130811629634103297073708350993264676651616349237816930724491853223316393554871307786278945669304646249
96 1 -0.0025041545913328576877298044749619109305218566382653107561206900574698889113977938104442989701051417706357457968077142788310903607660006296025753170730928079104140234048941113862152675902109433152907443064406282252488148278595996476652797956474063667235464444864881873171571257147684750193401
96 2 -0.0030230229750467310199772778891405432648055593884568331379330634783944243488436297223903269688088756567624896158424749901929574723708157903325294762624833694145577757903903520626403811028871267212086758870899500681176332017347588345007808878145248080914962475770174389030674142347246289646259
96 3 -0.0085616458615993438810221117218649455229730733235682409408467417982304158632851770850793843730144579537170943960138256548079228286848225296902853941906121788387442468068972052262798700303858563450376259821306942654200196562322824235816181811439052906616051569924410812583071539597320029625986
96 4 -0.00034773482603960908055075504873550536277117962757293882945079803629628182256640860078331403675437802006875965034935984760367020553687515642536027543287057465111939678384324680227850134467201374159876713145042998616290129088253012152326583396051945718176105342543049616174136041169567484961757
96 5 -0.0028259273904369592725382266266681830340350002801818698781566457257671511920856781633610007407308120926387079923119649369244963832782694685962649134847103884097961187377865715697947872020588841675626103475674376090510979574913938085854134012017069705910622585906668272561779930894298205494365
96 6 0.0044921535860971674270946356746279316246759895201446380623882529684638102810099345021842095039870592469897359303481438807943150552887032251971351778693555568366889699820122323280165856311214380010567035461413320748672764251556553094408024369116496505728013867335298757652350318069523220838545
96 7 -0.0070048081839754571495747082923508736081613183007479406263029926215847917247250573755392386751140103966929929863515777336586885691149063560581508004548211963605172008015568624895498807883787810203336336980363385759134736518900908164699475406139603194430421078497982134177555777213159364645127
96 8 -0.0029402396463137085422275169419738284996980742032793516300360535138280247997727891645728404316259366880009070474961123591377079038210009337452619225127956882304667411475051973725455189934724112830639953725900017483884243142015989545654683924443069216800522230919046267539692843563754761123253
96 9 0.02209371203998978390421179170364649406694785479488886540292228165074455802037367026485653174139835898187841074076768029519556555494574684650156390232975218287455911632121722723084144480813957628952384556429613143758057848756227727525978232882486096744020892549306487030425141383040574558894
96 10 0.017523503562091028012564005431988962844083761989743978104543204233372719523199528571407722040426931720790905178534706289847686102259444287610885762110610329592868914822416417543710085610137047421834767496140695583401799708114017296672306879237605373857378126155462928169702998454413279252777
97 1 -0.0064197832973406126830607053297320248172211792853271587290804736961688710839761691435441252241143159852127342373742759421182657955293373717334633934265458160026973938096581222157672208005397907915156521612100892995886148797453397975970172602912737581101097864447333965127570227525271102029998
97 2 -0.0075376110580391816615390118152540433571237116497856836544006608053059201946760361323840256921615088098576245377409601334243056978867623302448993203819045304518351709050255201844912853022287307290389078083088455032389855033447228643094248933432371610524991184484153027103233180959979574917003
97 3 -0.023191216118363560181519808663230615230175943316242559300824728750535255924051531858034053658233654257068140197052971757664019574465025305281408532771745207245125509107116971101013306140374274969588510320225162002820434220354303722749008636605885167953342549937565320900323708779810733379015
97 4 -0.0021510562167424858544956281973216572063284258010883472365167545218666761840866672067738839226090083442166653767671836758068345990966674385631609525773885297245344485439783363995658758037509460956718883136994401118132200035173008722693635750893492351511115592586618696427120710932834875226998
97 5 -0.0071919754291237533383501761182290639850483195071160102435180401869727150220182304317200833637479004717128035571531879473213479619602150867272377718221446045716652851016362824037441394293916827429966775653546986407252848859395647898919790823834765911312580713450431795258840477297348815405577
97 6 0.01294730649509149972692077172172860915146063337808623222341944040916776508715582331382647054988551698964076930836849881678383396643858485329953734000446819020617634388498480185640305277166602059188336359209986616068141400902738173373440499428808007619890595337482691655980970888583749401457
97 7 -0.019855752416737042507786965362495991707803128799979607407065595974399021384483544231093510213159078567622728256463442786402400681297504724843950091363290002433636485410897913539738307345038453877469833226184465170813654140484658164900159907636824837605357017330597015693362482509319755471748
97 8 -0.008762733351389330759291250455218889515850584121913871990043030885586724910915261655357103448250232642351699599500238826783982894697424018144315070979917879595492768384846827157314997730399723458495582877044063127275607091626012333958052759701181753939362008776206981552191843908304061330096
97 9 0.062020826441970861304280964794526465526947054217698861542887747985036787851802852182803264057335765853302271587793333404797341745531570416085129330718168811584085426779645371344604073977831002117187499528011232380465264073362000966079585863513990449882808543741823961126468198198790982002034
97 10 0.050277121085366709122841026439780349267417246038543766699128269099504932132543318215638408696992956537967263510966756975630226118269782966934469902941946958721866944410180683574554852660035409550684411445750399158485448652364703511601815575514629351479032131891977951400471420364232023369367
98 1 -0.00081274906598404010657626664781234572017997244623984017947153154147673534972162255691999055984730418050476077560461627945619881310504048430601129860846660685224504497186788784859226320788728530173946554705125419766643623638648294354315448696067539256609650540590815316348636153606600810225648
98 2 -0.001690833174763362832778454290379705476779285048869812742020510393781903532038778232452147261350226399832169296071038540147426396370081202335955363728441044622065746387408775173250284880871625980553868764750922895870159774147875522019921108540678048737955435375485059239439618107833288339622
98 3 -0.0013938169126390491320403616547701571594443794820497100718392782436558312702809517994442433639783189447580583288095754036898326050018277443126033279845223238004841715584686266117912445483645723589317313492271341213002309276672564837103183019266376971476212358176161230126370209889248014034454
98 4 0.0018276209618849178022658176551486257545180184731355153199308587131578210414249195895490868616492354799892735696426423090251651887420943698759979780936114779192448832210013045328653932529268326143171396338931382637827904745477404922685076015167298675557569089031655287038324816232880258084506
98 5 -0.0011981605766791600187418691357224499417686220896958543207192862492234020839936610540328013241191073680777244159320053160691147352177245428050507831483247429862544106882225307171726855483224365497555740194803255162593709279368523060649447981134341976579099092815018223146953224619097474511966
98 6 -0.00056766799985720621400292574104555877944674496476349631262567747321717462922091431408575826143906251075928040415823026410829988125519243250488428485736359602764794525224911835166575669078286395980979521040517009287111187844780474210845801857712908717060034413031804273268021581849525872046548
98 7 0.00031893831399633972827166772700505779737013255185368152257083213088586674361412511034037774659898750903019953131489217927246929668486297773485641525625541881399583208129197300777041518955049242605694090298555028622344938757264497449260562154887107744583776091738477695282029492923224128005701
98 8 0.00074819318608526988889645015792153022567861380658127721361856942524109293478496283796433412168895873330191105300277811338544216197831010595546881917674883106461724681789617802635115887826489527257737163037302000755586756084594808389197925800035475722050208389054954684236304126803192656178048
98 9 0.00020506370340004071884532472943643406100464832570703613312671169824042562401283136914675297200821152231484921728464205497309007868407687190777532879360691466796093624636654747762534481905466825643248807876465956339904090814294752202386398537398188767963929488907616182465552499476271842145541
98 10 -0.0015457637477382586183847230639844071396015232426446303194523267407642739873128637216703427905840724774431751962714378079569483273271960289304654108800744086202932849823780144891208645982282038938903117373362279702188970356144552700677491137361238343873671991402904387005673378291655175427845
99 1 0.00088033805744753299528005732837210475631079470520779710930636750556025494664722766979582403275920354364756753231056952964308652337915112106678906939068336615092464500903901307199390572695420902438317246957016408212788092549730125309935887915742164860551842244100686033986022798611097103393493
99 2 0.0015763218176437631764271911826079182406303109554709573938317774656485279243956569961874395746211045781495637066209663575429282887747573341490082033194923673504591361807903106345237915019037869684496035160811560585519728316542195452177704907448731332824804410731926952824413110175685106022653
99 3 0.0022115949989603050975832444250692780226368281651190511880637346406458727379157648315989724477147953799011553751811753130241634459793626021474924255341706927714419716895289845801783227909436121600906487712183660413780941433161847244854666532021564959535468015772796618363072550845522772109621
99 4 -0.0011186057744318266093786916173036104867490532818786728345374976358215573520392738506721778134180425910780962999978165639426815508932218087252616349182052037019074162165809391161079109154663612922295324165528790987515611710314930534213792273930013086855089455810378705572603711845170450544968
99 5 0.0012063906051196424935995501216190912952180687663073954244541011283924008323948000401446949697859179684519071963902297735365371502159907150701007553928329522775763921796689163651445020577877367814988648635262962004882103685938781690164584127284184452489646362238699105881165619960555985019292
99 6 -0.00030376324285566051283056268177125103868664739310513241289067588403255554443721966838960806021058108122587998264538543295137515396633219054013589052333068059089006509907241572453566266583160380444100466637877727157742531812963400137071527724719967601677496341800213084757865867789997680989332
99 7 0.00085219474683866233648466976907990843891232563710207837830994567969167665726456782994811394636245339891566821361179296532355705134007049362775108606109046202696283739117438306815570554085445282004339124586405124937527189343558434770844877933016650819257694804842749487481899469157803901159746
99 8 -2.7765296333514162231110100360966219798352376619808381922410164550805541649336167828290331096391091034331573222699405082199648563222313435782493873613326696227779460091378105212720116609255543441653413716519505030404231217034825320126952660104505207412764037108018492805714861995032436485045e-05
99 9 -0.0035258171338422379978302215172448012371087143777339494120864827762093942266836880516173644717066614469840303427295307156476111316826914480578697476308589355022665333529850958150496393260271002941516565180496553003720314919774437144793926325694871890785915759269629223127186390438809303977583
99 10 -0.001690969567206886963531573080874752297449152555614072730724323836235207870918166992782230679349250126055372416976755902482985972419909551581480035989133179133813879957514020193478600442574280417586714954932393372144116556870062456711131451696390043011052194927840089396976214533741226166998
100 1 -0.0091217131671491322660922041115161723204195944633035031520559128708574262723094483497394101676826135965390886874261725720305680054915241276870414846793741590015804562809370218754064056375951725709150306888173381950037872992972229656856916579017991273901117263488376734762251114007575577516566
100 2 -0.011478695786103362897523872026908962598592067330192691234772058831942446888626293367509561453581155286628253678143738765839418284141844479168684372840351712258347145457073486327314343877604994258278196935617441062696996091096912641398321217397875817314581837968907056774873893529775835287477
100 3 -0.031730805704319966708360596875547253486211403864847563613030710450047270476204168272407751937884210245916432412469710169974430968276218825317948363897885274453154289173799559827750874793839223086871276203792867326193370136574573705599372988800800643653253322959162485155281074363351889792154
100 4 -0.0011797597167343237018940847276760418113306896389980613084481761479932398312211842899125809360511647566933464611960906272061175270029200872388907463046465314459846576107224187999729251684673816481745292759134920547214057437171759352128142331648520328639306431117344857292932346591120660802664
100 5 -0.010535621964725897164435567896780928340448659519938020331904048652555084315413787248182387316169856465370307611652329926615670663628386123310499278785425230037969917063792902071198944712345555580620616625989660509483431437368138133872723321909044623057875946281870151675176284227262730483413
100 6 0.016468365018551002335296446217441938185857333843533872938852364718922656239723898346116345855086801169731323975206197589839571931260462819925683052427105031001480922764319675297722547884315992673091118744318065162451131768124343286476403907169662837016456034861090360645421337630685000463789
100 7 -0.025772670267290987119629882101982609816066553132586417339071108379676569291260500160898762196477502877980881676622700783883287635538615932685214649309811064165463536420470762814063951729929940098220078608343861140608393682199495140792299776450866957908626311929892913540245568594321994061567
100 8 -0.010842563274688196617803872411945311812912036280734629832937423693203054885102436505752106661353964383479437599594952599777393021906714042519613764933080119751601733048098189052865302001153055878455132647669118725933733421167147848413489545218937132650486124038378989357480045248515152847086
100 9 0.081678258521624918997824506768268594260623274884720489123076474752198325663814248150947359695578144995732452905986034457368946853298838745911714319845242715491533656949823284540377034300837659297407305496000972674407567767892462491680219291967891127273236603926378211944903409526002183435575
100 10 0.064658254795761207299888520204847337032271508250407268522605543291981175511225506438518113744590015222466324175647157799689037255098432596552691049015603812160363036106959667150436847254761918242932375047585409608318484772448366026752937188212133635925595340982207834686209720200389648284685
