100 10 1000
1 1 0.003549579181571457068228497967872648442478922154167900924140859777259460268155016365513289679090301536424008621531359609369337127215779101955127888937391537633453961239738954301347875350404641392999254680363357150983538830218675797457343824380094695329548657699430934487628185197098881644473
1 2 0.0072416818869026646620793030211596582890197673620559993607525989578822268393934713971034309865663731001248148966444277862195407627168921592179487675367599544123237073271945673443961000506146586769083742246971412706593839944977525803179073665360736326129777145052402592358451093957645513352768
1 3 0.01010218573443151703768974231926103959785144468896741593340010331143954631084559023886258060902613456085050271901275686456829358754197846562329706408520690055497397314635113119600168422991861433761633496037446958106898955135715475040137201809701281802093029581725568323786642028351810528769
1 4 -0.0045347080150286093044499229555019389575098094991306887856654745497168136920056558602091797982390640005787948708877227050346243562111278041971119061729737709674391657475384311138550042603172147021475259623999021144333584399565100848735088506283927920812953121399968962958688694304444738097623
1 5 0.0053228938032686794108078886837078332375395440954806667650345106402750225018628142394080627260588013197192612369060139136247473278257499059071879026191328016095062012073104318640147973691338846920098475522946039084536238991088583881111601741152004069217783135243667441555326400942746598225853
1 6 -0.0016261968548420188866255332738467814598772241359067906865173157834343208137628424851693569529881394251491338716938741369283280132777014294899885828062121833001430683111475692534855656920040191081610926162912326766914396490515722843415085930944152519781518971916057756647379828991890984581606
1 7 0.0041738404234788865898012518337933982093109291159812921550403363744845368532149864577447218925597403572291941636691901184802296585215654737361336379370605517326204922890375473753372345309969948953032010750865206686597185987244167064249870096541512636456876846747198828184368477883335606454842
1 8 0.00029414034159430772930540647913062800998405233055077334946647390867619760517755071679287792309576700085074533498562825545057908177689306104440711495194292291914357686163654338751146684158679648097847546248898598895728101134584199652395548950689797588063525175969060895441157065675196955164229
1 9 -0.017148624820948905185119114785596565897119448245334235990688135662291891019945125036930156748034054052207514391774472334188437039457496849313253488456881600061810677849701900476341522962192434247174406947236399677523001282414578924575417050408642320501478157444877052159233028034238464916027
1 10 -0.0090560994302062695204782473463651186051201508796792781406766014402847266336475478846819409009236446032843897267304417678204611781903679918002304635495658841118107566975849484618417571226158640716391723355058205150195704075894841899929056479741110796428775411158927784107187705688134708696364
2 1 -0.011502912140529823576989196051230206285842047829854581795620543269308902336559000168158737684130494774060741724913773242959928467352479849548262215556457256393593700825625209410030981039560755886520286656005124985125005942075873241823612638619233165786428144664861481595815736367883102797035
2 2 -0.014271963708809980573836179394758682951490781667503370598368100351892560472971727728227975114860587724785709424996904510673621057598169009734705417720143663025045569889873588661668510283357796323305783352380773035751158389836828194084397119939138368275960523747296128186102168467639576667345
2 3 -0.041963837532143022441235922880920080739325806285639829712198658870127480127663801847268880918823926017949383023202541673884206762896166198479537568640842210461492485864434059881798963944550272328277166847205092828486275774310794667255300158704562739359101217170633531592608702523431349499084
2 4 -0.0033154464364851889357749571480698285254834975597872887587025813294315527077990611446787824666789471612912750674840931730052053205932874537318632344630618707147082943584856055193496098761087116351224613524755951820593553660383349106444379549226071302170442283212393778181576286077266176763203
2 5 -0.01326547584111202648137186804387887730709821735148591487975522832867042962748953214804171426986841801598092241435258202791435116989566677926780933278917305789944541328619438484017881571231553236883147417965873712428357460326904636216807969270075780768787020342042026909226381464876976128332
2 6 0.022888967367283252166782381430362390734465982698494980503684088631581308838831522437724692548942633897864183640273790909620987068520422102360099357697187511456388085535571598780835539705298565869755073427948590209088376373594015105586972793493010812395463729007504101869779658177218438865218
2 7 -0.035343529915861473537360946679019897942301889190135966985309026176716798945250299218119615500529080202108845178806138306433786745555194507643940295658510059828737019449264691743117482877558729501898628959630045113978900623732942294285467357212267531891355152611212983652251897012943996728951
2 8 -0.01550053262629833058385361623650711858276092197770762109259574825837345784950425941829337000256100077449515839467546208493077498786918732868296213087461748333476029097690394865076246757244338259170452762875464961186150315575797404994101997482329088512013479913349327636413982551314908275345
2 9 0.11117315316248520850110983952341264411095692070020772187093756504212832361095241926250160995634586854159230941243632796987002710603641750653167872150116111051634119601091711482103028714401325441875259208340136525444854938343184961287578070259404444961662624573017593610777224499750039214453
2 10 0.089581478696689943581371504376185164208626667065632155644624714665390748003915052874463323262520174038483090364177430112608505366985847420036377869546473585725258429106821404442968853617347737252505962461277985562278296050268096549521840916914188661972059264594933977027971226773955865051709
3 1 0.010009517016454725407757798900100140043416328758916624500166471577663442366183838449577141412674571721905927355229331957792858074581969256958207626699210086280917181467994534265686134705308877632507972699870285871600620715278990377129548480875121435701664741563279456610536467430580952006782
3 2 0.013136447525787804749692657883818717866591566547471936841951416101060038280597414953230872082850629201615745486257441404593060737057311863349944590521114194374880611984863994541585478321735133492994109981266289731631448945150822498270465754754888728202530099427741628629195271500369936153626
3 3 0.037066073702387555750010053079922724084365604379801366301190598256465521256288221378967709625968409323927130773849390258335717539178538621154283599163080625460440181727801882929236745940845019045847140439321291426310164803202029733043218599785089858703646038979033466409959177590347421816623
3 4 0.0025088237292554546713910270984900458860083587139866888557851493022703866059468303205997540954089723969519352465987591089177857085804964008525364097539416653800111594753150919945166424920276494060205964613849883694469313329023773261865583745709699025218615770810045834679331222803062232015156
3 5 0.011907741744406911033235229532657949868953017196462047739492727429191789022363572816142098446073870917612969861622151759595668813463679125904841435529439499786558194583618426128771608729806320696743017951296883061411857906751816749790959526079439221651190970036069442123239329516748052188491
3 6 -0.019765678260927543542551225511765496387411549126651784695866810687873643145661632204059110628092363251497705577085873396915222171020979892181312698667662259497029083787023586160906884147118806588550810201874032766013672199826938840993007142743178216185536140057840404981126973622354554600371
3 7 0.030737890085229446832013484281634469789023260538370382871471970651855269814196780331783051654346822910300651344916195423261881837770889908240538395622089003244390001252765457645163164217935922727620802530911422814097875515045628755218463560261119940824379008608022226647017537778654394691228
3 8 0.013431842999605294469802321138037706341501498711985747105216580855996475506110920225645319080254939677505106622405697094927010276927318240270402026276472422313134677762877031150083996958811711895431785031329842454642663635541129572793521380364175157465915028259206198623061099407942126726027
3 9 -0.097417880011060359996771410965031098498824008646946986703898084851606545949830352666064546659419021933045038664167075126430384618762479654302485988351024898843396613565972472660105660061969791642245736917292807483620682622355466859886015122988840434953616580115840919949225933888074072494299
3 10 -0.078075701909981041168563557057018569152996200555580831654669306714490139022554133593442114837569266009854534749213188096663682922145332009887372195008375734454457398498916967769117623256302794386122739408640918712654053463607013008350363675400679633410468333219502645591229740257944496286392
4 1 0.0015660696063974146773077135740937701127186430545561878518298427946025578831323165133687683183700118028048865775370415864384570731502673942015800667101320616760581024625470908597233354915926098723678465227983581568925337551167385858871010680162469066250692755881433937339122390038583002615631
4 2 0.0045419600845882931357328543024064843618074838103076005445282471998973210645973696376204968483052184265263462556907349013063960452898176402883137110256059549558415337979595843306238038564837914568621698780440596562013657450477922786651155792249451120600565729507013468021219123797263717740626
4 3 0.0058735007659160022844054109713236766438012291969585165454108963382052636488983758716109598739583088817500547786851242501943227688521728390460193823789159817569477275484421009040909927199257078916637315436146848983966513330241459268802956105880576620321767909462005319872822666828396321257744
4 4 -0.0023873271553382968027330516547486341957122111712793834280442687393702287276049021598372739583130311846903699283758349172030407056134274359361696433068215436195151067588333422274566506879901426699139603753994043827816332118923634863997779886096872825424669060410394322829188819763156930882365
4 5 0.0030456066048898064394246563762858875725007991545265174397973697965503511860825933332712793453088572845840779578245047405145928352834694987333197765096513478729066896575108125743191213124779566112543814227907450427511078166916274746698354457700727642206962350432800915580473850685915419247191
4 6 -0.00083304403200378860052023128854466013575929255758195598278015614939073863667318977628921165009795620633916287028190631226920030661664467338201545802631698345904680790286523909730485466880184144219185740466719180911247325877801619641819463774019270593309647394089233289861435203699610701657124
4 7 0.0023454939581294776983105797852708267830261817716184244648975210617455028122509767134549820431189525993550922706019264122913434334308984348278447442781822303397910743953271336716868232196943668837013542732800533260266874900192327733728225401909526173092536640450286647605159431083554470351666
4 8 0.00036397337357936788264006081648789192158512160737351459964983443559397827344162232176193813073981147998978528995185975786445505696065656834805965774182054838747798540597635582323666805286198874111280255993095949833323757969702890573066364596116102509292682289546364796657027177249705701730943
4 9 -0.010382264646570385698553481511545544570615930658142430447667998700530426297361494914184560611056023616150171265744943186619695407647068244948658528343140317164665978001888635350859023445471852535428713154867459028623209560137613229728610849719941717760119545297416266717617257753590806378433
4 10 -0.0057348503898308726785684068088272915571640461237779739526450781674783937840079799211385493558116100302039708357980913529395367312298975668067079226541525232471550092981728773730940503375848327841313586701175432741507636521840522524772638143197341705669337613173522220878638611623866901197482
5 1 5.5181569703117872210204820589743819323934397890699557515174794550801623727891713574476453352079360082062619656379045520344946473590856839755479011530415463343828116667142242387804743885560445133405149824782166285175394563013124269564264853878241934272769415403367013114880036975011002928265e-05
5 2 0.0012188806895275171095548433437991724066993651513857730531761446823085718714717407250269681408053544509136897186955112456407904618310912467501829674039632702974959301311401598863690927196995175911731994890080080905745961714824683484810973909035096401996086673663757031894387846068629538601507
5 3 0.0026864564839152353341998361750080316824134590412245583405321117469198415757384032596643600009728197563086597738404746816357429966024003832693086803108449421830552229202565829276148980311045989653287415927665951921056389051197249408510260776257644233600614744940125133908891455543914021848775
5 4 0.00074024227623603227174318022437266648084165557953670883425400761393411936395697084087045009233162267561260679927423248115833952416465557163101234405456484437350539915020101826067198477194471326868603598514693448573595627579417999140076357791847778869443006085587289423494272784734727281756051
5 5 0.00070428708423300663158126539561330236663961354981067395253315945698240186272237503067191954793417023000078637586218763065890329314494905478968741509593402436751008640003323633769675380615772070279665781810981686655321980043661329582724526317134313998824979555379189704217781281334379110421688
5 6 -0.0015074278549675103515571847963006603052993089212499954363309872724727946634136331194496956995260662049307930212972067218893615564221342651780386362117429811024673273842673103522329055673004575044908957985413102418416919736902717771983818017835219411588430623661373823993678095162855179919025
5 7 0.0023536855203103330754995015251671457483555156422695470362432469654657068550317971817670795874771685656744144450945649601998121217810667798163738769785409980972199016785066892738983473408973459888946284341894114743005110717436148787345855927431474331870791545791795253243736882383897562637126
5 8 0.0013898703329934917467478888947518518778983565375060541001347647170390695381442187611956249798875424672756794970708933187841937255054620052972333661864604390741340022280301914034041101208693022922988676986881227137175091229727003622645386053771785910248127435326964548902018893363340629624977
5 9 -0.0080443170489739702457379552151121875516338264655562611198668293255233190066119239979279675889810792351293315679528858956804085020470163625777207600565446714259884837148679308934128044405472810111541487685116507341753385951841382333853333844212244155028808072176260746235541838001628612567699
5 10 -0.0068737354631658894427428234298145900943122968788151415413854146723358976224223919113948300434882879396129151646435993814411315475028206894957665119747775934321868834657075596419781162130941015535980192772147422332485453038698966417886855193696852560342668983017140356922037658471441495420019
6 1 -0.0032425368047481553265615115403586674094049676867691705889837034903799115997497898740517253625941398740144822299813020510496386320224908199688453336437700494592792687994503687577001056867479246224313059023049159230621775185466703388121965994585053944093292106472511723673120698684711548372179
6 2 -0.0035075082553374694057952500236874208198842967105726180709319238110118000076764997065844012929486259366160726038331635490649032100252508126626191255956967958732745582787018264810546550786746906319887739763479257185967333622106133290514176769079883678863952193033848286300974556649379260018914
6 3 -0.010438931977238275795473576777869779299033008194071072621698473601544755480670385282221681644173376314163938392911380864015003018818423005302610725123622928989933862983164205343171846103999917915259827726972100292772594155464676187396720654419554638800697053473003070261579053642104570092937
6 4 -0.00038655912610720813005190361828251029995778350361028502357383606966841933775920762819717216768690541374231210150220895716873097228138224826921753516463568002937310162154577483573672361804265105720575481372942084214869433118506825056484236561624598535011302819832910705413743769642638987315209
6 5 -0.0034399776865934480759167620432226079719398229294493943953345341170816286324386832826782919681013887868971291475136208202385371257644107745874651210249685207356285787898297420055128577999035084272682986146645686649455411487913348060878757909632656789331938448930436930746997243651861238072586
6 6 0.005560742576908547718361695759396044078176668168939336937237785145943453327245315310479203555781689367537914191227192297941590306195751552435910381140760796801428943083981128366066403268144053175505489415788904599524592082797121797947617314103207111027914166226703830545517269511010860949737
6 7 -0.0086179080771924340434156193803558213927247183121064834041280303193518100210320579387991686606347772178401399528131926686668231039922843285130208849281403250217755092630937886691814728945700901431831350409536157079321597288579277158185844508204133603850375898803086667957491378260054702839988
6 8 -0.0035454787744686254359271997839524076791681030747115749991439175336586669433740841337651557237677206237637007989644960424033353108311291117575061823815252527199658914599245323472794590229476852714341156192227001014542845106057053329282614987251361223882743785257276095835757648110545294932944
6 9 0.026882373105675789503344324530647165423738803380236646609697694491058843747817183748949399066440451681624036817733656944348883188236270788691844236261306434882214279789248946175876886884158401289886687644749944701771529203649975391117764999414605423921248646856908526807867878550984446272903
6 10 0.021316385042819201989620464966364465110800268289486099768705263822913044077974927408503686401115623196636963199350586508955850650545799137135021069254043345586361494306955328681625053496771167653693870709055320376586919638695078642328565628741555399528837292266946213218651382625639053704357
7 1 -0.012335467161252251082513243671064647298637774833411063335397027877219081750210480187600369619213081764218307554737183409133620408872650017902852968303463340163384630799249837570692944457481516190959891656429415257810415305133173483345750247391604892043538026364871516917691689149260130532241
7 2 -0.016160166991746373446978945515003831886789663091146159979105436132398750072293194658822868969364435758045587407234039339682911150470270277806508194877031485174058440507714582504412089420403277580064126867812561664376837085522990916009972200593721299914535075906421882904077218532061237295128
7 3 -0.04006284065184214939032006099987567311806376504305798895682066225290000695747863312911252056140462125160429645126318838539636483715759627393258580977484674117414731886641370037049547061714046120825338831088278905774095295561671152982615518926786052118212976259247717300997124287760879427095
7 4 0.0014699684612727416771979796403728944536325372673522416652240054115900834676658940893591339704293550155573562468714765527718569133471822690769710979196524946280730724550409032769482138359634732224635494704242959665604791596095700662172502463685103560445787314592873338419974750551353034531268
7 5 -0.014443610717118307269060951194859842878262168761732012118877706934114793069337231181525710252373026085680307974855526267090697726564659235590332915484584887982470919294379130040942846443317737610889917123962695919235194204725225373737574863039278789102100457137702973698030951899518946237373
7 6 0.018829083603228195304460734361181728039374534174003802654605974272189228486343765893064811046541180057134064909376325285491754092999959550113900512738074534980587891776609930510289859340126641812434224360243575292028423341144725889409759162516888947584053123391913662698743230965923306180778
7 7 -0.030331433736316999923579969621779448312352474190872157461301618864490714515774412445634461857817146562634840061159908345110297507053397885518625831954432947565717677499965121959533476397838497184431788268123565750478218959883287948074606299394700351474527376317426362571610103982600967747537
7 8 -0.011737143894157898622924610509648558693987965035215550237237360970455961336890664111691885043578142585354339084566350999855091586650001055873827233471559967361487122846399127660836485169357337980578526082822946902596670684177358630514687319756465835454423664830383574317768259066941727027016
7 9 0.097789993473108321638617116703882090627529237814739843934108925924183585891162217565596449597363791084836936691710293776798379802291296225806649881041267451449190381759135047196417877938688814705725336293913503545535689829138569520696090541296816488105645522731054430223102863762386416084266
7 10 0.074726398578599828837933123065686791060270529110590302130563338460079796861031920967248986663811288463155255484290205932422096603432067690654737201852430200327618657308535148176573609565038076972474329775753722652972641284805356529092090315007284646919185150290358325707285030875274366459559
8 1 0.005614348844775678254670065415509011370109543968283386402259033312163010551852780129220570296399357497454015250623373709748271360299326818373015247503407183821511827407513765226522212560831885519136699533366132472252841526125780933433956715557172660528180156384062476084772997849732131631191
8 2 0.0085645401045694545262296139073662050617319280922842705715428370370318940482886108241623672910828387533802499762267691483452224056882590295203874418444689540334832374534006455297691202647911304643352507803763221419359119135567865177794246652240624875202188197364549756552554236565564213945545
8 3 0.018305030187513969317917252064437981612371576919396111347642369019048096136543778189415750824859360909723316176722652486853862366777201507785334300624732241380333764537614152369551536637075117534365793006843542394412617326870816960585642148568248140500276190163363552479364119427089178864264
8 4 -0.0020026447721160765778378852432572163642128543762820951449804698722493280980190045811324863158470098219421585264407623678572215218097280130690281768712099743780477475408872645499375022608186447261392172289532198947145097442933134576710077661192884867349956268125890859675611809002669615441774
8 5 0.0071552247317824137489311485718346687205229548155186394977563108291536934041384275740691745823157352695768793630532125675375861910789955472514416674822094212959845187138433309085926591767571777154724953659027489063617171023993334267960064382390835352940480811717240901191889223372906204293154
8 6 -0.0074720080882641387694665504745438215944388472689858000964830387505293060108606743189169345434532590537840690083012270215870304223698981012996303805987851255967941006148451171883872157063296608796210336470494575301479732003257263599661164880561981141063526353024590939983617423964001734206243
8 7 0.012625659197440553608954207565305111191699314764950809209601526766478120148856660087068179533023368750923654776440197563429134148412590270246563232705423163718032105917369988652919497306238965013797438025615074937388868379530143718859020795519834997762533847243484528214295030785161106704644
8 8 0.0045121348428205283334274007315319815188527264368262464878540551736134311509047567987803864946826068189244795409613477228119726640227090725250800575525983961791279996604315872586491731227497524052516821048298685923848954682057909665939181816404743027566095356879105095017936822989293069780779
8 9 -0.042250198173828767205988976841626240321849645722781548927633122856924101575091730918115435596647292662966420148452831936102295943717735549440904083709239246195579437006212578428088355109553002619348819045434247582053029650185137519476470199223668510705132331408490109635887909897759131890446
8 10 -0.030938774649008633934694907370471393811466864054591985778611247285245428067420000178214240449839579560621847325308247768799174951839537841960565651064000785099588831407641011974788123396416355727218375366999262551067239272977223074863019735652179770503778834581364864497919784862036068092931
9 1 -0.0030472923342986272570269635159414071093450366900048703796789043999456190438643437462250816069518200797138196993970332300127352107074248420661328716554694749755044169514654939835938032709697194094080649538490838306028646892315495638034228945479099931947329474797061444644899208013701294679751
9 2 -0.0039107631200529133021730003316491856010604959627867313809050468979084647884732975044654284717599726608081796725008846144941670192177029227845610742115237738784687682638543345663882143814878030946582899922222556167505911368102189051705810565242113413782250669525455013298109409431830378441246
9 3 -0.012261193946309788291569166560317976251100919448411771824113923576048201132431335881973580377346903899339261194041763273112493820388375436031243942988921180673905366514041032399673621604029246075705771808714634569772720935127309075348896467263117204026286852274416900877375850711954901778213
9 4 -0.0016672631013164536340906110954034634529883949238865362307805610801655997701461568137714165267667416401127907877978064992738598507642500248607003022773420190404995449734228398163420165093872129652927550547932732682810236699839913747162708969583597938108611517808714943755007802270782030856048
9 5 -0.0036196997579913687273943454171241015258874990582651044055015911316049934979832528806880695760713829107151604278094400398353068683253033954913852991046123553023275664613510105907517937467220078077074983238503896698917665401416546322884347438203994136620795725557728426690602675066529511742737
9 6 0.0070783217302125018461318974641241522837679714287557706805774474782040970171174613277607555571360960037687944420394737818559265320209407334714562679056948822364971429743930239858812300300885750623090614492568659807978468977071214818657161398514336647072136048865376124545205196640692488984577
9 7 -0.010777081320703615814551940944921250610857462061416682131647886403542774085048655210853101355543445479425352937117458811560494716958996404564331212255738020349225920480665485916314890572327312871992546061468830964492549754912876539920852877001505721933888070442761057246126983540861568325014
9 8 -0.0049996526777821989627851242376251312260992139201631714754138848294356340543157581840089765574713601357371182163110579366589771043547959927572389571836144419487139344526202125218712555820404192128528500890009754943888040908076092800507866910088920851101854223104962504816207525111559285650681
9 9 0.033734640718268458616224568610677223744886773088465135337566037958364585602114766208391855007889965554762948311171830721248056514911962699131582847068687135910039137670236819526356021008056536086659380424620043616086187233169354195410582019017794888433150951787356829718222051976094959887279
9 10 0.027779711571554442860244920816153298042610807785363507474869619644025026077465335383045923077218007613002343030466887361113101904064104820915909354039348695178023361237342055343984894954123194555452706024604397240133383694237080728147462410307199624959539828032319599407464571894867360476839
10 1 0.023618310988659543810216296866476520183784043275637580081269975240057061221396078265652170717203955436687779046181191107883386689574580640224686692165082728745308077112355295141534942594119545841665849327332912072257405949689849058408127722815909812943418068238967896855173977008694567251707
10 2 0.029739029137187814861330616787396845046469016965694207079389673152623411032843528434890464658617158679156108567278683650636162085379178901255743279177575312195435291944553471724041793004622387559397615542115623913305662701832051270846739077626195932319219958477207950612930044699363541936717
10 3 0.081468386949164137904080099576396412130707671011118082778307823779383719009537955964406300101063343726311122810768727904422511891413012225300618269675563356705295683027222244147127852664719480996444165295959339377083492815782760934650897226408254611737128103681537108372185296864903157972425
10 4 0.0024731101794578076463884034908759980315350186609472449835023437678052682823171718305408802452157195248096420134639294346839128507390543384466006262731729641810830441771243912407060746609624051830845832092856253632348672744280257246987715642428529245659646960484868340955626867745217694374886
10 5 0.027259467571420290671078711990109245014412993431430188130016873483991564956973924887750802463122176142215845300743221215468530660168019442417458549878710552230161886778017111811245388377368791969312835123132382399392285222976585338816553429610084423370791969549990401070299965950218763686086
10 6 -0.041952652814351976249946109586899683601376942959121789578955577468537488233032467128109240652147044473917538674567913416363561847663463830738111805686693473632340178701455773870721800119033098429452539998362815319020732932186953947151508242067957995446608580447775784193099456513732703965117
10 7 0.065791883947976264704377901692490123729497052168184026075940181719705816611263093822144235921487783904839885700127078773062759184785683476077313813698806711519174255013540797915876644597183657122549606082705667383910439256426914207930464921197776381600797181811851267386987758037412383567824
10 8 0.027471934165263469908242749513763622368316335423981524468997395087169631943378266314040318940658091611626189184879699065546001513360366502602240403728816667123485557156781198861392066764594010509356206015079651777578386336558424700623878194820928318654330620040099597526204372712891304206173
10 9 -0.20871533542993087835068330143612458762208133553553031979579870517686992209451810598446281725852001432908495304366891864028463857410280157818349904381757697898618590336598363157787447444367922301467784168396968412257467528275983327994316569151754588947221431606486740351411543163827839907504
10 10 -0.16473517186795074242926992016452295019985870058924026882702966369530684784924838434487174533556394328083436134385047197325065190028234042689752416208082581767352829749363096887842909139714096353043697387903677861579344808264904509385946126464909740427898465658252656946652157132000619050514
11 1 0.0058470756844538351439789314676224999902115398282647432022161124245146942108808014446791916618267823922132132653776462096658900870791657656903685671838580928384210324467447393053967670532317425304177081506459902206737366904029932428181093366688118119222031897611298235735780172837768190052443
11 2 0.005282794321537560121506419746158736703765690985082780708820818398055039755258300373179863416856457485220912304518139302688557706400273914248704799858556082982950874579643820905719213318167653992747307920772577634483609663554749747571951744474614671268099477017419297033495345879525925119092
11 3 0.022994349934219760997731489826512743150801523107858873893893769267030700761636058599420916665037791608994211218548674221736136132463169330886539658912704061716043549146563963544740106407880683775120809437727864255586520111423224876961971956060986634257117560394742893393522539039331988351955
11 4 0.0052926907057530207687753306739586251080529297162396019755485750184454068207168731864576592872854344512559840297878259009611883101422188870615626201340694061139358701505439138391197154654793328205741698460840872797250765287017725948313803908319887685855555964782707460940099396042098229248332
11 5 0.0058758501360673420842925114572573583877768829636942129638250240444365675067113379465194093127407853245074461517202888661381176307133502603614357078030592269845032534843705540212772135964484489328325671408954935187117187607588620692734709466487299962442878420109491570818461471388475033857066
11 6 -0.015110943267474886806213805875039206958194260398600143015204201183139978400692914305514674553431783351166785646384111724193274086573700114471132180861280008067364169724957387194045092457713105419509600669973321574620219287125809572837956974000185104722233816064280183598847915844626186683567
11 7 0.022228028037161408712832010826113759672833877597069507652104950364825320457910151885021930466491854447293947678099661137491131443578286327547848932646751934940752709456491694026217263421117290490079966000294406831291996626204412863381001172168408808638014629131325663560793849263315433100126
11 8 0.010732051094537670764137362196598980393454523160198982933479412907869095190224976679859018671813866710715467406428601310320435203764079450197221990121147427322465739445031170446834370108920819803815708434646971718521670490191646570503947404659356010375165931459824977535926858878199299171695
11 9 -0.067191073489593423726946741159989526613899813212499625562584929767028694074697935269136223649775107203266229415119268725766659144618159514141833100006993992135299739896816375856987631009373528708888204794379340115287794640609707038419858436033749423866467499368906678387895721055920157588328
11 10 -0.057258021624693985410344586196223887752941019390915923483393153945154272313175696963561131980649993009982775200498623084743952922773897344248469099433728751830562042173706320808120890993642080493495055998369905016740458499834047654099513741630919950255617997644957256726328317180896470403542
12 1 -0.011292894031196125065581763760235958875491533021656799767596929055571865776399699157855706765336799239206546688985215120643667948557668221579069926272323747170955555854803729490363113275618084548289957197845417541056491103598908361250508487914724209013314308157534218714941048437292263383976
12 2 -0.015686239318908446777860364108892139437695555851117168717016272069696799628010861172238080876509158568159346656950240105450536879638180628243931543764756152290143353616391939772267782561121667475191306129826146748982480342964901289092115258626630996635129185320281936265281901399083630000559
12 3 -0.038644073201465517967480300709455962071026566511714904112568099677334179426787299980031713437771192393445065330707856007815214572067527836494066167152998441807893064752475633221735751426904069098117268941692457113848840270210558025978751728669063172322586030336120612921810361849159246928545
12 4 0.00074556551401315338568326393730899832377953507083446417515767978794179409810146557730446498970564918488708952238124818987468476858496915571704778216725369679365632200701825008495365513123019138084282190484896259481999729941292349018176287655830024468464372063604851271154085670958765323301089
12 5 -0.013715599474434725806286658494900460690167360195594645598677520175907235997718225075066627026173817577263318329423837534026855451308055017037554683125510568614128095686379779918266390557636318384238112924170549612404346989503078988176920478948900691108507757521569715689146257333705319800149
12 6 0.018378554577937794000961341465769385521743880472077378073404319571980112737111284730609401909262542816478770227596522055318766273216914622100667988490109319058894576220619031512099810089031867659051533563717762418043758623683154758950101210908376042755385337634563035630915546497920559736826
12 7 -0.029527101873221421037037295167305367651915095485322855124797378873109576435382352959760247464879945247663172465495684949590189845902035843334853289695686271492939112251151949894617112467743103032333962137849970351395696548367657957810107324710347249406617535947384902387139821845190947503831
12 8 -0.011806077606209370908253163775957439471371139358387525456938417977214653241086972485427594614044632895023410611545297561215859655950278193463066253954553904548314188353283049779399181554343294497623260606737318034074360567643890780079700833785093963062745387775657197444723378763964229991393
12 9 0.095527497518142745568755079590820006331164913855689006017606741277136980798331672272431615877227142683662511002644700549272302303033396121635573189377917396449522780860338092261260977805954321198656349738698154940322906877798463109308785026548662273645813205755056050729704319620804007302329
12 10 0.073589723831583547254297206108467338629040302992071792846074532555335229338365603829218008682421262771721474447281847547826301190343533128687429995656247738366307282382513340920461669447099010319198504733537277984277923964430395329634506742437078991767625723770434265158443603962493003465889
13 1 -0.0040055704740575020771730948321427432508742882324897557043626402127982867336976994836685626277408204003942675800424500872087935426689491337813706855703775357486258825765975351540356890949524080209271890505289050176870182074743092602834575764439402193196219479166082017510479590734353169616659
13 2 -0.0031829570647446523264928707207364673289963077853907116109127974234083117479610058274110961271597451050184680782535091519751235209492040758487500617152436947668153812306139674826407197049212699992086437522449901344746485938193488877898705884868302884264287589957075921860556157515905227088654
13 3 -0.016455263347599092508235517850624183081153708771237264991004082336594330189418613947009098299255883915347723527838508335833764418207991279725076037475074789409532445518743567937495223757386963220124985857733504815434489159350150581868237964565822595698937239575244846811259428088016176923849
13 4 -0.0046909539733124003913233164024576195187367194200877257422347835423188986210854729060312951239720715934215185448863935658745349408483166891168621701201123892414454400522349341490711779544856495122736296540621466915289308866252479039826458012445166166283407990404386892068737967480153298107688
13 5 -0.0038494018219905086919705278567196254736469326271241008521369387715293622209760632471094782974042578979061135523098062994652812858174823682070392862442372457506241548468544140102815059794559724284465492910910676591363267032107069006644690488104136527535900002215233221973215279116992206532046
13 6 0.011430122741831516619958246946543089317333402405438880641333829719446647829745972858306164154724459595873789153532090861705304685498318115971953883787520710450943003875931746684093577224844537322768846703855950709225474883294808111190483419542110996518241083716610917766103779499206712058637
13 7 -0.016603316235021489171789379393857061853917202259306627138405627933374789567971658512863447235714959648103386254659711631330946991951144066597490993206051781404162901793237108640655944379031611200568683329979097728551487931540374940430024761235672651532664886671576205075393377438100411751784
13 8 -0.008261557317870114172049101950655053579568073512174873078742566550656533933988610314078982671547428506698986161463967017607198426790663586109123878980313408983954449149199231220907806121770850956441331610646766438864301343221519604063101722433620352189059123667608405060384161062737192927024
13 9 0.049701559314820406436622164186026963479064484795401690716611669345553318816207416020157060014193683553201134404090585579379819085983010334017571451536733007438953858449169947633313390277766704772869188258115164931051003988841985707377223047667770232179677483835653787590067001700617239650021
13 10 0.043068361161811946660505621751032414813487951142523263917117141741508405181961824882515464310932170344524031093858711283697104791228370360557560777932016848599678758520483695972534502255896780358131945142909256973897914226327772253967276098506476194785790725852420651233419849511065875745894
14 1 -0.00038857057896479540737387300531431978148736613825359968465057219881049942630588071089124996592316091321058427264907004398787639804212254244068156285023245894570235372061452063941971577627487821510543917860119972217482843036664464503357536932792776009886346664721286567987357750882254555454881
14 2 -0.0022863772026772203728165298816497209968041862351195011051249673768167042756943367395164289818277788047053017884977708142673959251074460354670335871723001116320754204672066119239708522604936670704337415626456241393254060349924136435386050746480831066944347195340268559876535610029207411315504
14 3 -0.0015674453996951263611065124199573428019813642432142870662236197916326706467785017051538025565980971991191089860264387276507705561390637468933224835620801903210508236458456219502439690483403190516496947803007328288117590022500835505796074862040532173992190747130353736366739474963344543701861
14 4 0.0018318875675231587872906572474555425249656019249468123639309105635601596175282866267842731252662918913526403564284991572788175718866920936390977095495871639569811820823368871687953706936073456539999035425714584408793790368837110238143005443760819005753462115979873683535509338708810500911023
14 5 -0.0013129631061729975985586287482736811109567407168471380516290757746696368708779933234555853007716242892727388887587643769249639781446023773656762861172609554727034543250621425439569041521251533578522611920531231116655652489413959389806340935709306664656414533692963256204851250380491312487671
14 6 -0.00078892388167792562822488063467906866237521079004095010052151337452101203272059631728372211805399726574184884336055367718206292469252639296859519584249138550647372081786011784427889937940607165914841815592395064844522110048585973695738764291263214303054547932978357387452897755168242632788378
14 7 0.00047850146507586088841684566003996841470650886685407069761742261834608719299570863036809161911088084815732032094545416593279085369273102816052035199986710293421582904435624262188765379380647472562053347569066643225103661737283543177966749519438963092067405111902882818130159516749322442119289
14 8 0.00066205847339421677786141553131528706019477426238707819868465446696301085084861145632865921459522915349551867659509287109424419518524257002602379293329922427242553214173147787823786527775709883215276962599715341463316995634080398179470495691429352267541528685679374272631530252832166578507455
14 9 0.00059345313629506963861270636823111132767623674487059341027626134840272916708824595062310819176684172424450874185831228759276602216517749106720894275450556902847147362799655357498508519932773925793356865138187871386115023784972373704860549507381630390694032125766445345999181906394579819067593
14 10 -0.0013360474665705541562922223863265491135150800687981822814441914695503105999314462921191575552347678161808084252380500877164896732819532745593097997164513881098555580918438108025902247885270917218012633259928240567083189517702526603922195590915104243220630828913776316456531905832771881141225
15 1 -0.013076209490158079467991121384057810277290785965752593743877061799838686298072909607706699129816592673498242628588160724801926187482303295011471901716160462558997220401023940556768877197697350841932377664028448725431447152835549727703088514459552849748452470877577162058862258678242627157308
15 2 -0.01542292940325320128481996453050377974468996845605474428995437156640843358483615547942789952430451248070887430810142203499839305734076475714355769901536111521804783251060395207585037635082958804811639645557159056107856086805906759687181454992166710489702169093173791088547302775572746990898
15 3 -0.043793858739689842066307091165811613493322517404874588740069540129791367684941589187193341327403650431290673132228377126169171357159978329558858859091130414172433412173180210631721821100834035695984545219951860662460446952963628470620316269976042106626477782342261412979744015869673179290621
15 4 -0.0014795924745504792847241944317012587859827614805209222510712934355905731077712665810784059135855638534256676484669727075347131674182209726035372893830128517384070484039095530726184667313804905132547280881068578541356232591406059636066808737920300293372994112612525856252090324811473438301908
15 5 -0.014551273773300848662877084121089019397201641308427591506013707694841018590333661489433489458945740033453613939058085277229898911514136579954931795669849629343609278633630561760183644268656644396168260022440148537447609637417920369833231466650988915708963934126249353376594479074542511885036
15 6 0.02288320556053472313680809391889054910618753077808307248301802997124676586535702676866242519923261674869397676909919630762720158978744315189593677371019103417956491854913081735188466646282911273678413054197621967026028243686715009885095753077237485339863488796074668463656052429144787080668
15 7 -0.03571103744401854301447577246696016798740519460192267793095366424733991182486158042890074266957251624249948481002979384188376756779456607009901931582528796944000509733445770462865103141397164538490703819863242537084995386130390420782860930910419337375493261014959797596090498317898470863901
15 8 -0.014825157357512206543122223846630908405936809302951347305434559033392440167466790417124802487219663455041397306781064281202348250877586232020896389243732112073099787028911656364661210259548207704507237471272370444491830900472543042878788731759366700467931825348230955872850121242595949622465
15 9 0.11247935672890577262270507394755624007599616768328698966025228580325941330832211084504803717498728889198999772612706341886173342906010461242429559946354854691954074789954185148465624245134727403838571317583901709728555054199143822111561135690984640552592137463352802714006330089202504180375
15 10 0.088966073846719768110177965621181472608543685722743099793520793777906690707972136032985947677442148871176040232364040583258855278764383023609967433046974313051162657527860869615890609054793324769568451690953635312215500850695484023484539741895117777755811516833566315725966748694598316455824
16 1 0.0035890921722918050354976551910591606184602527515203387626393331915890673099519397331286977770702242387864063762107417181770409254235056382159323374573652879173553748404481323317391410545211128896841841782245354492046681576230301909887546131211168553206270327789162114905831495268947597880188
16 2 0.0056455697111976753383526076684873073574221664472669983744149069529514692523461854385878960131635022561336993873172454888218819546641323296938191846746616379565716868720916080287189453435291778885616284466452296216404636279228875330084616481191872284088474848561464280273366264156988190352229
16 3 0.010550872527112149755058942580810243194966067917555924229515831807747955350478120401367512415425776968335559118248072820655323452394181336045439448324412719186581231925043424215655490598554651878022017978541203019757895323461168556966000621427656791652553208795648558254612288279632558367888
16 4 -0.0024074304634844115746404295770942315357901796104610749269955860749644672324427701803241143755432384043355575841035397808997373194888761099260998372790669000812003653678395033215259800096000280937819447523239723329728457282913682249752084967847869033622142916885315302997520184827669392587732
16 5 0.0046050270647409382137402129019726570221074412194506191998386487339159139587286155802024478537721164730979218871921997217923035527149232386255246256406117526178371621242670623218252964333316910868149039398077836082369738827257662533079131500014296617472469268076870918393755761364954158201539
16 6 -0.0035079965471627087155811064502141970357338014632137290304269384015287293073569743771254877239261710714755819332721501758076680014430870490334390592912817893611113276927563987891527967582757662762119554884295462318486670214206895968353488478199946265938498700530638418413568127244849267300714
16 7 0.0063664749662077390998201332714453799737988075796692839798848022257526348354043247131491285287763952941853169310505484055514213187851132035971180397188044550698534786046932089918470457500757417152801061724095118088012755355497366772741230838043799172687059578401404313006285815138987073122097
16 8 0.0017825835604013807676715675379399074273153599753589092941202936810142569467804401935332378057731083448027377382156787203584777403259001090122614378435858582568507259832983876799291041020525242923144733956230590436560792876945932435671972676758949333473140709594992673243614096775721590054692
16 9 -0.022110734741514087431046158250386646938020755087590291900434738473953451728307590222824834139538653163653508823189401207965849927340009243648712462668023081094597301628119121581487003351236805990763367617215331359044263209269188239371770830076818942402783865875123221259198905620985580252967
16 10 -0.01494230327234601075350820470683111540318702999851571655271309567555897121309434904937710876243155396903914569759439276180521629218793635725004040100175824350153334269838863753170802168828109301091628373157863984354720452367436860520729008719340686677846399379837924889424460415647945199164
17 1 0.0092303256254485353676408290307244640318653895281776946659196247898723763153803614956276498497898455192900934687875436077275081254918675367975199633770837083399038045576915490230672273633786969335216646253104667761901427831827273857200555543409096973481475586177382296933805459512237611876025
17 2 0.012935923055762773416560295953753294164563205584909894246466554175327658060722224556096614720347129801274024596313729083034609851471168842627969098627624545432623994159783000956522788134184756378646186893843651762921484735604195835647460196011056798644642442612808346166619424970053999286814
17 3 0.030929549064263809714925781035117587026983706722136753114357268275468149140494956515779567251637498868557837414743679497617165414543576223802588284875094232004444485073886785930613290001127012432679755808448145297249574790476333173448010952705509305831289557353813252173499374477917255712674
17 4 -0.0012836428891505301857124914935636383822109129908777796076681737422898498169661637328047096426729736839920201219144421025283400639325309563332929760877627297648956113522899268440127409224385106699289354066199230040211819692494092192160558942678993937466484577803765678467818314177727689232951
17 5 0.01124377169881423775148007968775805967603086524120508730092868148183727434885008640328002408909272147242091038435902701138630204419064131045191822932465180107125754038365618925337567211497900341931070749707758475886712322714236463134092054603869053222826730427763321543576834989977794965202
17 6 -0.014244682221000795825763205753406809670741654398707557091647643015569364129561373444034970429644771355248528013297508448287245631166257217431022243350979955053683758808732798830534890945619771973069607540744869278548147325078811415735090092817720436126334431414094803667232028484640185609765
17 7 0.023114595868050577619628847256042254687523277703357273589940591863380736503163230623431357266822143509516385756824793049525414523320524328935744693417830542665343896002248537913913794989353892750750200036074388136299578945927655099729175948146972880862546480979824806129812918434875883292625
17 8 0.0089930744283623434958313928729859659241339823251918297345420579964718041288373216011552042510172468970266932921947889579350122019633579918821958855605565983568094441633210442117020244386586794185367115537411845975097042928709760814736961100594238625580584216541947563140092440539563153073424
17 9 -0.075212543294647456322163291803234789138683229727496047480558305872034786439520530380343327727123168443762278225762930155081952804039247079862274737363638003629262274736367230438698260976529001405154365158275554953275424991497297538696915757342792736366868183783901668360600213634899441410249
17 10 -0.057283443224974164611866107171610519400468954613699716876703958827749660028877417865549277946959792987731390700662065000382910049680993246821508097966176605641933192136073236941291874139321485246873102164654857170368143442466351032824514574133147177875306504020719897266343100814792800400098
18 1 0.00093807717831170429407874857099847654558827388629147627455231274061892708134505441890989152157129054401463825500658383309724507567380485077154834591367095186977938002399503275926774327882218440222166810952612034139546497769014389616832081903790301951199258955028635272614676553262714541338966
18 2 0.00047853710688947226878838860724577042649718258734933120117259464162353995085919395232057624957346404108174543795031190875254142862948269989243182944776709399358977332644262673759545957939535858985290069726696731114326513421922121240221916103967265612626789077270323057296256348441579578747107
18 3 0.00238703354334469850783156510577534566742761647679731018622046963809501819628164364441761886864030139521764953364548183924874751693818181283129571969145231894533413692203264229408257663160318803465137690326715726076227467097257161703229229319993715264451799520034102115602034273031998330027
18 4 0.00021908082315511465546302473126217270760260391925188137909115600751945280723595942130044297318511676721455612587374174657594091890026617099751797218009500048959101105620998360074426583374953898222194858135214173977941616082061247523857809814342343364785532319986055581264916760060404419992625
18 5 0.00070977971339397398478029126822861469112824743265487670704513376184234636257135486762039599170813341793331947403474929336020305389299567957197500554682135404313431173390396940397724801677718946983383905216238538585471539840144270031508506601000939372365692302803786881894730497774003823290727
18 6 -0.0015265851740129582916880303803340506314681311868059709088817068464308059141313255361816135737379997267483132823826060141887642715127186563821122050559156182348531493202267259673190297416827786131502282418191961979710142084613416558997307847317143563009062801251242313842503792703558863752585
18 7 0.0022259638516662418720971777755353610649919428491270255027902241836120188517043309258837776968747462984800913508943832002998142286569254128234239751447302624726940913867053845433289988653565268767855980407207207078259018778337667336823494580037451983696021349645270494849866448397227580462485
18 8 0.00088710249445127032670212898504110839918722875728003487934305657333893863545921498839228659608015792053379882638799979408511500474317002590679350933400554489463307590322227109608006125636875984901191922269008174620013413137099880513473054234690109274115496014461818341493477597644113885073785
18 9 -0.0064134594494339794661762761500668988178250390313270428586135323621756591392719358479733564415151763386384440599910161266439442839546434259475842329065714343565455131139682074423613474530776639593549480849044843786787764789081156593189650254941828077726842266544869722356310834379790710088684
18 10 -0.0052613486353667947012638966859042699453841197802227028215651851194403248787224667389264743622676737373190397524510034556470196872405582921401080879113945456654216962516485997735631395920292404676433237131189496413030243438523367505356888682091196277480677166793180039440392088003941518222304
19 1 0.0090051037510715139070506029108764162681712715143003452784235545276360067215637227106380039047242549519409558195020916258358349989641558795502946613532320917046891507266019066709976424659264974525397669081822406396819696616890971601728802094325330838167817526214404146120718642028701723343629
19 2 0.012762417171116428286237850671399184405171358606801620036709471315287374301016108938675605350101797137907330046370847270170121873903384647585207733713567207089244845702239480656659236606816014896661210734248290236918529658398771139333710095828470559934139764768982001647156939095266659791769
19 3 0.0300634825675086076912284764486465109583653046516255310031899074308977170614703783979692042410211472867396103162683696243777680395571827346222844188946898972913505572523659647411746651795794581220673108365749506605503729981944471342429625526081996487653548030633424223022366954640121953881
19 4 -0.0015102069163755676552356925326257482991977865085968245629117096796806029641619673534491496630283006388580663498915800629758736447079744968257969315910619286415170341100627898984737098580594546341562845698625848173881740232467619289031422793387673724025060649130662354725917888696764216861819
19 5 0.011032938041876841903462822883074644158464545282121154424305164160531286802937689535649380197411196864274803219676367442571237857115018339705297517985251143134684163284453418556976404015238358736028754565899101708083793168695487605866033542535862900533938523183346228238948257460352109033352
19 6 -0.013637847842687624460764895271905325333461844951049080983105063569455954204832005691130853960311908743223676113083601412287623076370582594474999683495783157978038064479888987014861425187113336199010016742435249849453578053026167223257023986634880937646552165337610782943785066744767483276363
19 7 0.02223858736214575625211555509729815886557279731531747398570494572549570378960504747900094593395740857085995429790740057435363937492136849202008472750005498745853210133748934127452823918824881699918214127293111181819024498074739675433123574838129131090782120693167219842012858887266645910335
19 8 0.0085669705669423292215878213436870246558955313710100381971906061551944533076619822337699018650399999236613822970742319738784410105172024486212190414739999893468210346555789922959394510625964953834501373176104804064468195499509918081374379409029740733864154616324751599195650839216341000722409
19 9 -0.072626084619226792361467936522840260913021564038332034995124395139634546444565468327672457343542239221930523190376888721287558211260379748684322714372951844199008909556205253356186248936272279765781552218691565732596384698093539988140887040705050434353617822046543502967740609061038339687238
19 10 -0.05504624068880666307012560050041824537931357882145446921796346995033936083489971696141164668124454251724600510279031991710962131910513980544716546512177779102780181642779568586249144427237603803196749399219974462693822187323517570759952262293642152469634950266579879453229006892007673373507
20 1 -0.012428543223733205488591303045049726025756746248971436964208976454656565617431963345769215720698170419521778649910770048635032465518748077004650294033436240476446142531055313410415473805246794583593807650898643402731360839556286218510142096964650292577760259791715993779428202614120293900552
20 2 -0.018625758734097046197478715647525582094710530399591008898219869529431062220329266521639928339608301554348404437136066187308799720316351763404294470630037748283485981412504235022483824507040858068453273651774976030194267946416464261717858996435478734340288766786761389281056755828358821061944
20 3 -0.040889658653626041423563431860498424158662728338347058032913175502146651812072415112481008129263538577265252802131576445330489903276306320615292250583119500926797921057897773152467730383780363743692589908964166498238110183331704101690388126129077061757997738707515599244900075758167612312383
20 4 0.0037118188097488848964961238785400895831230391806912066141105228449549991696590451373715252658563419446942786616846778709623345237376269979444181757874078595742946033223053194190998838450156132847590009422234725788405598779095434387229634139595780723436793824310269067995810508542042090207993
20 5 -0.015675269268251367288620773313151720741469196017549724919951297606944934075162896334064005329026921572845268447421254428663387364024664345874914081801930683711907522510222626671309010298377486411334000962927850308729362758826170336343797665217545689301534956040039651962018858800631495044632
20 6 0.017347788003773771923390334132926268789279749411977018150441052230485720469288912320037401919266316342106199571846748583499899262437186287090311113346909801683078436150360216873422638300905682290247677347752092286249436435648182006272021882065156815489063578933849859761777585286626247074075
20 7 -0.02889799837896613140161583310834109075967351712843982320858737360454489185480627156060113943484302727031071014371044710629035497067137764729117423705047593897721648062970651158581779908941486062253626490799066928588114336015163210305124641210079714127604720228190963743462914971326230375444
20 8 -0.010604126181172868467448285226610234398680134978560338479438921939694265775814081887061605590901460036366061307316079339646541920087011990699320334095287125219141508822408206163741055860702679336339144444628536730750978424877197342883709599371794284368012837559398937062829192234701430105598
20 9 0.095811205558092589964980954435554163798275647236838578496634414200502509690301036831025907225221256926445262111848901352022676461626887919989830372951400504596092464044857716446965781566768088954129118119351487177491687175034307180179500276040110673153105466050581863453992093629270126116774
20 10 0.071019572622105215241810519962775559410346879716968757820956269859421655377517880899814988023727546161075573809910516276717113433446706641490751155684145703858149292256098510963190228883428687740593408720251360191889803194012422028831447815753033229833310560247156582761508648445602036379552
21 1 -0.003390910734913765384386618714337573400680988287963988731990050240002634335745673535520393528415381922646969229527334500224835008810597019670992542457349246051039128278884716576206742987892738466927650394379612112733328294069020570066946438926753974770001620284735156456848738144187974232368
21 2 -0.0029285652771554328272828691989268610037504072512505823210473586685220845652223342117813334335978091366887679362718902681876322976559190973274743790709308347377383090766122069316016543382941832364663485502474111695401798985320900110392612131101880580249324804731075253549106729782113284616828
21 3 -0.011252390790194610459031302100090397590294288358737646380526524186157876847485646789799230389990600366289514913961205978679189367246715914150405085760273253473818375008075329144956459199306090145468717525318766034567026766848155760166563281027756353239449075381934662509973784912089462074706
21 4 -0.0015307204673971606099611139375453919286351076172616947406412566550724968974891558484703252743462545322210429487602638726039756838375739953771883511256816536274201788591735360717779856678658481765057826212820496150452589015468665397951570936483024999838688333633710504287820909968983708740979
21 5 -0.0032585049471673801520196652329357812605825485811518753221114573295270088323851234178023185176522930788348445556486620747806805539213313079582604810042163812870168186916776082748414792072087630988679311084148908652282032602949105498296809456358136364455622814352622619114391138933397536363555
21 6 0.0068655292404048004037563221940689229142887901013975160467290259412572817642898044622549067632531914436575731852800367927578452603680050468298239351625759145658700091535900020572806469565582819194744287930259757663416078908099371474530572466765408635375245673010103875814541875551534046086782
21 7 -0.010250963009758427335427872862244361643496912005243706654332667091308137218745411636999810044591429980047837901270687662021399679207742501332429714926375094371367715952017158050177659171539923877180555201854360962573181703488455311901065407243548240205904532316520515029635922055656025225708
21 8 -0.0045445951858193313759902796783833805624129906395473990819934206082821889883814840218866283417746049343474682637042953932733865783616431642976114814323430444397571067989925862778375428891035998671712307850948629271536226626673956166889452923710850653308952009742763214895979791757725646646329
21 9 0.031002517292437542857192439530850981701671603841442283233948961831238486939488593925818699739543068880575626965119355822939388229543100820759308022540425152962916661519756809786596649215759294097478143361696359421469293785270953773149564455570443746328307160198964010531267201078452740195915
21 10 0.025632727396334044060637250795250073811254921639805952319566724152051390362817015512200440407325602438026756076789896572018081792394610634502159212818487521587415210905261767475942765066976295880079117324036326100345812998605245339688197811676468835216811072738484462868225028493303032233321
22 1 0.014861005878036535352811700160516777795035929453625265339111468344655902414787010521842956637937473329616726328253792937038386384533571782336839773960646905888178841224264339396368071553577220531851483489861246010707236470851701682693060441986384462780621008665197059415557647193650722430934
22 2 0.01904846850685143169911918702193068953799085668785421129006375131374039751382967793396883811717468543372751576260212398678748266748929510049169213940667317022403708628901571355395628700071156523969616598550438620528242602302829928105228310945794679342563725739222670415393534393197492834508
22 3 0.052309209921299112451277796848969538293861844300603908923398875523410453106056987967848540629385476942228331171411096940608940094106519437164765470353545610433487948299227368063323849374562902270123462918603872274723094992077619409483438362733329028388040723440915647930968790891745704767341
22 4 0.0020311564123636396159764946619826787583606057603902409127150826179442534930301087753779870939710821182430591367400131110058395212811052405869356335005752865073140165911439731185771641359906866556424062440233052817607755291438002892358086933138931078663027559254822090435040436952870439564448
22 5 0.017350910468724364290760511095083027150729964012946153563810746703670752265405855379174052715752821214271357016043982033001486854780525085873141735778813439871534426107793342048602014186871555035432851754319237694151215074443397497616493710615446471281602353765817471051424413569248644951913
22 6 -0.027124465059622105392564255790079389975802696523361366127478265598751261194881746812864065765109378536030626584660956767461883294664161423931251405282431729657461606884713170007860409650544733449399258181636675091575070250468613472041994012816716223008160493883670102813048873458456418760899
22 7 0.042469200079289186657610999125186049645026764657005298785139225172817553964798511798269965042478722902295873443351863497654622189519678307709033261033833566644141190026043764949513758128845349004800969556721480487617974780057000957052664481837255588839867770712188742036244482887849470922357
22 8 0.017947058436459095725872623422760123124651977084596610185781625228304773557304896056056957109245423262845169359501916248874514076695179048304431323394469881621152748747154383452369625405718247806571995335280278691760705454792064348683577371683655296582492463560933505287696303557007621915826
22 9 -0.13480152951954732428668365881938836635780027539922551570261493460851144519939230249732591912642101412842910950176288779981139013513272963563102449726177058263096815493919698321509318213271798076936271000885884688444813410142820626581856091592756460833979361965769658458936757028657901575481
22 10 -0.10677331339578234741197598795509459311726034045481288481835005103857158879177685927802974505190353468431606904472196170172853579845349908546379212170876268381063006757389214003459172086984352744842979463210108175934778943084354477285862832416520049271646735109765872205335007383492827429094
23 1 -0.010706503087551519532891770025715059086045793211438572325595527335235383631063577642873279176366790164201062388931602335191527038948848613811629420771957336510274647805795481410591140529070609423966781554195883453436959218149228920106083827522299424558592254671222251378133458806667692658345
23 2 -0.013197848834812583594081320219471689856902756413813092198944159492577995000645209994699302864599161428262550813937316038802630098149981270584627118366053223993107391749387775003990655389838745145638951644026011411553629562156035125239137707331548353885569517776093736165982423641002993218888
23 3 -0.038185080361709589376836300759428654546881373442430406809936060325343698979387804675055973377255519592622117718965364587232460576561832949864734714133174198304306276387212808947725215429991991880008642107481494680864577673094062875258452273329611528047171896299952806974331547976143768658172
23 4 -0.0024785786252597112848941769788064624875009950025802856208756666913586404323671258928465674841586860614790738614144390121778201696683640145982411812862686306245036180548337725303670426397858097847733335075254724030448127911877509293736641016122637501300206389029177810894560761703477559960359
23 5 -0.01226836014498176945466635381729929123809112106620773133145755344545073485550689690746056195295240533422810065982860308659077941173804949219919717247033471449131990345441766615990981785401668199418175635258492816947642829261992234762325268726298551229769252518961749356854679666631890727017
23 6 0.020550578518426136247904147000589148753664096815670212718156711294032186046832723203063729933046301033297046508255551358856214197446918542381246476810065016050302537490116822979205637844385942259873289050572737251357504771202430752191546209470937487451826564207307210748484637326738052216241
23 7 -0.031831960356312593630903054129384001920683422316207935018883103167191179544239119226641189649656559540610221507409164017558714583447166366607447999497129827610309006011288124049644309851485842226447798583713055659151601829555357038103477902722223270230461775935891133042224320560205131399996
23 8 -0.013750827231671394882072841982145103373959964581032328838499874061122538482180385095018533099800937754436495262819729557421068942791285201771501738471043818429440937865277432702885056259225475995395816776705549659396740197938610331382182783653495486128244091743710215005547971099031727106915
23 9 0.10021159691108789559697549505801080043752299792478299583596223080171023135623448338623118024911085528824586302232497220569695763565364872111888435588520844707726951181468206210072202539768325888007147082243951897512517546881464503900412877348021225449856300355633386086510377361574826537798
23 10 0.080306894488274193696947030155098862673244230189986306805080478224365626819203166737150935203286460758053970785121063978626555095448956819560992437385679856078177823612869997688814135532284005151700091329427271761441923690065904228407552129345112995263907514673341795332466162167598402661677
24 1 0.001733323820857213504138147146126234279545350536831860561492346586988727498656422440414319941897078228326623634839151735265645161213111749609207687224145278050101014446307559126656136402201445340253563617371193801422865966997996468737008264725038219466593906192814569714730748470656584052109
24 2 0.0034299941769795027280355477769294341164032119597180954151343169502086139935453711784338885988265256081047052989327899975456406282303846464192136241948828601938721942638368786215734577140834037331488295099240570982678258676795530013232570947304699564323796914484563184149256523735078069840127
24 3 0.0043105795498489040158492175391828760090781577277276004932113485543415153178458880895468506316761637535124151824662042218469832942660248806350129786465918505862066461515747666561143974600355567826956222749688613754740221265238222372748501460541130266423520600101901806006353222478773126683312
24 4 -0.0026118623889556552514815680511548092243055836143348026357950845202710637170947708267835564511859363433686135600221304684789703507366817954635950604844093351683450159794843120129430809626245944074628222647536053160719490709771531806402361768040362147587370379730085820489074283322384794674951
24 5 0.0025277728375796875437551385231530136105665369997533109208158845658996671348037350754824333781883634113573004194014794678711357760453057659607872892495586255288616322121365009160533818679113418729541978315122250320020360769597549105545571304952441184462267488694963256728316597334379966330193
24 6 -0.00024620909424050365337488395197488759003384452583160895765652087589300369169310110638901093846080935314144651517284602017448666730718411757071274499166805375168356296096316575312147121827228144751484622932633931820508085062880215985617014643864942431472676660635384322089977688297524214127916
24 7 0.00127915337485791223457239162272933756030800504580915770232673084384655049066320109857082008685590921742441906587472599735413195119733020953715504705424189767841665670898425895327499798156288523951727930947489027292328643163675153134455578054330394504293106124329854413956220613216706334898
24 8 -0.00033045400022460576443105881105049942489454520850934669671256009499898070638045145825951350244386296764014269316952709748832235399812604975759812776677544200456602044292854118424710637903220678334788769994108985201310464523785598020612726209108805824361574593084056462090382931174583459368828
24 9 -0.0060890101192253128257898599054698221531975321700455692414603923135603366623798197593837234576274186682202167875229796838206788318953979142930336267040204428948851487370346795563932286284454965567101295877941187461433937087852750935320819638081739377497742135296450348294938627496093938459836
24 10 -0.002268815893030889368530422515650552798271029629747755843185958819340319736425006447259512295206747027465507706654656848366330866327299815710381815979136492758037685720167720292537446322364010748081803538633711959008943246342981414194250107667838077294064130414721203458718652365022012077258
25 1 0.0084718119022580514672507368992572344223717822567146585663876078250359582683729643728472821257743134597398481625591520263002199703295332794453103751960725253296151228484423160890751571806491153523116711425774165813040648032193891863113887322898907187793555056229673674753423597644320380444831
25 2 0.012195592984870700534585424162179801967406144565653853917104633924542244003242696069328543432196800776710997196498601754903816179514022824097750486670555588944008590554672274045324482867405518103568920163812533307459359791979952803378935219635611074586443383460210493799950200811935993666987
25 3 0.027591890791388241558828721490095761796493143873230909112863049363845465776082005708163298575797050864440248285839048561527881760144615520885235287713159523692470470795847460703579362480678131777083337391028636347710666456896687881077277715525108917901709644223957817839873699472238654067723
25 4 -0.0021937394022714657634678099380960757253430265669420144429063302149777232008788440532513888332913086891373035586922663520451452930862524905318602038407092873802991744395437403391112912741601582721688722734484798955653256402742911767813759550690488421188803517842285484478578099404990793211117
25 5 0.010441098402785807558638141759449618852034189160520057885108782387610322442363970269104636997747225048110752797832010269021085322797136401969856301699328049831098282734231658403867481648808779201476611746571656388064793544110441749783306336178144923879975378373023453784430627020923242375259
25 6 -0.011997849591394010548114001160630370615954558803481257950201595994192825168045336153048568697931732679679802801338195070716831384664828389413637884317285909455509592581400057708494792679291455625254438110864444121795135179769383297859453565419976715410966543381864001013902944697473843544908
25 7 0.019821343054303152922510292658100497540936940321057175178931791320426824230827184762158211181142860682237929202183139737124357402111468343578634207034457739894118556253726647937986105553776039629908644300422762782633438216852063305679711364058161074195582558634722461250362957885909510393875
25 8 0.0073416091446810512311703122905848249186503391849533209159122656993297864376622829532834671893880298800716392255290118047887176854915122768119165413632718445759178422221258105063521942073701041646010687902126830588075003570929593371394722736460548535165081055542894723803075897234358792522951
25 9 -0.065212471121684131782818283570859917023104308989858920649188435205996702190431794436957896254546832959464064638637764934076280433001322333105694421668463605906498815068904993875994250401618995840861923587286053129654091345763239144076529432254031807457459806289795330939978896625668934801714
25 10 -0.048664019324888419980212971290973855725333213853843081481160957513342108703281461342973361464494262714455565546048321334880431172129208626211203035004936967016507363180432875721605358657954012410558592291791658797644924099529588577655418882106487534157797009617406668096916988671309154408046
26 1 0.010005873873510811915607734319520016722525502642803595451944830058570613859884650826535279169998257535607290297752527624221906819538227596709760991770926213887507759283723513316239519588398050533998533597832446168612093627899696160714238134660667543920160270031906067581476577644641150951875
26 2 0.0121430454323686853249247527769711323413508880869000622608525183069579922427966852429687218903584756935151383779960089923810056770197303801237508403088059480379589428679810259835952889475431087393396404685709600913819676983923105528724020397169929412783909123377746152664894103685180258971
26 3 0.03683542070349324628355359060288202118962799197687872145783758621583715265903539962225795455596181869180952130443232458742611046181061139977571994195269114471092413861406533003224833815057057968786474849121930219898297361990295236257580168506884035915027469722570515364668474233534773062308
26 4 0.0034562554141228688684373649966893399564164725849301720628451418024159173964210648461811689328659153920072558891034721156085311936333338682869012497526054607386400747496141886009881115190030763847444917240052084352886825433898048136672335019566500610882195041017466835683746152938761978274609
26 5 0.011426779585426534991882612968753190888062838351024510660780920070468543824936997142226337812419209081932745731689634879512071457104327308181481625911715326313257943719059414810118589594733900247554324927184676186232095054365443317843346242266640616368431599741842013605944839796472880879624
26 6 -0.020460553673890288568179902604387594743906027790587084864952622540400540776141029686660906677675792568197368502337850809417852472937996522198964235042877055264089381236642269319113535925314672207776862755415228024093111015922909533410441505268333950279738719632075829326427429455373593097862
26 7 0.031443120454254823918672584787785862813050557107983448072209910795575361960062860682671410436494244825770433604644345894614666971906785633307782373468447851929943503568514412990066455989841363893076653822529437139118280752131969993277818361098997048036153542490478472612740756078117159502191
26 8 0.013950950645861294717772810013999916278268295418496477145076270038105491737338515400375001957750038056446867716510560727161802567372372249552703525028836388273580566884898677646579771247355711868445930928640950703978308474235955759366834634057929218333592122253845295508629998478391915993767
26 9 -0.098557887195916937667977840105003488671935722404491336164701878776435207556405426837703761567316803275278608286169512992019760720335798306777725513664765808291131354188199850554487231232613110797892580894492409157827247383842361927710101695357358901059178106316877258255227935745059766709412
26 10 -0.079885438517512381583548593759309122781562270333699389166492786173674054148704671010703435844146319510214258192009501700752927145228243449548008019506872375831656788803073227678799228575450306172875843308592366735458486180055339843612182526847810526967704592142548715561749543038834127072943
27 1 0.0061235181160775377915290494758478138901908599199909849210106359323160365782897047878597473071928570019441388885949402246431215137502142186869683258905998884242998960514231757734387514516238572774109413923671633559195016678614902528575331546922312233335744264136687086239435649299953207985793
27 2 0.0081410699360650849019665978678802750632679407271759642360186532981042067121599583038832734195420090495697020419707391640920154063571503449451006837477306435330939271859831533356316885004748563106171791354765627755316536742692313673710198683951248562808077749146031921611247433537203018048055
27 3 0.021429960980755503564859572125115341842769772171293939745671928901395838394963726227823674629514465485067298775516927752076673534479399639601318904335601125914551159837152863238538356128957109246474323741499021003458977937942844140396555381152691802300951617773777625530068535996610306701732
27 4 0.00039922757897486288201279430574430689829056192817375257461303194631534373690775294343807521699545926817257148979641129828344680979802140337788983434964256185450764304441181243650057400140750356890242535813240074196245159246079285615242442945286173050217301508948408351002917312551547894234157
27 5 0.0072843835535991792818556937143661422923416012931558305706794339528414693712032929004966104592623638151918795676440521799535884291940337956431889920024588701184856772441045809696227403548955599469938957009587418240732641291463760537187543349440866212870709025735918075285084751632194179578508
27 6 -0.010771333165854203555672208606955446900845371983554701525268923979213002714470850880964876149733939891447982333720162045005927844340942194427917247044562893565914104395700809919241858710114264744663474282577741819658451964787854778287456030235159379238673103205429181174423172835177387924752
27 7 0.01702361942964518673104911041364956193072386363685507647305073876617422787842716876252418218922444405015054458460392911960143891109828320126907571268449087886302645920305088299282418646299357995869816031186555213869943992691043430211662551503842703258044047064708271159249374966617314754704
27 8 0.007072828311297440862234292649754237924521414770252885007763594640492566639854787823264274942205947961986949590592493709486215705753698893605838838031924807251004123018531247701109764975578851653761866980829915487725829337484387110029493251972106672279773187083058482739392635170341916023956
27 9 -0.054438278631745648021687055782700018282605608068115677263018166383000211863714811228263677448561664619402648073383100962278016654745939851007210125436329168379509616692180782050235126094595244603193457758010205473541660294291672520865331118517646966686784925351796377669162547266765037916972
27 10 -0.042711132449045049128004456757896700755454226672491360843782443127552628252376721838577539153031966900234435330156517375829603613577160410519877879353582693377802110345035381757725096041557981460930483239967619839420615065150626005750215637112930133548420533847396993725596304824074692485732
28 1 0.0082220757613372543588850489387206300877544404643194594937228313572852524028542989304847757697444067148392140016271546949974825604894195933128360760395259700388022702399291250229326789932257311088325181991576901495037243025876683565098247121680454614682290327389451280538794918451771220948289
28 2 0.0082627463854318092639675295658682974380968211271084529185815509028710218028414612661872974052802054250727804850683172107849131259641387857393759540290457949938714473410232967828104582490225649439186661214318732918441014236974031310053892729700205441371004886584651523234673591355316130764914
28 3 0.031677519483774312784571933468267990416513958753026819394817475677808783642914485515946601685353126015258839470204276061864294670251724984020070707332704392041128205448459196257878862346604002599283538198959877568758802103990870013534091576895807841389941060527516401748385518299642434355934
28 4 0.0059512622659166934674530877230757558270002799195397975511787073188722726039874205461590744066528194533828884162933614182837193875267564799047022054509379810444841660280463043420011148704676152953480011076834283145229618795809895462627108231178440380123681121409285562119868367713133748391784
28 5 0.0086342463683258276881170129410275600862641838981389227253488554561428035985519138155835493098931599700497080739540191096134476448009703569309194110446851135251520564069380955935159766322223882781104843332190289108341614570129667941297642837259846207120881277537113109675104487419801322104985
28 6 -0.019812952496092878077941993208390882065703286208278464852777805226107306177732911815992371587095259953815585576849342633051881508088552667488502440134961769340890098988770307103125727273505830203569925895248153342054903726261362877913864676494708244576257657356314427903458533996108817242348
28 7 0.029508534487890278738227686930052268048132919114127368222841037948715156006251011603592661076263317432411242874710575991375850421284070819425951609824238013837777781904797301617842928923189866645677377292799752407629133042390965778612254866624658331466902799645347547223776314760034944384245
28 8 0.013920296248797153490710758099774639367411145521637806382684920645256204381602756305607047082969488162630368883395233141345611733782281578435403476347604990431018976277691973205054240940336573008606135167878084501216564652447299056377656354261018532880922634119287651112133104281446010857372
28 9 -0.090139693899463420577957195282366737584914423585728426565953838184034381891818525392677792935256460867874367300075471045515327419765781572856612090546038542804613375158021174851253313980223208564073269129039903619266670222701344306021229428302226505969673152854672166824165121930122003926587
28 10 -0.075718032469047944927656014834336035605183602510056806683559245619559483379174712381268485021417178906655708091485065722981637996020295155661413388650159871637032795247759982471039081861937224108051755895733392225607172231933644978667341217520767774985578975965186004564221635213486904979328
29 1 -0.0046737081903406974464505270311144446401188940690968645358977637599406908462250694609696078772478386216806716835375304756513916850316479973031641531263100532433500476297531661612575383022553638347177340215296172121477094916515405736490230029658860536341310102899080096936211561621934919562017
29 2 -0.0096610652527292937375661744352491804717876440129533910788454701676162415025450601739323422194622986445983213992603843577545963838880127948028591205915301016619641645613342041808037853970619530901312390708486253811591563817825948962928139033418983441664512429745588584924459319259866740780844
29 3 -0.011945726669090968520974751986669338567967867926171231046851969493309486352988867297360209950039479702694578947163045691798552083559692348982812941967684266409814424995826172530195898245062552139754150968538457033360105440655164389578526962301571694170273512902926054726907294699355778377191
29 4 0.0072374072227339012667269787783462092004439451882138504533655181856269669016059235905764457906586180529899010966286797751207701704613156455542822154090441757250905260437216177460338925894459572387694147393703379312395692301605925339148888968256451114016696860639185040830803787459540940241297
29 5 -0.007020543950089168268454108378598707059844422640580078622290619427541279934265017478145167397164146762917859820656804388534126875278586468350916187322613265650628743098641822083555926239604921122077691875304812897282066903360927512982335857497113958931472569900105070205511662620943513311247
29 6 0.00063631108044149416488697962686637576085709901312750627442616235466846558888784162566277035370244519651250601634049808925097641167471144892416175579822826182863339921993727753107667421279124729827357894086876282575989383277039111798140170635445378935918348901213382843819221162260398226001199
29 7 -0.0034959486153653219792957680760655291358395468200489777489789739062649986481598031894687120235264987956675994666366735629102675585668133580964720951525226193881339151281969258818578014004851109000499874133792920221999935158328454527986981524765176142918861262645942463809218837795086915066587
29 8 0.00089265547834584821903923883460832460685640021624919744115550961382452821463943126238759140469232251736993330873264910461924011195953692493449905011091706730489796176706633270513121758240880667094056293359682520346981595327597494662764465482678433450689583780370528811304332500087432248337386
29 9 0.016885714192153284660494180172544322456369997522623894830280952255045602022728278885202297207213487155810665026241143146724096145101381944484079379196531048438268030970699085679479955540446861094590130580433597786038885257625433385852429524238468459013799500631352769612754015767562413007326
29 10 0.0063009801547099191914992553594875053924189105415637199387424316305963475407387081117676686556784289958520034526649218693098601710614997412660416440821121449878416234790304612413178101197291238738875433738534227185299087323447940439783392059828150924233217162676127312965535061471467335474105
30 1 -0.0041350102886490271184576358024215072893603913746891469910131487889762945827246148071299354211672652530752359382199738444612951979039073589497650927955716605323285427706689656507951675775113085444845107550925229199587105515602043126082695786973401710727573825535713322776670589629139656390518
30 2 -0.0071902593160522038664852375985466729845203725836022903625933465210587578033441682590435155806740331766393521075210879838017086461119238502335759454305341965883509815398039705859905157383716070614980362339474388308086386068470583657491704709818917333661172143029228416707097392029289920319291
30 3 -0.010469409235226117450451825636435625583548491464733036800523471391212482914097271625901185989280264996516295644719873387992817495531085061332544209796726916996101320045487660979476423937440298321478744100766044877713860208131859035107293193888386508378447782878556382245909122810768175014896
30 4 0.0049287460572738047860825719955604732016963775620642562619859393764815292792305682043489966824962577126863146530225369834517722617260813559976151027050094671164340799345759488867595699706918041744840404323136084690650565564766859109137132411326552890553525520713443331136431861477927988208651
30 5 -0.0055625285940663185442921193988765137471209415387679020544194923629926845090522820289478964807819102946258652472251533377046818998517892481950592350381097565453953209636018561842496491230673691851311477351168624879274204605454873465372070267165409711691420632523761864676546274264805054938512
30 6 0.0017563898228047607420270089424089658895977614267787469077524662060372671994848616418978695939245009663727311897039499639603453207990221778306373131248532158690778018008540241743439024077437846765378551915048164521646996153555082953254556746430401021544034593671582577769961936299717237094685
30 7 -0.004375489779612287335595275334762639903462071018144328007421685821021996287259206515184565721173502652571863271636547679078370619135215631614449393818660119541038110424263203879826666990597521091940623370659822038576405356930384682505841351640535873790940602510782503024791817142494224382878
30 8 -0.00011683171204392126864305956057072535716849312484485365239131021792087806022897078063962150705370327729238375442557264034148856924563907870036447132490732979759976295010473652678556059145888287137182665041389306664774509736482295730561585762380984660593979243928728986609094612547840321638558
30 9 0.017374795496316476454697166045921832233260689783114449966799873026671924669302538725753765699843900331401596462300118918350231174088571298187332084266427264774461102911953295402562984445598516543249326328781163945795271280852638275471739507259231341748602210302184632604824395332502318886635
30 10 0.0089154908753642155554416068093898762107446861902701429438151606544404503699073594975945166971877882686968958943479957244137736620015183113058273329682868400529871538406419745355732277026517877721666769500757089561458960182095697566119270812633719851324981213264158211431894893618880318127123
31 1 -0.00079341205479137656040722881135259755818348326185364888455560425300448970380324788630773897231798400884629371850718308599367874407447235466864919616279879133487309547800637164065701989195655763470554115810973291095673663280038797321880177944993564153271922093854811340943847992631948020314173
31 2 -0.00054185304154502623657265312655958095274986439601667969481527997406169352078407670700988934199151461167628773672188646364792941424553152715997247611185000181076638682052830551337953072978736992892491970001863071898189681414835817667323737391007345708827047607964369093718944269404262849349911
31 3 -0.006575564349611961247753222122567091248146538407802981086692551921201937651711607807707772701003207966665080947016801853890374500260907322948042853091714307491282796240314877338952352568115175908907738772566418862795190796906468624286589137209246300792869679527063174226669197474431277563492
31 4 -0.0037322536935001200450328926756672353577485429607420964074167237735836013701928647957700635659841544148671339547840067650859871116099777181563430134604291526864065689832017510750809384354853723049837291666186261210997606061237822347066463787626724358281159733666412699532529824970665308281789
31 5 -0.00085556260065463371658196212895482341887613691098296668491946593855429334950207316580830861389382823145473078144340651370432394177577613133149333109120222355449884671372500355345827739468900282723303097850200778165089218971065622433400562613418354454258682582472020911344123390336623585345822
31 6 0.0055922449704692614810653584954671662913195686303313016721072453532317945099610630647001870054670171318384031664913874484235076811081442507037964438614507023610967134937549728653873780687760008334843267707709412121923896683187155218422418754013026576117975000715195676365291633435982753642563
31 7 -0.0078263416300030858290440558080123831674815869492166538681217812597380588892754333000108670037253697102110379916151494919399356914933249101778899143980181781368496248727611931398367539637431874789686563379407769759903823885469986372128286731715121991252191749862341205047431344816907104387199
31 8 -0.004541223496855731228336485426862975185595516449974490868535891430236095970116297670183021025956637025134766356159229882472157090943030172969641348224502069894797025013978398786608497325084947674574467743271260810756624540309488860726315472704216430585373047518337890446185664941177571650002
31 9 0.023173879686991763081477022683802710736194905811403273300616359599785017295303299954043468744679328423839089423598814676816448609749038836996069345219198363290666966218547119744560626943300263261226778476661440489621283184947814481476603068165696572757003397011200083767521980463707521657828
31 10 0.021450079541525896991199667816595839556053187728690851064522996062570896680878817820524721020299008981396900811010193466621441234061251851243870607146065557697800173444062749741738567439797914462166653630073361730155078581207870003994524812876309795063902779799707845024558588146507810157923
32 1 0.0024068505629029395613101430184407925610633147287847416117277199807209036149879312079479590563051384135997326200489782986433453165807141432100069567646112930586388290987300990309561950009592897883935907121081046330021318545829688978259748263507729889694816870179240078482317300552770712446335
32 2 0.004338247726419514537562670663026704856127841936415330129753836727874249111431419480351685124501717894265663412300232521154140182499012211160664249319399437746875236717767800052212549733592083048551678545709350063129024745666423200661967280007579105207177225325315161043795969966687438442549
32 3 0.0059486292203099094139796833940500757122792007544868693687196224330713427747715932125875819522856730686396735232507355597557518435899348674730759604888908697656011794196171488830834503003308940808147598505989464335804361520587729166977562490869250241248221783137129988803659249405084786070974
32 4 -0.0031685652976667739345276155674421058294133225150188467909058249150205445339286569068954105139245578455303452635391415411649192814901670887203149059699324982801423849322889329768700320665414653967158665737419967287201847675359168707761758901869971735259868894217493217540281254287394373508283
32 5 0.0033062102833392956500291179398464271869072051499490609434362119934402892866572785453431482234170092902128101021157598787411860299731854239307189167789470884321600598270777970547056220239389601060662939895687452638209768755630539382002975288806693707483364465897921262579904905367908099981623
32 6 -0.00071474108946123302389556324530396519521123267191892705294805771480850968605318611437052548885985371278593222860534273037274283321884747576937535483084365363090773351763515589249970667798352544602126333808839967070659655646522823636303486263993091011712020655584746702988828853372751649359266
32 7 0.0021742504042875039140745393911265794958345822437915391706470455277292145628236156575617144090643287671921021013937436184538165640890821090007484021014224446957562088520629874550100691223536974597377457112488972605187787154907408233103105566775591189239878491031422827974441227880480784403412
32 8 -0.0001777565620123423272725141543290786277778312421369276229162400855153966159698553210840427738178667378116586003359808382544030001800749653644882814888519317914813859504245800236523786943362761793851682686441005288270259829307899899172204793731472231394505856418794530615921494709977875056094
32 9 -0.0091992821642166684907111303991682494439044565201825426854621028611558848721388996896198375034355145506202973534948765140416507422085073108440409108123132374166059499093482569035671262619031380823919949633828822844281329089836951873133656409003205481547912387609263997644016572293033587208551
32 10 -0.004182060974168940228762814745398523732969843517465474966838770729039491097958301248019547104218276283550660233604944489901710522762135794734270543823578174693403568840515615893717336377003497605238195860159360561710413303298093275184065967521585947721063478246430174446690684614631881170965
33 1 0.011010918457309135421622942425013226261097964478529817144462908084883602777231422296227292866420629648769404481248198814491077297084042944269550210839358294154349790189721225308019434744078609871001961921443858184898436999506885794583144312302034112317171731465873189036781458896373410810619
33 2 0.01412726933206170378950272557462778747679070246071875270346649764458786058308539739766855651405300662289368270658599029898382171333278640562499810714489928841999085812092376354716162586154086601558447426570733105895906923213680441639681825468399037576636505680727945653129376642863754990576
33 3 0.036620467724559707682276480267008731262020084095814301691963421226758285661062114401702252537123285084082195208550639946309024649673877461409900296575320396113739584611378396097211339136035195977230107235925613339695409527498337594382053489265683240277765776690428523609824209562347824843994
33 4 -0.00027556179022204393528846115860607022339497345461127687991534983732305256492928863508008881496226242565880555752210269908938919951974764776510444116557741428415676965947585838417564304799056393414912016516426552820819294677370269257939313390514268262980266032160276130630326066506332747291834
33 5 0.012787729257080602902741232291656839146586989952134841092832141664681929236750990338858624910139007886662878583040648642921517747582369022940489083625119907340815550205220410024214145634485582692801340938097666235884276436952319615229716079685392644041061973568749795226913946727952358012895
33 6 -0.017914956843521928072567090811680055986559082541864729228646249086510830466678720713852761057822163308081152487312038157578092039903860727254335354885629331407863963789662305388235106928033701969361997980235177816424891932163278477746660617439859318608308934619717418322422201791760131337003
33 7 0.028522525208486988667963051698304051353199236074036594263478286422013127998413469048461581814953551997872382042121108683181467126221348781909994012606963524959388297470994443354522159108557915852933949163503903385469074638096982509925047062379900018057312567817614331642068178967674612781809
33 8 0.011422823037196670323823392002611755435025102084328040301789560728760260627624988933514081812721122858963052111823413921912363019594714052842697388270339037790262086865756250219757579318922159755328258524211007318362609939451568940787618308218705186799355765618836894610339550139746553253688
33 9 -0.091301636800887321017244720763237432186947827479298000423313441982557379328218230923056682450137983188953989799785344495924046922725877505631907751732170045285467411231906777516635277014245131326764123295158273464195711198028567210083161670037559994038332222532892016689279914802513219569932
33 10 -0.0707779430649094300654678873241878186639486034160007366607982436564417947829348130766115665838014246801981115363338608177795408829624111591264187604343267127461795197802316561657529907594791550149052670007370422002410272886585941428514427366005390725032642736467101478621031554463616435708
34 1 0.0031725901758002354703622374825621294581863711301839089509830228171807254645181931872460036233728016047488608669845252867322618114348333063130989955481412442315235440329230816845350704670218869732235599223587976684119179186304392788808028184384305866757766193624755853108100380278771910661106
34 2 0.0042072537656313166992491466196665201211843956476742492036636932883863344838091494879332028454874506053360281715699971327335555699679577352941924751852764111830148428096720551676117990924147516426547550578961576756483245153801342502083571404220070106375949358542800368624810816274823735033358
34 3 0.010212858881600911453096919343657876495490643095381815187179915932588214623484534371600262287175154878456740341357738212983532535945796302462453214453152505154221557331124617329859099104683768725203157910714002178655720109856454361611260437985221058261657368331798004629319721976411664449713
34 4 -0.00050433010741461472804825337323043188087251902871257915959710747460296730915092285008781406206873777590659936718570434838450237027410400176078216414983640159138009168306185687276083144184861452909539563524555846507510430037574882265216844857664589300580709235529294386800870847168189813284024
34 5 0.0037308965166036546997247798726666753495300412804063662936479637594015274225648538731183941037416095102449115878153168293715972179688206441201358151130182497974011043127237746125104309100137446678339528048156909320345671947453976948272901110297531401138295166099012485202805323678674153387605
34 6 -0.004725275106619031918054692042849026105055827819303248490400711357679137152158241037956864178608408685186547133153997506403092093529291403456212456073241735863058739313658048583070467889983614601951193653807337563730071076746281281772386305181690029456430689855920167784896608475387945702896
34 7 0.0076412441247517073403759418551877647720922856462483666218607419072543915001905901166129115313339647577280340511823900992550875682623757441884206913284643274976088322329985439871704081348472833620552326467763394909526050684579758526704204548099897490791783867062562032995650982740029376214472
34 8 0.002911779886145395711681582263872942468419256831258562120528788635027501231314337796258349058358447670229970137704825266393587902086512573264135050699799391271232799779902706921928440037148922433226872329547853398030092297506511976730595961995783561890436561084269391809929414885512952350394
34 9 -0.024704578989581471314551432545598348296258417921862400215976531283913500693914422195066108920794707330823466665141015421853025598288576400487058183178627258611399964977825119398821471710672407081531522539497800582281994127685055674372149500973234659568975604477777753603350903121190022146819
34 10 -0.018764032151549264311250191392787499315792638712393737639559203401705834088855841134334064163059234015462348131122644452979424804483564500065652163978023236040581026552766073265251074821686739627076492474341353429624501716459123489735822010474963740933804955806053636428340439756221430922799
35 1 0.007388755071473577864990340696019097738804724131176502299663371794807771963168313032446248524665128643498019922113823337983989101736890707998334707169661468276827054826301186053224144862142486010602430775573009736134001797361319221293599970648722774325668405101805511768866855773170119059597
35 2 0.0091241543099497731395433189609087724050556471058554154404403406934293927072040422612185640239924769070621822040931698064203628872036102569344463374482429231751336699616143485010877484526432833842215651963117675463998174423493658801968226606566417123987859073596300871214916622523238016113819
35 3 0.024784645544108641469110471397393325181713812169914583569595734852825001915339395846583918276043116152271551555219764391926366432324485931499355915383418583037665833694149218035870391024505729353616519271009298704217936375621036245156146132689028690309893143197981489053000380284790678992405
35 4 0.000394334275334484593665810188393197161659200755326483221346526878536811496179803774395203351897586512806543774517956034201052790598849946191298407995094795235204747021121401947302755550724780845190207686631296005460464140746596429926435489575753178958094177267602971945508056720504437656742
35 5 0.0084201387448893795642046974686334016726898625889837262064780461425324100303135241011488739395610746290471007728254404943896852871377749285472781758564312192801327852283087806156595561568530566059099932275827289274300419006631811745526214318074163662615605864928894343469249346406639058497313
35 6 -0.012565405302562824830000441679678001191973916647235548865309609036132920346893159755962618021709275301072359297823752967168448382006759120241728034844862099066087560231692216031977817706388083474399454231743525404700883329648380166666859845088894945293083936362301733528276045446523573516149
35 7 0.019792051180221797230460924758085937084735278028767795241416493500815478152681922375480788563596856657058491522358482937155143742667624815237106375785656243473870985450747988735401925505420133722347142900624977537101381157023370640790759768244753701079016928742204617939673985640591024103048
35 8 0.0081049769991511571898004118276131088307360017174193036328481679234196527030708071216979487444465855275593780420752897718314077198533998966279254155197515223762405707904525610961634781632923470312352990853908566769001410824972994289780076584840738770356098028684229680155234452171897312235738
35 9 -0.062843687770863281068889825645470515033204239523663108371431871922408532866371404854833991484463639551415300294224395632796352485672823406877754890858555295773474549832228217093136628524164023266470322121724589862146404728054121095968072907094345889077522845944129495889563172481247777851558
35 10 -0.049274516880812755993808238870304729552137876058787345919142479715859250246167201595738394632570046132447650087875537779484153498470648594420273474863909757793061768331168738416418925646884193820608047055287874966063042268774902123404812621957098726314095079117361687242398682264075191475098
36 1 0.0013836993881715563921341653977724047435035029118145191098887304032343647977471472472383593706889395280865192168666186498086967651417037876972834157652029691646339875236831974432032790618981722887448761083571588901090091974191325875158601524299490579414716188767911469182420884134095827458699
36 2 0.0052022073144967866243519259641301999971564817564720011428824173385915640387470679150788677703162902270860659137285024557906456645837760720678994347219260165513821389316890867399440487441228967501862055965037385602588859727767206727833981871525734629152090474829219263399163928669815423931023
36 3 0.0018894001829411188180481033090041956561098124306647037208827219311431822706492543325298098256464173093521807850707065868341253850353375397911690157457459815725269385684736612906166394798524049276556189418023071132927359886179022542864071830370126804314709158111968136297443054199535247978923
36 4 -0.0061768208306450859676349545862892344913413038960019602299938755742189363001396709106974196185986973020313136633625324404495231339173329276247858799605932092885679410830212717365331249029085863588059577340313277195654478222063794038484534995956817472195108629594924733953137725899288436479882
36 5 0.0031302672490834753381718384889172760456803896190561046940544013388236484330303499902546818009777038209456759964875256692983236413622862210723902137415798656428438479176531336972182624344848268621910838627496840476016731917447386091227205094478998916101204151429070452348963228289782917718554
36 6 0.0036759030606553886484561779621187749818950634451604157202568108386791539763060601905865132992328571444599951957519128148269738210020384578105959169304906942236988760698298498563943684426134945611141537665490014513779243261124556318712219146540847045618557898291311476928548141852630512116584
36 7 -0.0036350350460998243034079083877643955635621023606413758998820111595199297770857847647583843313715548192203159226770840750546494510196628569608658196069228031424870911779465273282634222108674004734944667269859535727266368303919186901133436089104388927577988133414305038953368275092313743420516
36 8 -0.0033966121971569465666517548650091147126014030216173024126501364922396234968413126093961290259019722105736221327318007697428525368763416501403082617514290158674234384542264075047381117595731589003480277332353512016671976114615558944123770981249844479133850642715085196060942865758177637982844
36 9 0.0064394971136231010814130801298975819935613221066860250174556663423842002994440555867958476030332730204674518202441926492066408582673763770220848372800130793855986484716424865674294721540074974517485886551919861591364305381948047889893506690618450470468225069444209896622366371315348189626172
36 10 0.010893623157265081537642127364556949975951755083825230951274203511972132939288454035405865030496901445959735030701532665087684713186808711372569709417182749497756785458848881100639576743211345354768071479793524071906164892260141931418026022470701305434413148189855109711382701698953334518075
37 1 0.0020267974952965096309983631050323429398906701967031342472543276624930417345129795198988370528083982981879353293394577997404353732379971470962070244872876761071153047922238949749572376538232712508711159643609177513606047871864040056378621611189130335146030701479337335436749842109264265767886
37 2 0.0031078073955275940134596345476267532940874384204662018738774431808465109030913028020804636539410313943072948650417788814511847628381525294399905397104336004943776674127446345872572652781079847988777207775334816035127171267844444493953414298527902406742864530725536860735742351656315892710026
37 3 0.0063689728580564450450429427580192152856207202360158690484447751716583244008879151921297387537192932484342756071635539024647221661445664297637459420891656346011933347457063785036277814073977374004924811311966584909732004365992756175237582360460661899733454756823290189817762250080425117091358
37 4 -0.00092554608702191844423975626151888023798925736604084058483291418820982712537167992789500075891415732356997677568201103721311554886361245893972436281904013873881404410024365339242017923926270955925587274872794452605159938597202411944306164854579455264203642824327436019995247661244856486599321
37 5 0.0025757179921819165013232351480998268716742346651690652072842959891340463505055998940525669053388921321003883826497438226914583615432339887790544293212421489666121335031797167212587936020148369025115218620068216748409338685307683363579384920326525354980908297356461269636766234256239905615653
37 6 -0.0024836016626715625486326680736762353926206344415938842237984643973863028419815689126001549518221615893381661133559297784868327321302009726315695211777637213347632207588568098767396397766838587213008211215373476701083892281310859351526347347360865691281767009971496244149893895715329932566668
37 7 0.0042502908596935655926607229612395600579363872920367210366053027217470992952846997410386869921149912596891249985672928135922581481857553308516893433546670765553403889772621728697281371066727632736488350554599620220772947711037819098934501759233011360027444767139192382083805705468291838255458
37 8 0.0014279819906797652970514150709440771932182723577758178130219204535480895464810703821639732490834895895557391899959436611069489399926275785519942049446864211788816342052033614975947013597318306095162575483848375708388537000850526373807871916174647578927595092439113249852082222898306664360832
37 9 -0.014305360932643558643080347133282900740375786322293658581379290566942467720745255395730887232874215727139491003128752327703018160221578947082995969758447593267718443569069533707795253487420987838288112736260364912355144192932578370931123595171331872737375952049285652509370989972779303461467
37 10 -0.01026761162930625656548798766703409730795623500244134895170951767372997227532474387201542969578664185082291392620639918939535703519125560499155217268228970335075820538075857406776317588860740139612318986657614009855622157183942232568855481695305671988597935979037743364349763497676499842559
38 1 -0.00045406796744253041269022436075937911084665932319443244711467062156348875878938823013021279546266987096026131576794539669642156046995946717607121431343834953199457506170308738660135037360906299915887634691499686863792893698498064256518260477832772312993702455109058455323731244909644493041323
38 2 -0.00062473954002660054823954358183224351550940123425274289144104078911730487921835745177054305788113382790032947285680541690613997884323474515085449248190447408528723078310079424303070650616151914195376541755968697519167250200401846649840222339240770914432320663561015024968254443333861128002012
38 3 -0.001389076687122668774649693463659452040720013415818684086599960120211259922206284386504535059854521989148136269131720781345804010749042936457963419577626395104037860334396285839453491771302537198333377875825612490519281503440938435741994947850543557001960818682361959233838766126923955287745
38 4 0.00015166653148243394372148292610801988884024737448766060805933381109371015641694377911576434042542154787516289587552187301693333775565449810657071422084524341977056255942901556864610818016885106936168515701417826010379879754571378231104751612995674084759250898769248783895631538984861704805005
38 5 -0.0005384364483622864848598985069039760578360678920474032982876076693573190339002349229047798411160581681811315871419013067796642350334441809701052635539719631669502780043828463854764877751205522476613142220372883929342553932641304183976892178126817132493020493079314583681048794844769188111132
38 6 0.00060158955943070028078605289188555211027597102404828082311312776269161527922788803780862713516337763085900126078642077884834521612024200858037008079277912798079141691127833058720114532815217151753082536035014507792095660748498452366309820436200146810391751058911553224175265874993370330815682
38 7 -0.00098705549816468336070740288378948568965950459898581124574799980267968360819603137123536516556770556190667985616737913002733538101825143481602206803776430003083952066447918789860420583494745309412012449824776469541007381966391018468318923218560914104427584653628116104782781375789715483586878
38 8 -0.00034569116647583821530097743931290271502957905365206687895795804096869054684064136910079192139474344347486586500750798634481391197833479048662924385005323565108477004473921515190225962018232800186537236492717871938731880149279358620716857434897558392220386697403732639266381937055265417191796
38 9 0.0032190449942872187350376679778202190419941714950931364831554528055488927549882675640748552375277500981791325737029287665134965298605257661814944955567051441169171455163616248726542210247340640120442309760730914295500350672609707569997518422157464794673072525137870084679187074586902540217047
38 10 0.0023750948215752203324248637702594265118470110906083290647125547944794677372820702593675388410925099304182716424098289448388137889572793592722523037483095844850191762497670077910645392988208685369199130349180373608859204317211742138513713389024560980763779166428553384493577070824530413564708
39 1 0.015808174952405535791603625896356221892614517928076839772911207758117906359914315579453346955928536194971380792651927782350197217555476620636604868206309286222704222172531807400813523164750970027924919955775373744162630387188893404441459174379211431815467609525910944789301080789862383977566
39 2 0.020920708427382691807405187643711411550346860185162066156664297807622536085114089024481530215763606816869371743204912974564371805785762390529206590632204334905411880527275826790041848454131829161335778740673702605793939522807126978258994882120287349457107006531968330521150589724371361791602
39 3 0.052976027499392897075505609833221996267901490251295025866421142249772923143388274089991779932554615622756082320381100696287231389984720705056673572840984677950054479820902094551253025088652462113931846012356899436670867155893758979315196002781309810577197665130442627063563267844577528289511
39 4 -0.00077358001441679486505021243235487557117124989665805878043051935010821572078384573484167687602727530680102831530055029277312343337180920306657233861696699182353976264419857358802899091490351012641597919910701867850710368245681170877050883763425904881977780043299691786645242678343223388119401
39 5 0.01866293161003209102341833917330646418687976210962220262562476796205924553951462152250525178207343253454396015399867657360500375253427848149443903026953920396428702832949191239064497047177687954970606793883211692817963411903104932967481651791906991978983432477175541215929331762968374548572
39 6 -0.025593738746352659503387943325572459830980515974030160003736183616506354806340183674079368824503677467988478940458772276372411984801164012051132519538309609426683283435068687655450834731170353614182961492520912856844583747681509152719463179820276236878126264399678229859789159017752468764412
39 7 0.040892211716834287131003635795516717489542066979556620005552933331464761123366551781808214178141050316920951966368207703525242351423609423254132899166561431420720031503054667904712768336453983106770069725309963669742185858628689655923007992862257525536215102782579443216506086608774061115501
39 8 0.016314339036031554437409367378913749582593040880111190221326499024384334095206058818275486314542214261991088023306178452336427400692353449162083163069816607613763208384673198064463833144424609775042556827667442776205247278892417601873178513997251781864550892788430839088047760348324689085359
39 9 -0.13142646177053677934365061298800833885570794612099905715907438817526672717639555216070485127328874394101802471686830390186613408981712556729208554264639079382493305871302541180290567550891719787331204714422240638386887211572583189236752206054452697984109845211199185554080210876722070779078
39 10 -0.10153967917598046208970024003815577231454848951421113872619567261163811124378157763956864216825187962594202398692630163258879359888084136575709899158639820239262194690472992858053789443637762916437025377995786025046122062423886241702521137215013701574401739425154536213033145962806427127889
40 1 0.014742036934634476552938466894512359753735310164876272631122884833863830750465739202552974497653727895930894746846665051615439976927985823780744692218682661051322490588251992084040276553886695549457665403616797744822744563739639248413355977706911661697924288707245558463146466859289361392244
40 2 0.02021071136338456650730579982534717162552788893824556661544964401221074350886560609705762308918321249788367404199924619577721435511873899823219850373371697217731810863717382202678158621098991731675785521508753585987746860321226117557700442165665011941927618992652747406152220082822199804471
40 3 0.049224024892839854507773407912725054089201360436871003211535692700933555493854536785465764830122316908947775518773351331612475665795443264215634215407075364723612449599109079220482602696083333563231979355934128098745210153519946374102802532873750474015393431268769657932510174925957436534092
40 4 -0.0016865266552365005108424495927010871155217411572501311928839281348804769405359964502439395584529066607464490484285146380338779115839694177073883313617816479418941874414406606513182721454485873868269856356264014689137414457734372122532586606099726205646375002067239641296270331158110190961133
40 5 0.017741123641587744901011787447865280179376137399930384168500221764253335786466204049008235461999517879357268687412657508744454997984508037556962141176576122689217890223972041903524256611920577675732152177853086881879469401363272884232551452983967815720066141903414637102067478890082163128492
40 6 -0.022975302898565974637570205840866448912505047407073567709390249216630394325663375731270410601121340418061030366516614446379728134441831989224291535412617477694963077872033077349140332944313470184305005809050808207759547018759759559981747645452392226048927040300125438112981828491485858791021
40 7 0.037124440684938500993866022638322832420087385949869741437496927208722332333080704291006821986710515511660972335040731803906429551223506511318259950566870763991012694635444387303267604475862176575882039551220771278366438689144095366069547837941946708387737683134484020091189395483587774428935
40 8 0.014527716481096292075970004365120196521624349848288418978160237657209510257071623936821979422911626101612821559581561981646907732182143518864132608317309070472368998853065284070333758743055417070108188900922320988540110683539921370387542673343325796835234497612375187954397833736874865638792
40 9 -0.12033916234485059358818885329330844810253047337221517604828130270855825598923024922911556666390366962646015754028516704717818089706762754332338686730514630566576471377736744524468962816999496838571615350390299652884623793614584407531955969532781531756206601366958158168405036229797161485603
40 10 -0.092003171323771446201314241522245422674235413864138602077668843270062652970767790474523964345497988965373768262833682650418445702070747772538534703665270184682770480294606932733823814543066184971944112230305090624888482392192037219320349693068615390641144426266106524878591467378011176253484
41 1 0.016730986730985921399097738642927989799484185250245844495254816468025141818689607773894746145900617079953711356582533082932202746624118036453837518823335665021062007202409018730808093581541606017229129630625052203414994402788017809091564179458397715011464676776797695599045460450328040026272
41 2 0.022450709463043810747564739244881892372018248529858484301159356299683039006579887988978283923997103636743458125670215064766028269903132837833476881838019067398695082165409462860582574393383202359429333654629446868853370890391563310341032521056975137043262706676706407875151057709836831095002
41 3 0.055979294056000754660204116794509048864827104964971925764387666079533540004135918567358514455393058994300803661280394213063549371693867329552311165963731278177070414785132850498458411836848965745198657301904520712322804273150122975674637388045887602205232650737532466192163196236202848736099
41 4 -0.0012383263554324380576373093237736942431404460180773704056044820646200748593792771952463056936630779427457113138007793639705196580468898444054708672224945909746808072835766607491039723368894617360940871996529287253943564101345688288154438138576706801644738645834125539171048621235417917623674
41 5 0.019896255466441158584336885004859853067303783455140429252286425855795273737932277804670710511409497621206044350318100280353232687541957771794884117614245940643707984350856138955331539885188588679402743574089697233225566558040518510994829738198733375232132883174927791932140081837857650495388
41 6 -0.026732174449645065403426024587133578611032374407263339711670889565086017567363542359180120024074074688186335866152209531016484113779536440569660410718157213958128486392707367264874974842907634013502708617990525893188496453335668447229586342134116472642064505870496709278530479336932976917056
41 7 0.042863646212570180022533717357227830460397619950345748201096047018746450849346606659116174371000007336797906509507030571703742462911547326617050211588258638058215557358751553473902271619582601851867476081571090243505545611005537736426787413200704783067509491887247333775423892812270099867273
41 8 0.016977923102372566928228756037671524002672958903791524628290445387309988644717560080797557142182351574948143003078308827317754395972166607821567729186578265638285375861041435991772863841384502697326147698005617205299650309818576852281768587401609765415429118435838270787132823109090952134125
41 9 -0.13812283678059485570197062275376905736031960473385958734480260178133390128709998582626090011940568535409848491227931785115204334042315424675334792984710732847890508117894449531392601503160052104507309326118673739346433602869744238540300230116429890805768771960132115766342302315539540038825
41 10 -0.10631989457048922006259804921849433816979813227900193051299117489850917930225177115302929319865940294794342000716789568918080115481114774263743120346401368899004520582599333300141633412209309356140173524042986915695855461585111973307058098462710860444288975256995233743246959418873330601664
42 1 0.0015523761813985919476447646375459395178559977757211743902484412766895696252465257733892239091523434566723303163830649175154319333690650025924977010624469552599204365112619191051799313141085788881917365056168109098886267081825003674450067898365334033090390473733575219157101848197604679096199
42 2 0.0030589729171725412189191484852276968364534578098981669577188289894293306253370224945823739326445318553435701894818734196137270642929484040859686488254350187467701769770416766088716842576698085349926945593224890104784340142986621011252450779173572418261126965238926218050437254049187687196538
42 3 0.0056294789536702225502651939726391798175723808688314721296931453718745224453476464200979415194686788346957663965014083406270890743368163012107803036062032587994986536398698608037232515864301517974825235037879528009758080724166716656047878075264932681052795574640414999382475278665343390521982
42 4 -0.0008780234958628360081696700615179472762512539490217752430677186657597826001179068844665000369689991608841897787073089498179125233321924258938170011907670183704156263291284251080874887786101642416354957169770664935159081400691869377799528201591076848659830127617743882890430671213095868099172
42 5 0.0023285275114155244753600008577070087494568287667387206326109574335132761901492336652099993778205684280247928272544927200592670134075337178629933313256639430054762392178091063452195650729587541477420523127455977486009994085156141254584093540451107847059531855242953350331876436134949878297817
42 6 -0.0019809793542881254172909154508960989005740047775478131646770326164537923547618922014502198385723799135100899618330273776311333716927307925573550285841965026873387223345730647074243883152877581712103074147059365182387933067718208461882075356773910221901790425396213607582296780331126072154314
42 7 0.0035466443551437561838305314830690709187800531930608804669155680342479519740708297608660794402504893389211291716957611509133381260611981552730905986154532449403153929886089756041136133214194379006014876886879587435231269049104738732422749324078789806588494298584877197834098939404508048317951
42 8 0.0012369814682586726504209843496645707666358635446093309011864201123255742175599507704512273784373278315094400608458688237093650686313750725196394048914408321359748951964895299444332699791209899565242212008420477454254287190514901349422855504041221451993733450009306171869394241292650477377727
42 9 -0.012508725718205457106163451548408299783920509642149151816863387926698055011060616608018430436807038556865715408799119221064821905048722136796507776117090155531905391379606032744498768654309882386341484003457078058228921222813979100865524743914543852624171504566515739285947494210205145962831
42 10 -0.0088581200837094879293538753145980817252485084995400754706124287078125386168685345775413347757223251559232746923954339666359580218340396507792656723158397844825896323279522227810779526170071626267630355893012270691952259942403333083618861857015366974111244359274867427588597544927980890795206
43 1 -0.0036940124583053383032877529607243497732108059247480683076949443242712453459001470351308486847808568083188367083583655334259094616404107067229320971495851996223820575998182588670961259655458978464882382881094111041125346393692029520907111116166072175046304511635018189472505936511888552590153
43 2 -0.0044028242518093182890341169984326002172762773918060960521175612539026394968414294055531421618857855151556601951444307338826681541971404649014636204806179981373985191593988678102361126930018484086730119108393101323933287762398555163276371332987142541152530589189865135648156526032207044431287
43 3 -0.012533982429542966794537753168866264309879277848076030655478320571847414926512365021005334049968308749922530688362196754070461202314446741511465281221570843466973010911844805395910388597522450288072083252431249352498617320093583732810214972943041576401347610782607325060768801293411639078482
43 4 -0.00051991261431021588943685970440528699840806196121446086124831721563506170216642872477073094019550188696112113544043243294843660499735215516648092130503418400734164431015479672721711250694937206354027190555808339020971544019122767066463696758395437034122171587490683104176388574484554761723129
43 5 -0.0041279814569234802842299832715726350776376536809882325788813948842397815482973445062295286598044177929438718634579131846038165262893037364783584934375415869240079200659838800013389852077142215153533491758346672308464692128698826016588973013390706364042039396869165395678877206678527947225137
43 6 0.0066524887790714200738217789672341685991203787235950757807381415659550878030578982632143888179365098402234575708173874233637621110605004792514593718836974772147569174290090300750429741935750539639599745409328372721625739642427763162159203486822939299046467905540189903971563252821373124089054
43 7 -0.010319026004032830655713439292267469222123032650740958056124638996249040198067584358365478306964666456982826282183621757844998074333994068275824190081900074840579072719286201989460988380379943413146990600642695047925473262465797776171628372543047195895105754195824386608243602470345668394174
43 8 -0.0043258341794537112267680656774789354089491535065964582312841534675466463086216764875711828065381886722309957926100796024377458118940747237495861608664120147217480489228527984874701748592469679356297171816834157959008818919693543805263893943196191449656715877429719284525150456534270712773395
43 9 0.032395313101152777566553370418854310214005967394136096308643876619620210608375496692336601100728400012172028127449501822531556953927245497423908921508628096207936511536222358484992380945010603199382581005427689981414715407099971508673338719460904608690242526015330022493908875935829665469559
43 10 0.0257456701589055467312651754858652504888045404823537593467497426835453576795690669192048856886682096299626213671115284279806076695786072756276101529895460931331071251169290074186678574464722345646782960777402372475946681874738940437867096469114666561633013810530070424362392353160115774213
44 1 0.0085846719523886910577228554886412357428407198237678147587930678770352482862316649776950329591752982445064153826648329686024315346225927729172869195310008566933453541269296063945444531136758777669725235771548583849442653771514405850326884488055958854831239299306999144949663653451169491501626
44 2 0.0093410886424733163567437311543347559240366037160417469735943189789382569100925190911083800895950849683097172859888157467690758583384663108284820530752882985873481769800138541078468506728459622288857137478201020707136315783218773547275576085688234876645623854435591474208147284837903057925401
44 3 0.032448840562293613389382061779701792219844564949180908032346697536213297138994613912636547752141053544613484477821333426803078996401114671168814076704163817329559819038453340221239812612164720215730656633281235154003528112209485737419668417198667230284776076411295927290151007063128760384694
44 4 0.0048907993730838732262378218207989764896868820282259107450946552868188707895651200826464391412648342494870216602703065436846587653819533437988996283009527653470715354654137687766844261798713878233409069620589506058351558818726906786705419192875084111355088471946356567630360467592339270082516
44 5 0.0093268530113085406240499451811522111498135381816838507531181249945714951721180981482657466878513106022256055682386015597598636717891881215963725051447225875222033922915889157257259831609672089951699533169615167297747538791869745377320395331421146609750097021682510550444001440385260130258016
44 6 -0.019412631854160366448041973230348805129531701696942331059010806720606268453967630049541174474223969163882492288091714592040621572930729504354586923588770848194474180898320340501256539561103628739480383516966148918950565976467201627532719740192552060271572765488584867098550518717599413454755
44 7 0.029241348656836411040020018193308082288222479383660544090336731263598932293807460046808841252478232807955639946482811588388487302339053300934350885181328465021868520700926813280041355874008266636122502522381879170541764814117492371726370507075882572350706754313960320599887944741305518659015
44 8 0.013484442536873757134072497247914996248320737386113227871096736567270797472643511325291357178175991775254117038258785274415385368891455414683363763049816256806563255870607304113566266418377472697096912882707599960557850228678480267684297268773505326344697096680410438872599427277509432414786
44 9 -0.090162613599712387392193155143166800072199520444925111891813547659567881001464296059765447340645455908064754862854356396447396099726772750458171650261969884078769169328991741498937657409985822697278274122322553385820294675839217299474649036031334247917994516927812413657312633828121130508517
44 10 -0.074735468703686316297071126870055024884639310099309399306786256602035658754276655069201048602039864099971446876379723378700313481956001722442417932540960403002262344522601874089257868023308535684630386882262554181354130150712602277144763243646516983556796695533693858119829994263784378788682
45 1 -0.011287856790386847539365596779990473138515740434963191583167848235760210661300524410027439194712209143790703857126330122476859872398918803729084705035310478732309699159785249174756696156623088842091326124988756433667924567191570621740153793614129181437847957006461818069598703667821983841673
45 2 -0.014108386153835189665078527415693114669347124526992019526875478122957241758379588018106736323615580994726431289752177852149908998708289551910464296033381621644530146674239120339006355904868064302571873073423047749837290852639551075887185087375203548937979258713582654429699016834014330038202
45 3 -0.03780584835878354240448454757437698577679091004551076919010264345216973409933227337449711217002154556212333607254616466730192733674345838410650018543467484957699459981083706999739246097248272234255211956719587237697261203386097435023855531387715938317164822045056582624734353799389377472143
45 4 -0.00037375787238417997798510342195937757869078270548022612733244120949710522132033614193703246087969435299645785142881042321961476846602095235418577290984421873792785752572942967086942785719159168016661878963411518950559709431058114298396222702785668001901542702438648831660427105171902381485037
45 5 -0.012937236573473300644698537850092440537537004778260791312315368591472420180375550496803687283025098595985296770609852012719159317729440114629380982106797489771134610300838831622153022663607078285116562552391112933917504225082326921955805640853830201154844983627154323707424881812248471794513
45 6 0.01902030285162245366971580714202361373715605990336264613176233586414332583393733475083757855815660605095792298933586200017495455888435504296695201495098397413331337821892315415124318643050280128475446600237600002116296928119694166189615263504345367973895455400519464396989756981908788045636
45 7 -0.030019308717990169773376637886311820141475540889758781098780088997744126897352014285448887587810038362144162957293779656994283594807475878344431395950955171717750731969940355881951385068061957389159374816800332923097930643026047929013508577246801349009010953196102523733277701126112556458664
45 8 -0.012228166204139221694214215499629811429220290908536344503721808346209683350909202709365121218063776635341455561699921163084464664868169147090301423816796969354562966162897810872342028385342676807375000559410427872653897319880912136047117521536103963482205910303427729502965587592854066335904
45 9 0.095464783623870638112073261914081861408711403603823637679077785345489134424661868768486764485139327979839577980371354025455680169226839785674245821294095079537054596176310830478368421840322671275665460019521883152646445925636497113661149654630758575773968729235580667439497828167719014631701
45 10 0.074659351862161814202236117319273228710571333064314195865175598660571306165901742394005930248545565447548578016856361573579831438798270662677643599125602483795465400660808717139483451798761593581374790316706383123780218269511167695699991461411352748866889145116909167722524939569617315862685
46 1 0.00077042322232892991893493014248848484003222498054471377939047659503848969573281271060412493139359674210094299555116633539574452747974562223574226100761845356371187359548503538096669905781786388986515912937004455415451380466215232412126811234575553239705629192202804007274861941852176409165714
46 2 0.0025408834278148553371468081472916619245948360808880241815322531426541968653087311524172465843002778114265454963811580606476883807255448787940546788235255995043679707954093712815062400545932594284254779990575449528574251978333636076679840669134929428411710827922241524744218487178806749966366
46 3 0.0034261592299689435902936846394185534285440126767602572148533676167481015916726526590837993042329751045678095105093514187131901742142762970880063270024364096996145968552320598702487690886378032151175845178820223289657168566261998524763729536592213048380598821688063831477994310857866834139171
46 4 -0.0010860992238789109256561843760360258838408112597789918806484867685134151544327757515673613687439173470791315969225418882408366126081100559564966072913613658121886250082269114648646734920285026585330979025260730602002848511104792149114495232248393064400526596865743533811317577869838803021538
46 5 0.0016651326866105873032943316200798594250665652897888131072705549239136692002364578223856751159607644748636026030574631625519978894899347658583792654783039205959416806849580899069836493624459007638965008708795103603174784515861680221746139430119325289539265843801323116332254209697621746821037
46 6 -0.00065167692375676357621786993427522011420370898670283843657973644619589199223536838280601171979761744286372992679031118103074654651378472063333400239872112456319860267894172216071294830754566078299364854639243180114883409733958435682442671789279677986773055012480430712002640356967636303548646
46 7 0.0015611662654566732621923139729233881622435374989843035016228934073839728633338420841994960889429358629254762278714183774972411824262772352117972363737671137478939810874674028614073572388289726836871304914824799495008034845254092868011227555997335215497482525317212885694871444946425552288002
46 8 0.00041866905922826630876991266248899212381813418239346649296114693159239905066226720047367031225033382028773274333090756422920700377898710901421426019533685360874410636680565277319774010287459787890650685896435912900002754039922511599545950511733844653988309990026587921054139925300480387372849
46 9 -0.0066034844663581275508468443265767814959112119749596720826629062812168911660427831414947893100704953922062728529776734125006994819980332943057273264367761371136210443213524565153911452423345628556388061945782443507824893332243895224244265951401572594432159185058542264841096926643794974655781
46 10 -0.0040457915047677931290355633285992504814574243539070155163086916513945939603490339993818405445323278690151687893212263962963746485593167711187436526550589400292901081130405699822694114665145840044642858942060767175648671821198649183641407536799411329495994162809559583677862239847037941762057
47 1 -0.0047101594232846441723970934689240497714717222336151102685220805379019235259278416274026592186280770916852480483481284981180738646343108144686254996320455683855125185679574242949477432504045541596149137161984692310275746406111253805668365034195915294540185858305356327490389692243665422131436
47 2 -0.0050245166432853238482121396473034056397765433913823251905856993828399533807201306546267890006936324115007808486120354037213006839917448016000812859692288489862618949785469414577692598689618316275952601897164156690910873930209683452073485579768322903404672774075232476787972376633326473659834
47 3 -0.015316158591956897513453122712943915473007334807241809863199553461057179300052357028246344869155332972957384799498120398455065670691334064625448320375964707608801222402363942042704773653431972013528649624470502618926605848370649083482463183730263298811077303171293095687628739437644161518754
47 4 -0.00076547685923006508600618029089161112391817585759958488217167051251336201413908506968948875397857541769184102877735385493596148577372778214737394738607608185816804808380901431058590198702645938214721292097625022530192089697186086802001474102104169157923699203488318295910325158296683955911626
47 5 -0.0049714371734558786744667621629511482233474440271789417970763247237001784070501885739818364359532027241089702610869307255508904635089070329778116908043557670444470713770506974702061343300029736808073036844246869979051265038941761503354032375871585144330252156993152859764016268242845570562081
47 6 0.0082915974944258453199274724658926863213321372976145550644110545671223423091102832561082047093513157121961263679283475815754748601287575399083023699646581326760769768991657286499447044006652537640767422360639671112216311603761341458200017800401351400576942366854661443127943234592633369677469
47 7 -0.012795950463132235843809996407708988998990877422370120397958267072445725485375585260315704340129595912100276125984053445966024242632264799642320579332431751787857093993148051193748888004467724344331209453719429770062835552119671096562277928702740675864080969138020912533260461753826173244712
47 8 -0.0053318642897618099028042919971969611152156690636649289550045915231086701285933389782042095988138177278699786278888950593271092981679601923948665163204956563652926381845378773957808297989008042112145024032374854522808882857204479139885402761052106301916282739343232801786661906813601920620282
47 9 0.039797244678432064007209677464915003988556312859162901521588558261429185258852299526562899988204130289574910825791888275273982372807401803851333335401273213798201952009596003155169737940499926952316250757064430708752296867785483394939651201531206688253060622066108956780323557997460882433655
47 10 0.031736338938509722179743450000258399163315676090894530983699639241192836406019150757308496393515265633639940533834745747461585319427868596280994500289806686952088208352833279188838889260065011234433436078400557257840916924000166196060017405384193160069066999460598480487012259723112870289894
48 1 0.0034812898587465467193969849657418707446065443124835559559123018568513220319323266500527497307777618142777478630012157485821801574631823766630155414569719696026254148659781011327086644412852788706529577119532362528246010728965065609833692091617642790952525269601938336107100239366883813418978
48 2 0.0042089247322693957395338186194161276180506491620289813546841185604681096666357445033527796705320830428792252315127379577268109389577772038569896190855766564331687427101358754606448244341063233104075851606963687505736849133916283704543037538639723011773502220139518854967134401517963105916809
48 3 0.010972132732793253374885444366921393595917771347314273382397831088193801100368852021109889106690355003058723789955399218452775079443051784375425525319788883173989417957799276875034451981664285700952053310596213770369797081830181336091062090098659983899936565774371584156848424496634215158201
48 4 -0.00027690567610642186716606915159996660911361927144368070217090575239364447694873447876623111876185775822745046619796663821943637625244088514320015624426182718193372425721628476965829613193636397681763357486241486884286151361513184674845463400129492612652795369524524138606364506589961086510203
48 5 0.0038918794745284371310846578622536244798877521656788526883446100950131915572798428885897348846033345444374363532176719347743048777610449796379794004530606705603658420618895915439829814126949151621901165602753346625959733794265100684230256281588234971176689986407076360854197755122404532247761
48 6 -0.0053449737922799424227630708875479427680712859211672362450941677680752632385225448719101314769681948402385121356309199812739001799450301885348966683257168800622677911749278477946239002799951015682699111265151767423427553212653493917678304797625259014263188873810744702564157772922818331900414
48 7 0.008498549361637907747316998370405568461582020661740231521117688062211561227261908953090357398656403755716697138695611166784718628017861038433125171069887991197523912195826615541683587715882054352023617119353895651936379539652447830263129653741303417916862115889747565105518176627737622638736
48 8 0.0032935472376417602761688632280312869809132161634753688972599678208959882984935663714991037558493366264556481654578398705507840437692218417476496827101056625248132556104198239680455867375746174273022606205982574946925968182029786793897852879379631928264038926392283522776035574260254002158027
48 9 -0.027029538506555690157016355837924940393527607627098425777485620759539608828838328747231753994384584464473443231388217023063044720345762446711317565951526451448226986938151152969419956636185433896074300218036711066786051849444726482328396046191140853270501648037727163545255775009174495315954
48 10 -0.020813640851982322365959704481357659621666426120997940097952912222175849621118191448628004078868257923863217203436995008312440784305832858829933828552929703834850695799108016650497488464972490441680569785018312567883033305943464226783234702894043353267114783718409533060390948667845020732105
49 1 0.0029967573114488932555940811568028084757322788976015891104479841213255202035902904438105057063413473081253014312635428171934296083247978098620692187683105076233577956856412336085295632561146113165998696162400029582380566917827901836751446565512969186792640804326337081751567650225713561383384
49 2 0.0023653293014246082227979350229990430435981745361111080654947948475038152209739262255755598190589538192598852459454298238356522325858040546880680346905409998028896566064885200227280227445527481405101114995846641985149527025991381715955269167353229926231476751216532613922840280133030207165986
49 3 0.012596532120511277278638844656450401601192103873087751131441105854630983736342329736678915150876758077285597047830090947347208782505526741960126789450918575814073953159481142743024279037880174711844002429937967298422708785696001530668700188979163090566311101737974077682103020883247020724159
49 4 0.0037715018323305111767059164514535994399517868220950619065915010841562633734153626140891385808479933368579845967254780958210661777567268138374441193223725193860699967297954406913116858525238438845367687225521104208567681216301749116965488802521955028455939344859396968118915503204952281071782
49 5 0.002880058482541144773984124611916349288308386459061480479833556979671280374116382247105460753793833029809725237917620815090429081393465126539237032788394522342626399833482578827737522094172864079765275332419271305486699831672870684232850161349734242343234298561342638115624802317164013807996
49 6 -0.008882529674172739985544002911252464459689891897796032758044289398201527842154814261061814890097824460632920911069410314411830830620062516708758968606229654055655867676566982949342712039157846193092009655319975122066742013402022369556675286828671312935259694137090574786265904825268344064932
49 7 0.01285362195213411482133122913204086280904975889166016374686785965089027102106799880355173015758744266685098831593862357208609372061590427391040349742204684284756821023333060231937065928467934906635091582532534784693307023505591777693481602109268849474994110263074756393800320891972956495492
49 8 0.006454124519999782386313196439165633866209363426216467525126989326773277987781700113385476500564993326739957645351718032828628347443192646372818266368947060306078229112639579308558315234337140218954921850770152975830847826437023329885549903541876892752561870443405507404912858796260457318749
49 9 -0.038384808379554841512302232862492487611709076221598173704424951721506698330472740234194158290331528622957570733888724504750204169186400999813981012936229993082078530561660053351009838240004973849173942994739333606728475977889632615295166054578375781083369552887865157487317044181422375971305
49 10 -0.033416342841296566845691337281417614846859567816394817398060316674460400656553787377017862913787299708222448014449577232285975268131618726065276787384820754271138218877570704187239856540349614179266541391662246558233832860247970226123554257219678518823598673715327704598258214437482587772456
50 1 0.0096857656472171642067829172540046153837856528303071689350225522005934216019522655857450590356295955241372573852737128519577395549623340661653853301341450839765651711119828241703227199582047546728145163121053661558434313812467089604003996480255491113702977514351045553574940669585491875505825
50 2 0.012359194493083925720807459805983962649887912305023406110035267014363349488552170745283734956887845871472804584151529307124294900870940849441022697436060175442336882467534951741192032632023798113063276967617053545971685059820137541418674486134613189428836047525192293013730052014980647325946
50 3 0.035704105344014273488060122986509911023748598006057508206679194224443495487174205144810336248765004792685689790741456007182078566903704994716881386918848645542493979850958285540618109438936762603512265207199227745202782901464957914545051002179512406258207463807196446264489597113318570431013
50 4 0.0026949211013797958121306659696720606505803135351794298998979063930254870222633778057955412789565824474496225449039701272668145367684274387383256089188718147072624835034181914257779490570662083484038117938416421413411488836371824066609308551317147026692907811287735567896860302149655866051913
50 5 0.011349587248546424487780208972926949756520945017696594113598583061738151611122367168805575874470463630343735602218915947290082266074666952798943028452006549539222023021528377978777753790302268271532943638289141773442566809095279332012434781988434926645028692410748643652667030032406860808799
50 6 -0.019289210585094606888418657139959693663458699030515090008141741383430564266039098509500577865777155265927472612717902858710693694489343495238009602701115382613479691052521620185541215251992882282005746243135027017720711737429218635310831050064765024988556226552728437037989555527012226977535
50 7 0.029881071714528012763947417509616137391115851594163096673382442183613643548571184383834494458316411546886088866731480185266621257466648057110838556894527478415162826159117128216061847868358614342454118018264366269214143336444670957836602478682485724568306150368811792507949259989172169616724
50 8 0.013109184096128814539825147454037131169525873016590909557094464035678073301754711742996521941543293696407943728327609506078487449591156083046099591684127430645108023237247061939571733094483073348944964194214403627875790297181346917411684886444330595211921444029116788435701802672788340305069
50 9 -0.094343189906501210662367513682490567704467904899387167853810025482127993373562927065986002460468899796889840703971609492419781474115483366834701540556381780384789275400916050662388044185196515935955412597067933958751099113881443909263856085223570752826827684213045824151091667363319901891221
50 10 -0.075872526665375349800444472673740525051826410132729721567266135906373093976106728343011798930163311743032699643346637537809902854654466401508868588258382950271297417729305486025523981231385125975058780911947071990367295070481066105030880432021123476788158602228078177814104170099436643638103
51 1 0.0061929251499101860281030003470804034762342724717016365651120819258006642741152820893388477623703202238199426727470264770553629314488834842405123620684210237138960829411085797406548233273828619527670995065511486232901685712880729984685994233490736434376541041655713819792679672988904643160754
51 2 0.0093009647835940711029579833016176178227842235848862107704897670865517662278176737158149932245634352717875354912884633536403120681181022946223376282986160946892924288821402161317733745118882678898950739187965952621854240877127934818761035260550669012392695075019856155223686294825968260700219
51 3 0.019136781704504013774077105584547741582289856712170419634412934202161335840409334936992291885883798261033691344095300815519843242688461955990241135931162967432943882112112058730576765265795654284522312107019638206857624856364809443301871710021426171865964752374304298603866879386566887518415
51 4 -0.0028888872495113587338450686024914196590915848729748546188134211781366599491793111823148076371850009661953317078157795905296549629319449351189188801589023170321980378287042984302269854663250134877412032923028470136550713837415133279609803442471557434551658090286634772257491544727994915522627
51 5 0.007773822729767464754329540368920003274485098194444805368230858919336686378856193115378241662603139343969131952566299287268322446839897736172779881482539989704837882109731995581650073431741949887318573092181363370398860520301708530350375217512001705155886414314623068780957277094419643807622
51 6 -0.0073880562036204828617081610296835160745730891188089142683980304454315933553644839719609178194936356575289260501088280326452698490036164113039364415731261628880257149193405921844922817376168435224356469756085843911022800402754916927239632162902626212445070680263847048127167926328572417256458
51 7 0.012697418761178074467877479027459048466601507878898467280699803671416602734716875463252993474873286018901088929999156404040414404472363500556966009693969375438338498762474197210975892124179637062876260102933674739018245108365494357748758508306158255147107339649782839590501235897754495433356
51 8 0.0041975762843734290851384346664852946023114352893807238941798254575065963267451740305026927072544201209920787015904660567093148951040205659641818227374618338502633588625347544139142828369986563472316724798908187425597909965186866791455612857166222220781302218419352886004568145743051019117007
51 9 -0.042766969025228243565992293218560404343912191671128803160538237382237546528484820640229186068915412042996765344370287583014670611056579933238151235740952271779446125796846364985130353876418267490790982945628552608549079419002153311095154299261987936644388204370974414912322594896221411968771
51 10 -0.030558882698699693343684104806527020180776343275066048634567217254296876419803952696545545164423892820374002919375423126147924636844761973592540088095326937356385902748074489203407904617451441993522430910716845218049972292813800595632645555819648339859101200807147051475351283679802672572884
52 1 0.0030033465269406422880586745691930762684449154346906980352155770709683177847496610346268488481636243511611037445499554383247421486832963156186968249630997762727958912027826997624547397055751360112176756593723210043440844325112303725395990875549273356923648310512244765931339047241188511747519
52 2 0.0050643945793830417527673495605298571444866290274457950933604133072864268247183146339590649788126961617585478399846723124056805125671064118439821655578812091943688770365635170040561720686043591264415028221931158521848800032644378089666846970080898337069950806499314976542729828456980420137731
52 3 0.0086128005505574889081815473899652189681362330181819630685816988390078438077352704469112016602246008489158726138340642876555845599760686999656154139479416619367662290140809139527624920103183281591539019715230422494519015032174710950322560287796795618756865957844175411252196115364475577420005
52 4 -0.002578213703357718887402239509871630127413476949181181650891262834952800827852040952365368516720463349469301016544246247901026389936810071310477127350974368128098125235036808696647643738603100093560702545556065258133846619572912330425381576776228246861884087535595318379693085469041448383829
52 5 0.0040064421366962874216052354181810750397879617155324907435399984343633476985455572803161734590238833726464469766341178137443439944294986134336542423186042955541766285562383009911928869206604747882265193133574571413541548233974306493804971465925047475839083569818864653619390040575561665518266
52 6 -0.0024087730221660773165407845337802338813598926193254476213927454827228959297305239151597531637721114946113857510459011132968230775446966309336353611891694463280381580757765799756235749750356979866952316399463568919859060657898270356612668753153713509920219971491174680420033339385835373985904
52 7 0.0046912136391982379581733706949429682721976325535627645764758539373719213114869592210982349930261173998690241315798761099709727514030639203600060839241025675873791412952540449015499321189660418896577903593266867343249748268311638599508198368053003119340263848686659998149999433298482749190693
52 8 0.0010622333360150084874644091499606717371383548608386910927514394365986416794543132607662799478189599154183923331760840516928881556798689015031158597578162671152338916154432491714729299950456409389004389179907523644842866826345733660078719467456154055499689571406991051453924529365198058364838
52 9 -0.016943380320941935919846699143993507668710064096876933799889309779760736899018574807930338971206122723864276140425477460553857366407429394081429532792668142271302874844684861468624052942751303434619269025641716500135108418071830666889745400625904763855417314618032783592337370021444435100298
52 10 -0.010757957250001465378825372699165920127072718629123044596269270920126419802621116134989997695954393087336081034288231797212425171040509706174812020834277775104187787987038067247109933847681631215830486572667059356089384009552583343293740465568166744412511336845639043819003775700430645134373
53 1 -0.011713376174190646146865368020024831769240113041028008496327372751144300733409104176062384119074782936299368553187435383017010211338117553787065113690163820417046950412395265057470561125619671536850488480655349953972126191424002840178507197903358677563629228886149175979373943345464006053235
53 2 -0.014751258120309497581256691425623058694021558762252198189086822003724892128903087909986803540313521652619351685917034234086340214202515588724617076478248349452311473198902538211049349912811434542642951832242270994436518597131799770497228488244409407481951786246981628543551955517064541030916
53 3 -0.039538432551742313583844686851940137976720143567973688137659769403122036714876466366302001844032072249203518966458536602581011248509350063974741660217695567569688662534024526867885213486030543099477355583881779599338103912452844161314648220861691669948596633586352833717898776918344343271679
53 4 -0.00052907212162489828370647007548968748694712083214589011624899253122692525331903443718163084706150145952800680915415647105575891270105979779694248329493002017121213999307301623258213446691906678817831830202250292940205844354892275649548636914374186209415330463756255990439343354747874786831712
53 5 -0.01348159651710737797528943467540123505261809853653512748987317456382492630898320426010810384097478661727423637614596880439277476384228285032354564827683997494568870435988603715583552251480957921299943527321944315411274359572727758383306023744586155188797980344682399333499642991417109692997
53 6 0.019991631640951034626969992608222965373336286452043714738021090655700806966136110324292186408041066867527290716673605884034016053317766453580838667633831013413778733659328135911681444510738353202330790406407218505686875077199180650916919589222036246435111606829306119434786161782603271348351
53 7 -0.031497217295500917836025377691874910558841074284121227482129830778522834595383191533859456381921533826691870978566088137046141800524427199343036673922408330945696186680898700926356230251550457635839738739588719620197920224526877520216469358210886173313125232990671095492568757335285903017457
53 8 -0.012897693386758880118709085406430575662856372864699988292669519575477736893158986339250809456826187212978025829164283633366887090710587052337326884612854219189600543413921515422733158706903441764400011729204004088132200414138637558280311075985787606183990783877876004955179555960649294134182
53 9 0.10010909365490135508272096325322425702596871747856156726763953152328776202059705461157358649973166365977076705234209032900103827308153329373422556575550848543143201023008993943528137336837640431868734927229941272348438708683557894814148775651060405324666030688143058426437828104642315962972
53 10 0.078440540463014218373490743018115992805068103088384580437992307812312279890543326283808625220852562225942540495915820574582289193202797934839365816675639585716503411006952388593575821895844933379922053593196853050257905117120723543198439642373387969644420759081969560345608507588630435051826
54 1 -5.0647275246991929859606747901782303272286292976777705618829678657050967209885881306362163162707335470530630522186486349495293860263301761585945580387015670302627235047030563135462201771854993610455740129004859179350367598784231466387383431023180610715713146579585830972869732795125637676917e-05
54 2 -0.0017337926727103080025807645639005597310651520970362582223723766622014346498854363664111879922187685676355027782532127603259287432459571290136217043014845919436029472507567049604814396559970919835651485885527586074433858647648728030417245234184344488420450692463588163551879425677312760817769
54 3 0.0023300754178982668055625413300638670299637629972597390898999398925033216916172520947491917366779582355063120061686851886150983152561706924629041861910162303811495181713729914890842143044678358438923525087833310804618148593897190990894038641224632123272583208686203049166360656459335696832359
54 4 0.0039541288993230800953054089969426860370730070016184031222994500988128340357762226140833818111464671970758397357709511929165102645769827618048394251972317020432471756752924308117646197197053124546516479011669798227846009751571324131846892727566688028768656587716097306119812682834141477838435
54 5 -0.0007537829322487378152191519929913076624760666313449205279860006640218275264569245408363345422730456158931399719190119542198003584113978951581580142412722806315223013196050859780048653115992396346595753777002020128026726838236002829779854187198746959111329455967557251691513428218600199039078
54 6 -0.0039641588980019957142141137191876886409009948767486777256613515487545483082014486336277253772327998578833581447036150875116693083286737543538889776500238570431992626090490925788662255320236954060065715614077039969480637398476480687316050728949653772031252627366249597280693060257777855954389
54 7 0.0049698780450887605131489100998121039973361677146303071475120124690060040859057330770338127830324289464650639262241204984084859483782193272415662309644789698905706400543736626626103972629329651655091447665730905773274643214135157203950522119701904448438683263795307927789390111294041062277172
54 8 0.0033127064433198247822564043711913426971738455101786900880194309735314469105743952017648834790377691300373815039943492485581725476331256429464826694541032716134133448710386638189840190997054023705741091997217298888395882670035070278546235950998987737421595977917435496019949900599529685542488
54 9 -0.012978757137133886083387552426711618669439570239597338223893233833560502425808571948053269207178204501055124502318651298022324676145728932877981723533695720162720402420007429479790492658319434634166482178850795595448206415489798546903837186767267287143242333495492885542065361541264448070381
54 10 -0.013825255804945961967719538721231100073178062316263670143855764004213013110846589305267257492480409489816624697256456781572609657093903037470394503435881853861073252479091864274008811714226406681616602058603875635649900219064168028332715810732130576897880241936230309178276560551747565590783
55 1 0.013560811714659355541240976215769918951657483590497835321735715288715218404621870269969875421662857106196177891464317006548575457405678859784945393725412568876115499543246647599396380573241325405763528895169680886076966441542881626576716673053906266356332647886842447398344920028227179482188
55 2 0.018829679072712897940858167873269967238240362945603618592121439197411387077532081863764144159626595094027193622553898288799949408405991895206700449835672200875644243996004927598700065335634731829000710116263601244553801528969619439451141484947772061994226542449772787901787173725525884675893
55 3 0.046207210088738066578887816763490676458120723443087303245038353882822989365866510406475095245695815071086923415718679624017043512316029144313878426938129404279808089466879129914552982716079979199034808711949184351666730197017006075031255467645832757653690934298356175514337482076663418596086
55 4 -0.0010489408281620792641818691734603786551145447957130832876504317031954139969551623458047433185219408773199705378447734359389293113288634928890665413308184057089979468958929935917574308708250884913812563840725005283229932223889170451124557836617192581749889358237862288779352987046810557681001
55 5 0.016460408278756485972510006049421576086403205086005107847278799117324798435441791249467876156170604604144790456036537913270636362787765961717321949827594757413823716364039842217793841582470845007811933877721360218032318465222096822160978296773739424317857572490465865947207468989145728368676
55 6 -0.021881780520925999513236027773823923951676432655900514139004651018304432555696270900250440156075242858933624655224459250951501398843405453842245640870472558661153909265739720100761398255379898485650054615971598333385407028053069469803431543491023046800474207225440582389969048528548162913084
55 7 0.035200027120904306108529849788448009924981510556532238175213057852512517909102293402387363050956939151191378419347050333669203133450703059083163268629452189951128708002798476737884211185174690419896645039632824855643003405762850422939960754679375560161556462920218610872319545122706294102877
55 8 0.014013111833724517398550358767735512541851088596033531184994677129400022212232904154809766186833036003694499382565401586828915433685002361694239467919829251174113387306032469533658101374627274537882097215782720467651032269619058842216160484954049739780483711633126770115185473465556765021733
55 9 -0.11394112755785801591946481346139776312250345976867468807298262904775333726238762065974899499805465218971939452126468377122280601490507274938218822101885200504032733562892817176657200987896894808448819992374271542505680189708514616907573577497416365495705982336111575719018952830680641813341
55 10 -0.087630359176558707611417471909771621022149613192674487722408343082778782006536046809512139651424210034099038365458529282367940038188866291242954096097665631672260062650857623414609255551295541562664574515651049513221160116832590837198036149525259897375449683262090680355102826381531519665012
56 1 0.01083051678241158828461907344398773298584718102671249839960916926291457943136815077489750115960919411597314880511660608723038000401268218150985596805602766436427139874694149495950272142049636165710345795947925919938191183235971084089473070923840833469528167884890823301980719642327719684132
56 2 0.01615629778306534061809169307587224880426797451906230427745021901951581377526254428408578169967644487180811777844197518601035377404228136565932746392503367044614432834123435541929347772907092586257570545748340399413043934898623574008602377056212705565127741553238110554058956084816821670656
56 3 0.034244662912102847022083301414222779465308436011326434994062365172531135712822963031463981396068787050274742005414938144360979865206981979212388206404493153363354809569041778524165058755804694993895748604330204987426414068681324633963188626738519009380705896300604701513847241385199657796912
56 4 -0.0042854420468431879892257415137790312792229123123354546448954901307628297380782640832465895954385861571634772556431141503370427563129289362479165770604815941456337704020801518591106036825972287873917518396888085872672340307269703020686632414562818677851864684212669059748435259274272391411522
56 5 0.013569844409988222765120283000114478845907661228770530282664206400770657064501451328799222335983210526024912662250742490497760150606423188704441957821033657640724079288237646749501322327853468520572137401097766324347889794414347477385309155124501595439172127766997417598218669940183855398631
56 6 -0.013811271069087741671570614155032678149583319482714224907471658014139999675616466516879284808382753875000406630165639852991682401912558474255474145575493415129706664398748229053404819635615740755759692119583066264640252976849240688740945697863836402028100503841585461770533520477702508334066
56 7 0.023382764189668697016061561251022055911351904146667100059699452438705501871196649423940541986852169669449099275214677568104023157929412641297499992905329645208635829063659201155538901879441238895030504497550426051359130682631770878569807634141147043798772858569062661187624511111546410142379
56 8 0.0080976571742635613442411548315040125304731526054658831129730082193992532489896376126939719553416333518158857037864649131327646350498850666032991740964128259842434947276586961485835262027008120234715446721481869655306325074751494496144763878281055069423173602531613179364866332203721255907327
56 9 -0.078128423990956945796270270126757904381815804710395145677112533257817734373895438329537332035018992954997824744798584725098789826619465380559139881010721921693703265654067689940403052181135091070690458737488554891173652778013726052808545697060817176120970157043965308436578323706775236047743
56 10 -0.056756454545329605866470135249318107635626658792171979298574343462121953508786287776996204598716947450594055438081473630001498627842167276743655124876157586392322742518138470430109978532961437697927432592350006529158317930391288815121001077130992858482356980968728911496447770973034847982056
57 1 0.01334035562390604617296061866956152314252583103049123451679904087371543515341505999162836500809275403502111702499347554479379391829793592128627138793792227338507089156264254619098936380120639007866872417469462544900456775534595680493537660263304342380543460325775439151617026964253358561221
57 2 0.019129812454552216879464518200804898297738972330494847883484472057101137881605356882678146136244512442235940485455230932223580482503127467143424588002597689871610172516673094716904759980958213096491130593992844450123667833296795640842155329400450097479445565899528920520887517436158679750964
57 3 0.042137303378923712741643027784070037847427068182702511007380230415873212564390956816819673778841877503766666079190864715369701820510942054236370114023370363171316067079161406776634057229298059391082152852346347005667872656536168193448824248922328994651525259158709590206009088121076877385274
57 4 -0.0044436939755729356314858420044689485357122758517213938237828714692150896261044405153223564799349056932898817944068655239923920024252478717415014343306618764913338903634766092207357891312291619408400677082666957686603249278984666277863849411317018512560056562332934352074801071553019426554175
57 5 0.016354269488862769953989543576666715313109662703819483040301089225683662694936572926116759302334259986454961145232098681596037886129805766685432003317592508109974190052890004057107925710626697687195112953950012128454328640260376573363195948257453150329331501584834439603050934145223350151908
57 6 -0.017659358082340115259002450680459392747350920125137416376907656059476147599676796999171013151627979517718826083368007344421362200443016575457864623687764377855111799615777634933888465723813090438763229897623397787181526688886332934740101336846523335141019203981094928814901432758072912130304
57 7 0.029512543066069619078035863870577209548538759066266628916033789575670903603782979933396802203881864175603240700705085662694744639428540411826400720434646109764338858518870678051722215476198526781451833321753063722611089883788032363009134062935254288246313361545023826148041214577173466192291
57 8 0.010481839837082409549991220979488515466577560122980962623212394703636561011303934385807154675935925123793392060732851573260619127234542293607410770019683304245963938027493311145534755445453541051250888553424526214504730693013837899837987973585657292806622959489906336045690854303069788065867
57 9 -0.097626460567337014034837078440527916409841133434227207568727403492339336204799721826183597258944754993534159805404732887831194612817885720687976390832419342258280445321835431808587865079819992689039571603274332295873387832945528462882082143912153996991289121058276455392354514233018334299166
57 10 -0.071787346070674358617772277307468523159670379718713375173657694052851657641606558470501563235207599688318678224085118109854067356121920490605919305151381381282278047087866516096825124558567481659163330353411840131248250043654381614232191443760894209999161127677632680030665904685188113129211
58 1 0.0082927831878745013132412147230383521238618151579722929203815487559076831372580454395466583965811154232846404319539629672765265746745038968036946349700492637221880463618415412026877450092542416676390007256304044460405663846287298081412178273811701607800048730989615264792619222857746164773967
58 2 0.010571729448232662120232384514184405837073880761669625155363259722825771293633195065840593141879846096723810115489218445271163125714591280565204018135667603039626731415275355973945791371665559504777387394305189586197043097795763484461013412746262242666884069972434388077492864076310306198682
58 3 0.030637655807035416846067892926915222437808062427954029777678203772959203206745690845036249457307607593293880470287890568385352817159453344519793577106715622273916921776965552198282028231234258960657763601497685007496682442598788353273863201281797098968456192095813563763476389147649359299872
58 4 0.0023712459099402323639059401262816358637525279113374894250708335578557125324757651832666918292144855442073809425222785391584294770292044492517044467375090213936442148628663481139592720129221601841172353562073737899149930736280357743564537382276701796308679909038811446330087952597209900416408
58 5 0.009717939020841135712639490586064559736742759801481978329826974792689924761446956053285679904555247983829163760516982350298423052021326418811555057842420841435786010549101962364697702615008932238181913153117308927584767655509210304000556575805813071290874347492630470900057507681313163529748
58 6 -0.016581757188291740592208457112553712395871605650085802680776279172662238933953872052569930502375262515095338686453959198544187253379363032138342046787771565116662810725680190687283169283125789356650288778701885759895172711180988113850489014381913101452577119332169762214699691957990041901845
58 7 0.02567865394158411228475101129419545821761363436773341675952625678576515944020545892602536075352106381668518202968964146106167131755313335615404057646440694817020437508852767049915189666936321078054484051767839657082588350521026522277510783834253383565635490265099751150632242368106494486192
58 8 0.011285822515287439781886646692893583292031125519258982591377856599469106821011863301873577306686641061091372420493541843191943629660624103600501250346664085026378788356015000664832112981686857511246989404438914481497003541087495144877073605560206239854740982267192345564999005228519517037771
58 9 -0.081056120062223469188182450513986889198998732877325525464261189867037589389332633517890257665917852508376215167105422256127063365150492426648863034888237276570871753243563595356099070876507657892486340545167360522124317347160285540393290079946225219108416774812847112884848054847827772709375
58 10 -0.065233303892249075487859034440307225260460937745610227554179292433474793005137556785101394166751542931049646111609531387328777002169511674131881928614447805649887138935309296355669956282751595809332644435357956155831799236984688213993385121405877245566734940781152334268438046388523871778066
59 1 -0.00032300648924664602445641806039093483569842567949866904603003210819698448316443587798296775601217314598051847468189321482281699180660707012491064503595486902155562197501661305054239275604686190803443655124090868998423770432649219991803598043948278981936659422574322809031969738489016789240489
59 2 -0.00085502219168960257772150639406184185154274425812972766401620364767830258364918606850166499927903949648564114758678965654232488431787418943390601462740551576073988134043781735881975089044882106220006000015079813880598141820248636172820547836207788271999873059225104439551163503396477695172482
59 3 -0.0011283279243836278087111952550953702847087607868989888785597462321860593744704952451643938669664204501582866136272395374335396302803603256035978423231024171876727708981643434268471236981168860743670692172147492928941712964772815356428611453185522898771423504666264858390450003135899872285122
59 4 0.00045637838164909675148597030372570806373681574028681784961449691695411904062215298868468533513733245810362145009697706570348963973759252011813305361852266927610862711035416926353695275779382447074932282571207092417513689541456500562512327535693137515832705361149953960944182834347409434573788
59 5 -0.00057982126040724556308255842018775989951866980927232423773512520324184430444582563206663041268259719738439624785180364030093060638573356058960785857993107109111361794864010808842847225692911409624307084698944307383238222632624211518645645082932605396006451708071661361178357127467673865636276
59 6 0.00020087554377788728465278272650244368986284320145540844352333527999200068791872410278927810051871270336967746076937990898001557366997425462049225835771617873739327368408217052979500964968509688040667642816849521798352527653414089437003491228361010873720817370628029117962514737096828885959681
59 7 -0.00048367940114158622290499206585251217573843552128986791576285519706584016883516476036102780686568234904258321535287079873168689395911476985507705097149702994156602564184567021646321220861511864445346370993913390267383724578976890685057194485616239593053530457191176233641447745591411741223501
59 8 -7.748334935591575186003587315184606343726040233803579682930299924606551737571035048330321046175314817984233142131546762624865796063181711408410811608455551832830292578394497548397908964614711854294554381326716993065596657290091072776210703133817811739193710657782836552373526859921391517018e-05
59 9 0.0020151671547150010399922832736571339653304818423294671612011375486245981517500080255765274132819079517490305202351013230607557025092864730399867901244758318058307891985701943402719736261248296725107716403766817382925034137601185654854718161452814337035388438874531973644952913710722657622949
59 10 0.0011419485261191290546860816296718625275950452729095385165683117381653728400218817936841309726973431435258984881502246731652888612451637587368635167533940154683859856478247375845798396947815310424360835269482589785987300976975512476568987192744749766910126288754913253649513256726244900960446
60 1 -0.016938482227190408335515948745461349849230567988472990075911248401026490589751478885036947473370421375973417188712719307048560203168768741645282126638886715344527939183476458991976128268869921347169672781055367582540695542767707108872397521614996346898320938570762643917088213718576207551408
60 2 -0.021380868002939721503605039480088620407718124360088463697809805606224006370390110253576235479592146033003468091333269436783750978844358915223189651566110254420060750321495578257465517610817453984983435655528992119906074749413299869008802676679721520728122269389698276534075878646013539829112
60 3 -0.057498301547049769223653459813225536635787997588835800006510848171982131537199187890329742574113360049750904240241791548765106046240212270358962630510603745305957121624952007309299668239362106578964692414296316582638214998003824296113159562877058927175793093736998434544135999480636051456456
60 4 -0.00095358187837432946185830715938920901424039734479895277426085089378102220754077324762841579782957346151843333518448405633411607221057202913156422865674701859698312202047486501844920062937619348527449003635035627422523733208780654287112351112058535912372974603915746842072872854489910929765678
60 5 -0.019538438164294086662082094634023222129562045751318729622224852546935842794258416034553025590712416471500743717376251234663814221781020209388297262655046658836034608479579451245671811292908807444720941207169513965161018392378204025978680957671685948649228353266261189379721498914614464792296
60 6 0.029119117066551038923833700600711369620828989684987255049109512249567838019377820621360212525614258199549254823187493786812386801778195973693662168164828650109978410610993762622340851135313216009652673629548125356251920501835623631270358437090537244935575306492866879115050124872940592620018
60 7 -0.045876203050564920766650397384849072284905688888926842302254481729183410632684790656809905856857053218660556479725697544515984662370830383236031299396055188004587662145080869100265060116670330786690908036558195100568208554516794196385419555742785137848537626022304491340341239854513736685826
60 8 -0.018863917276556026015076307496791732887645095646492181736926316917307088501631058618556565812600099039601401054623378846526017076887367857182812596775513086770222317987303000619820212089392214341911473873452110298637730694450210545530109215583554795534817600286642646016934344785730535118255
60 9 0.14588439818449545222200276130204264683391240676526782889258594109879967047986042692312201880865113672692159752298382905589240427548580073894350677331339264815091321830697275218525266821467133979070045510581578704728926723796806197026861627050284754728040745559144478778201522082014077030354
60 10 0.11443334919392345837094314270053020879251022940677301255727865903606834952796453888431295500537219629372767796772039755968408899970129219099716603632258857305851322379349877558466151917802507640046552346910069438943426976770359594584915700489666059868119207148438743083208910717392813294473
61 1 0.0073320105805581666671875064151251556746784776160751140645056643931784588986526051167804539040619381841376104858150914065209960155929594328223871217585523786314746087000434920328335708070141582138366086977503283786188204206995024127825485859659236909897701955643869652618428328019578713482524
61 2 0.0096715748207154482965003597714099748198423786638169700376640891322963691134019547673717129086499141722674915190145341349177434638621276247334967161241882884605508697207491460833058427449779758475179443313453889833982842882669621372292620228310040413633563994449148054490523525767287690401555
61 3 0.027034098968591988601158665171157608509554669444730160407125708140315959342115124429049372724345929510021912575053139125004684047533102568428240032825109283763594842851789091417707443794748665911166026490730564268347920385355212820054594067621880124587806189368749261947710442841550403002419
61 4 0.0017109799519523181448269946620860870566320744228862798219319596512943605096405633939329755543996985197617779093620810908710578246913827074878478155422873529479842559160717930379130626984447415208755564246716362699214830495158461474674583853815049203661385359965200091500194099355934880054151
61 5 0.0087301655554955956407864241461421802734582721810314935089260354196378533066050810632930032685794457992141353997920712030976096942788946408113940394924358499299528471111353219253802752502801358313011370701495583735012913024278092983273844446459460478139591841231437224033260522961647925312285
61 6 -0.014399815856795471756057271616218404958421842730519049907212385962486539040898699938162010239048364275138756423680244978595238062022695475853182717142995992813476363152506042370694510713717709522728558479580732658795724792918316888816157881436913398030612796453679979690851468748097423317153
61 7 0.022378367763819546014871525360621710574677963060899997205789549422683316348131417667811092289429210860759793979071733332154746055328334501271972136660358270995905195174238560698500265643374044351264288754781109312473885036927730863115503408932207016446223157410865972692803509108075033498736
61 8 0.0097400188710083640395643821425438374886850434081867324133004450949280928801359222344202795976074819692450719214606885902404794353356461241992088953694646633320525819883567624254081815343137751506912738104537014223277862406150898616480996164399973334296866885564980798500703763735983242192017
61 9 -0.070873220588619599748353853245662036848463192778714985108082738209257088136040916852728664531854983619400662621600673115581609824014241138648123504865082901211905533640447990364733071899355274751656843891839710413736198410057916380655335465660982428979244110492118609357416769096979455188464
61 10 -0.056742218057311955974672941476669169926495376114374034958823282810393907580295866288182831201922898296151464058884794251983043845196670440863566438524985179707381404406305738680224992440321376413717561466884002475973145063534605274762028742598155963549469741389801305359574813007114223752036
62 1 -0.0095121990915787069195144326462103200349447611865340794686195764624800725090151576901036261640083193127404513730343904682324095899113062576590691775727923023197606956097189196722385321009146251794174838070490719093984460411706902043715827971829568619299213596484822262015417029710168005826196
62 2 -0.010606414833959970130781927556919413069875018538231431069740308404387133294774905528990844705873535732830320188161343143694598318046544038434308437373200987490170091878444193877688309296551562766542471570961265191428847459309210017357088819786270907762581491997822382488307251154105530509421
62 3 -0.032245089217076840399019681705012254330728432711984223705665795715004034990957213669044971672645283265398039477175466839378525354920194134898294131643754184214796646344796334885506087468582083528873567797817529681393886646663319749833726836317045112649367276342341735614222535954745040659191
62 4 -0.0020939782225856193623668490272064161522197453942479205761529733519602719968814564514790839927673821808980480034198307058045860876206849818924702460519939038743055399029010558254742138975343512714363001011576726001169977785943040269985339854879919750590077292158014850805178933979984548912005
62 5 -0.010309979277247466950251074711505743697777738348912232912137643990290032440047169951240381423968856175345511889646978956351351602572184159537312599105344104657015137706365390834904717587152489942290302252761166350009095495699372877255265375936253314643505940916077754390755520404532459191115
62 6 0.017606483862604571621746883342493490811579295411333024323028426268746831169540539968036720565433078570974482498795492236900901668481814564980439302341824863403206967839407060040527342298650156802884154098586376212703600289572259910294911402697556384889660062346444056364109764116695334137214
62 7 -0.027135026893902174551231219247572174035057165851121799079425992356269269080181708769242605109495354105649696454806455062522415384533324456274766325959772456366467576319075770040448599655675147776711566976034437204850777343610673145965832063569964292763629448501294050531512716969741638013248
62 8 -0.011563428564023407761152418819851844688113271533523753584259512684552165089326432673849431396031427728432197562344959913419744943513694946270766630506740289950069058940926952113889319898821150317207720340607123997717298489089486377113555641770054916903766505429088726841205054736229837787024
62 9 0.08463473701193949234010710390387358471224574681249195495291951063152845399073234997931877549454892013593202460837635238882124317921032541315996051772411457427395458555143589295276419191524257087930771261579027624526133069642822391568911373717605228431507950843551248633789404107241763427775
62 10 0.067876815908770408606946068294353084402068174468778122609747687557297037402645731141888875052030813198907884158484396382754465224980626368996650706615992633810841863785541742057535938647177182231274127549124766930155985959632827792443505530475893829700898535579315111909331173723416386447709
63 1 -0.0045649468731249934262822105074224904106876989636076510757169087879322724643582848277783205232057188145001413743507494632632707429247403365296581358360934422639373686872944440852533145347359027892327499293708132106904293290866509909451128626704212858262432216803487404861692817183052992068155
63 2 -0.0057319080057967019919643435731241732286345195042858274143921074681500502690403286422159689913627363221982169970254516603594425421000479378246716744942441422005997643339048601604961545004584089896965761458728218185207854824739787062518598703079807414085025236947133060694934298966312240456739
63 3 -0.016441803374986482325329275686648072602081391299539133688509800288890596860923124289187863852266338634310889301239744562001426806829991536089768412097598891890597590024566116554885772141882021608199287058487474568394313187629625181626146044881361710772004329235388875535182296164686510804815
63 4 -0.0010601520368418895619035226936910489181443908867181006461635069121740397382091738211067519554056480683839421777169935148314623602334512381842805227678323985864545782164128827369698550122255580343192988506843730202069651068343405118842084470947964602463299321990105101318590787487815489975972
63 5 -0.0052906274496559027650647542413317520988955967920334237777245953077128475371413565777028437215310507454542897663162739393016340709668482182133187220179677367521623592325589603555569763953250068904292487043219209383503099567646603986901450971867563633035193239246137806094654288188146088848352
63 6 0.0087951496919010367777656423044949118852471041664073764712147544602207308055348021466696845420538175154623663626866672416480804943259494159484091437143980858102830382908379933576384768050183503893044655347157282880049485907469293319179717138792472323104072679236271222717987418162639762199577
63 7 -0.013657408765437677453214337821008982079717892444631018582455987431508445621340200807918214887114494617656633478654665590862223896585987752110908282159612990490004637122905955689766285792770489246979944278945753967134188569481152982034691976382881082053625921123996696253559691611160860812996
63 8 -0.0059129687561389951104859377751585547492878995856932227048867908099943900711677058821934886017352085352478077754329600711038301746079015750284573031503351203411164281933650559485650967606383820051533019131500752030337035275029099067006477043279102960095228182107099045651806066975275927166782
63 9 0.043121675441185387091591748476148425372897535093565655288260930745966333188757449013090007426321225224140041446219651812074136782850594271008977198163558249780435352083236784074225955815489701720682290018383548814152738457368137920287887796580772499238435235829864079993120926774799926127279
63 10 0.034527693421538024396601283031425906959302656623386251759239303904276407781197179503059150977103375155727095440918625877111329823724127256148511449098764701339719625888373283266459287216213577014847189024417788673910964287792413116050218088955234260925945532388903968956834057555811255085491
64 1 -0.0114664978777182702170643140482249747593249436677284976239781200134110500824840137080629910563334658275634226141406850400159758929435994924817445238546631134962096139983763923718733257153202126364687323213004163296562180085815492280322915531570733108229759750484775854013358291504364155698
64 2 -0.016652710465738119757175949936290385689035269028077012656946064249369493183438912920123578599874421312021598929557469762578620184064629459689325886634126777665618331061489943743984271465218311378431686589765916077894180995548299456668603947253208708590758108865271768046712263376822983094275
64 3 -0.037294576522882213625730662469958671310070308928571833424899019184564142053464081245835967769530052918145702817460090048287558074079438671081941478969990105671043479095393052682273888026688038419517925147494854728352921930113546510971536555609410053481924311577138731423849506099766887239908
64 4 0.0031622138431848086559278683016231863864417113277729789643122450122934150921376657544866639347170400150721690453198723902085146399812095493036989625462010011218768564980433702300080073760614278256406001165370762775073931564643440967156134935235419485304323718192672519133008979787159681751734
64 5 -0.014189250215793431839265509690787562498156828767726138719898373430598175551323582135477676261641062802783859868467243553864012212749370786733566455838366539082279354476902721580973877554667116342996316223051488077753335085710321152393003853583152707988449410179139570086954889087309745193087
64 6 0.016101419973356145121370138960043404855131926774988839952663890539853701507558481970404196668499753663005605798382376938512008520903311710518311371586904261528141754207138540401968586507382850239574754451899363606108412321980031919202416718706223708368682808079727656009652446905007129000359
64 7 -0.02664784337204826354849183580335649864476985295521522187835402208814459073853498030182647813430016087124511199604751563416566281926915698966417150964176610473456127766678417347795665144213890063854909962071902640110350678320390890392337130291855414350728355055729087207176470034094538573732
64 8 -0.0098080533284628135385502908725369980298926024910712304948225774259567557976263646517702629062649135101023605266850146149920871365746788970227714547114141291890163044131182568836440678296375285697712994454394013112571615000356401441400722662020149342050693306752560020239734223059447812459868
64 9 0.087810266444557841851402411217504318272474168759552644620882640266503699721334770797065094612823746462432812807209934400429894877588924414020557493450600813580531997925957056935492154021662218089252538336011326545650650650856948356753033889489809279366641954465383382336206360100628222577171
64 10 0.06535421265352190734169738119929924838923835078344865346666187202457731211382058425316167224337438809407170807866041401232366493320753849371475056582175157645092379897455752480314908534645694084958488674299650612039256878756370932239458468053229240066590705146631261518601285111298307786328
65 1 0.0062555150963599217239773924716304800671714324500085109639650598782712753387948439725591141642803726560735706783628778653409219615955047126399638574309842924473089939615739049661876843358946840081912689588501462946482684499827795451890590384062858839076105608529484670009849194652543975733745
65 2 0.0078685502538454112213360439913274487455131540205667107661763405311106432742585855088152890768349697569292957108712076672534480413295643127938892848743772006238897351771154975451165171716305624735226323275998430858839962032463546034769035196640135973093865227283306092635272467393111495609018
65 3 0.022345045719444470873453407614740669451270954880412876842327879330924689770341886309857432092354353175840221459901205314377804313601438648246306397415090075979836439011779660705249137839532167144486698977966930200779991809940754072951958782165308935780872797079577604943702164510536391081169
65 4 0.0012917385824557876471545191010948995966106842877528312552862268299592837148502142664656025571074558577006259161908595614127919030508535305380482672083732657495746944118377374803643797024368238818948152584853239350183089362221531751508581709542133796927606383749214505735154131441337752107854
65 5 0.0072465508484438699741488904767894262599883809826641807835603352578666141311487496266570685413038240985318459406780379909527638665201303573872312237590192513395176264513267043001371074180392438080562562931733805339473914856901966034793940721826916595441774094809499017530119396843637340419896
65 6 -0.011877770139630507424509758711418871836862423604756984259549673432377612370267356814406702284795525319273071096595482326182843436966980453321793194572703495309621354422956330484684276627947505324026680828366028248588109075249127826796950393435409921549693928951890926139153355994615731161626
65 7 0.018469619601074138923000249512585891703753660303460737124090273375865075537473264690539399120280203217511639082374840700982425265387989817224816404517777773181085716808059671670931094077758119145151806738582406302545379201191436831030752223870343309535979157317822994924207309289650647779061
65 8 0.0079429328911915202678484516287503078703086646216430883879762220577437424140270788772218097913134059937014267521212487563388125163484548201939770800828030498602501330507494630373858205292105418438925249030346951058081926045272531230892058673634989728883010084959612442833299798175712667789272
65 9 -0.058346079940610340801151675291887122738957723946104018841419832808406823533032163683524870950124206577618083535413752202295944173679777646938402706324942183217540972732313914448480260968869663554307249542549302932640401118788481990624312161902163363437793802217569202671808898376705813675943
65 10 -0.046599721922441863235944557331296647606910579196746031366200071518263392911669708215970143137161982958419642293447726270576993920744382884276191975656381340170705296036817237256939843632338959101013334383312450136958446609074975399944914125403289905605709195378205284711689025478034917527638
66 1 0.0050808265618666268648286048074038002432695412778702852813546299508051385253489990449433894129752455946376175039597807632976576744767503816919972157117546197829730740351902247669343004365860555863669361312395751757248309160022402364731163095552394723039694830794778182057490056157653538522478
66 2 0.0076942190878246194973391634188886210997520866887712222363862138478633355935020154580870923807209346025470386250514816259196016103736496217992905260437691295576423642502684177248367831896977415410920760592923270656238368729412341813368716936306928296947340282227486039678516032048411701719205
66 3 0.016500676335251108290376235706522578829055816469694569000000784360810785234375273522476426252386381324013465003166746202957571397837721768802236174803941715303827700749443024346912028163561295342343449172959260720061292941969978146286816241397422983756481252272504952271154070093721370838875
66 4 -0.0017758651652948007225028535888501599010841402457012473899704741035692813202504838943592753487194062264832736554799442152675392628680494757228820012926338950881184647909687713223623514747663309076953369485452563088820636987375745867597616845551141902820186350293896825626260638502581026976637
66 5 0.0064331138272500917405767024559471374117957038724167942466910986978933208346657832598760290543441007066345566815949961054028854806249036738111059434870304960125658136919252872677201356895151429938434517710379540352322039007689114913179321992128576359137945404909131324629858125892058465390976
66 6 -0.0068329466877360038643543813846956045411405789034633691786341867511641839497112152986537662803378191878594293187697265932991763372109343757098535917659837220595182801400043903767698384552911880630799957785108426801534155878626664752177661455694898407804026132543973854786979531303831686978689
66 7 0.011464937340979890512401707674762184777484633701818993963996953964333160934867216614481070302454997175956545816667967040678801636163738024140125828731262886262188743835724064498750625777821190846908517415327416703834458795097813418781665645340898189232362309070332386765858681558749847641844
66 8 0.0041045598686312639378406248270858753778317892091545737676300894450449161446016688744195716987506926204167951459681419559120052218351090533311484218902324381890125837464885912777846821961224878504228925514622274506621866218601244898125011224405628820922777504876420992596230315285963540132359
66 9 -0.038175870847291955972649012634821120688308987085318732323037067696556326722008594944791445657930859611318056287798006046387964505026407208709756845958229790695591313618852850172290199438082891819232235458153198354366115890555383102599939542548903493231118434021291179881108279714680668066914
66 10 -0.02803622234886208104908916288758975651331439811874783529692295292886866749264815713164073007311137341625523105876453348341047624215472658587440575573906724789242728372250911390139304184650495682922067515886688981452246935836937621816729526842265239751601911388105458055931133090432350547576
67 1 0.0080186090693401823394628631413437177132945017280295417442906629126191139518484810488607105165611267391133383283032275927852056939746430959153811634653280922044927963278386689921487406490034159446919949447567072525015505674956790946352144054487671317720051440403697721054476075166181836080775
67 2 0.010028259089939344946866082903284808555935676837379060609335149067898188508665432857744567684933016774700100887641958129739439252805118957185335141003983262792631610298007998164499663783317363148330979407053232279159278115546056091598069561324988724075366635174964372829321667087827022533869
67 3 0.029669254340259183950936344175518505309161706664431960395574125217608696427061585259721522886157295820297412185613790185906396576721227196210302507286401600127165281671255487702806739046828354461526793736485346761298431123651740658695217135964365050576155598227958093888168641741307095404367
67 4 0.0025490779660869446522890348539343156861434976422351210919645907122430467440366147091206443312865632287246808713071905746738847961066479512440784669710434383215539663810643618210702132365549252273526462068186472979226867223385469275049082857165040752326373093505310526888925533744514009197993
67 5 0.0093060565865267350210375070899146059878497602291629548610475743318914969852868783886883927106930903941562470602016320026208991488443694124069826456696874101439190168933632516790151254281998426953810479465008567334570946862880700537612805976747053776926325025225660696429445478504397046646816
67 6 -0.016252693849197669869314677592531227651498070126189014539981437040623249200610208196086544825669334828575564078505881314123981884945083902781414039465141421037230654915321611659501400543435433099506781620055709990239132949901593066055567752954667177193800138073050029931431482793683577393652
67 7 0.02508267450942664839145744391061672692892979504563136869771779685276920982121420956909090344885725611422651061479710984250897315717488519939705429345897270182669827884640780438652106429132137016435601588088764581083581713742313047415382621567049600538814816475277118234070824153971116025196
67 8 0.011087996637696878625067811458057757589670008211423453127153740555668898423804925287484926531777223847986045556714583328982362717949533757344683999686988808554370209603270611850736765733199932003035510047678951778796026989081001643143508200410480477853270322505558795478881812696533231335904
67 9 -0.078949862720578975739117432326302880883350158300380662519851581215984889628670069800251389378082470915303462615464154844425436154344620134809680619607104518052271505575970179432343833701296578251018226791211124702595428073033618910902089581657017005334516091138691165180974835622484996609224
67 10 -0.0637647115584304200561075248716737546240963795836918985223363281071001283665778030043532979149613106934950422413272176119515917973897244127729030644147826835891565732782140771548290194339016594675265308120709003665719545399039589835975698354308764199050780963181117019534265362148759498142
68 1 -0.0084861510839149740290596790929582267098921434520568820104358527519018205099100430813789219289151088755654016346439696272880434589271920945108879919289379944126675212126466239090712059399897939203248435045285421373761826813205348974820702913447081331331459065288687577996345619511185914497905
68 2 -0.014190192557212270963325350124662225145575156892342921552784128019662558516629745466875823526114253415440793857981151050505919508539218892750031411471992365583202378522151829467647443238845279793814260334484404601943616057091877412790123720926505410464497243833154873739775657454710429344761
68 3 -0.024707360907283179806026082402982028046025828197159523670643266499043058460408064787281182601810202288209346996854213692100244956452023810849542803263838954356903559189067702834629624094607940533539457395458961038622266734320354860382998362046870775585060500022898493454337862455753865426494
68 4 0.0068454197743422853132249082122461048444666067087249835803873624399562957577283947501367549751982309555685354976529940584853896617654633411564005034472709280339817420233056952158085159247651417902695888577414155613425060928203942814854426254152767076685458987403029598088124133583053767845857
68 5 -0.011275371104271101027694516987215680049051636823192561827008555484708545161166917947468406506730932769494391851397091482998336149366305673899807442763387510710680594316248395105474949227307555116060583213692356412553703104100411232858491994367836086680559502639502806553212041492628765973358
68 6 0.0072810151457044415627126650429848542621188763850845718543692563661977179239737735543996777574842957681807284254300961623468563659865923404433505832465031412790529055031504210545939728139880766648711913922057019763468997719289077895515036450238061527591092373610266589881267208270184539954718
68 7 -0.013872204523136520527758964450991947686705949662788073410590040238208739696850082740799394110131134761476205013498265131015332150091028255152391525781736765182997589434558185145245802474189919850621873446343864354326352887295750877226396657706980448006033470416748034954372295674371490501806
68 8 -0.0034042240028548808696091811524310106020937639936827158834626288968080850944599435851881747525365233958290954496666753907766270805323588012797664585499027353951185442116048416291567817522516607796697307822724112945158953616265089476126351057556030445975273252822801653620297713617861412508992
68 9 0.04959634366864856513433071442263961940349043469547556964222413300331539021846423691391435364133973371539388610296851771751742783681316435743754345920623700321716402508189611049767061941147437141415172826671612011504156910042251456862055116850646110096542881608484521285480447298506884246603
68 10 0.032141658354724363931662833446152863940320358423032109639784730003331925052757987590603518381410457324713444237237317753935465291224505101181429886484769161287907252388228909189430652897304032774498663365182050710538063118255433100230703882445118495152978932675663602104347791060275938085564
69 1 0.0031123599698995493810445299252969150963710630350902914690062392828142463918546701684920254656622278555328223322609723915411014034945938749886969642644928799695653202929837884771004302720280294174633123861876659261478218339002783043953661931028914524805567414722792446913061305381746289146632
69 2 0.0048407708806737647918040154616343632927555465454407463468240422725061653150318257583351100914856139654700228872934938003253723622580857410040569942375983706721708840794530187677591834947541605422176356535975483035563545825129316745556419911192810734201815465267281613468410767826278389226256
69 3 0.011954490367862741724137319052036103895743661616689282818045251958423372837662564460109954318104707918003200911039908093337722784483717126388953978716380095460160454850212445207603781887477833982929747894040223519826389804770387133909711508278702728397767963737784180872644434258936917444616
69 4 0.0002492161652957822480118987305782697220601783188969724262973305993330025273488389043060229188125508308511378205187237248585951064463946105586031615841915013220337098297728536033204713490234136356615505455539029087652467618079802226791971494851459438241179469136991083313705653948634521723061
69 5 0.0040863457674324760172829196410418734201054003573099201255500242191740786638405541369476772182916389649986464617915206982352848987532735452718884979897870768574819282047989688586439581379170003678426883585948032090214904383249726696073449863247622835974454155354612232515474948614591793225
69 6 -0.0058010932201902440268294205403033884191629140255233931440136533779602121692677219761490568615347471999916280629278534888479900733151284530508418710584230509055387617299338921909746928332221818852860602752558548311904364173061312797253068994743182852120574671101209853646100844379518790397925
69 7 0.0093061086877186362084709827762714148556833015921007478639007750360781986659303317836122479064221093902336154289377812275544144949909337274095112813551270446490459273006218773091873030223167199978130938097690061369011907106971065162677028960358482267195910890553074302449947715615435423524932
69 8 0.0039713920975173340754240361037582972398895355221772380377224542797791946719919234256272125904410323431784237767422038408876971612919382159717024043758218228371840908784002113933180045569477697188271135645751178622387305715636547931195491273263475670653082517430556080624931614040236554003146
69 9 -0.030370590816887405667521024525563413890759465882711744472515766408864458168418972511736310240919994349338430151847028557138983203132720360228408010123611479278600154644632056077472190641689944683427719071390653440519240661678999456966633930585223354142948606990879098953766511640304374365618
69 10 -0.023770509635244230133201375888748666176411073700792850585304667310214103933632296854760920841767537713620720510717923061180401285121710119981680275470685334510828748027829016796680057857077488995663178391572599650179921751244892872908423524522657051259403802523099283471556652810657085721819
70 1 -0.010170902799361685230356087850084230216790309423320595897040509362282402868116580704230583399393610469781655191335520346798672791478287843079972257576429510559208737743848871493322839923884371316414691729400502238241835632591915405687857359751090858728976622807717803719106337392517058632068
70 2 -0.013285706750872632311803816631682768873831833058338640603066351750288471875141834773431107764113821619816761070921160551499407927968517739113794550005403597375840191817704995409006983701300260514148239735796577311897051563657352938428695323551526863380958143013623375643917359124857422424364
70 3 -0.035684301609252875687642374941998477804804022537806158563364282078711240229593861373094317112756266821723702537998268251902011504711550308764670460529133456186069675814828860108993776351018719184168776800631135756588010546855750299264146448703219317058155898265532003140290302456771041474707
70 4 -0.0010096784993027731600596002089828863171089638727668592926289067239704247921735062499031386247262849728229279763785425053544360416960425014375678534622351101391582000328298610146275482907152400643176589603162290016300384550622234295421336401553755437392389753658539009151695828209834042901323
70 5 -0.011988416986060221335429804225837216732090573944572128297173051516450346654070165545135802136386958895452702010143941557543760956947790628022467589463675660056973375246405276163848607096743944608584767047420432376195299251235825253966010767350283058015395394299143863509431997315968280860379
70 6 0.018211053610570004107521580899364523016596939137960991574955007115817699430678298040786090851552649662476573793935582619814010831857100219308677525315063247823170451342856360266557639096155046409555542763775653759570775854400935392428696779159750638085645104550268207473969680811482185278969
70 7 -0.02864805588361077384228219963856886592952911934766380984610878279094819722341185787418474201155142377923550224614681647358052462573810383856551069575545329284280939635805622995117105128619588104615342911709669303650068389581928756866061945881619821059118580138934087294086217845789861378063
70 8 -0.012000373238827607992491607745237621249876162951046928116231200889911950570834454590756948058011755060329513025697471985916043585089059115887962430795553653589287338258495090962305665670554510759330806109548412714163866954827088464918274219508530072003708417478784282801861304916873007711999
70 9 0.091277293025430277574590832111515478618906175173204134963876442088126377174016753236893182723571422786003465985022917223582931063718867245046603748106393417825012682524427589858437247022184593563609589553645487226884206453030900943055271823135652181769726622098482656547397100234675967831221
70 10 0.071945689386575905436161219310845267396606316474028917844637280842684321039256595115603713923137209640094629379403934479940690595726931459840630662412355621527057584674591911886846224611025432699612717044616106451127534756438872640281246206157850053717926336192919732988970152957302238136186
71 1 -0.00047855986583597745960141721104918822265851726342407366809429417937057047043535436551309499544252170985042508643861067920599956180291403715918171788922277161233863017464306727410837196099054653065458826339251724786558370546898090886166845923718890286103938019130529074834497268440383462194834
71 2 -0.00099209836681175174417081247363341670451191256912106263712472398694987620592044599481673631166796161586844760431349483287103355745074300813701325533463316200512016541845445284725825423854896132294632281868349488335132516470982246072519328273887344045738533874340720566006770554015252959263909
71 3 -0.0022683251849845415985238415561762953754047866976286489723898780765710359112286831208505411806825744862908695078963042098436166560260912945797944014908540999289955397070448434738663179585420146529532841398982582747851109855921668196084225488152093816356461102485547109885654763721724824947233
71 4 -0.00010609456983327387931767491219402558022130388092718688455784360228273883200856973748577188558252435485065414047842212605412162896588081949976557642318307935753218710924969370702771258916532198682998710643428804012143693821864291103270355520117163963203416959025755311075053919144327150468091
71 5 -0.00076232994974375152852077021871481812887217283206887116225774064756408776892079915279179522123638047357042438690652400505256577667454899759422359949979202109316996240725178101001657446518710011997367004846344153851956978749178724356976072890054380729488306687713790789658009283290657204872668
71 6 0.0010813654921786387125660822127580821242229654177855904938764313141917651067804008202186415728251558282664381663189903153822221796915578887666626628854669540972853031473772198958021227280782696138245151036021012980555212240231649138228433491188753619975409638231529858803263298592184392173635
71 7 -0.0017519390033202895313834612479010766338686786647775571992877585173649578809297165618487478400613393235635652765798201042387283432750894241237049316367709765139528601769693721107283025565995578523716077570811482299090423928771152355453171607515690142409249418527889843747811407716270052160045
71 8 -0.00079954956217031959336451315138453654633857068592140409737964612802457133127512794635771953846500849426040005943794033175382140305536018052399365013708033572942829926117375523526557594885055735557451512208426970380882562982796904896691878019993896798039119296291914582936340874175792597036341
71 9 0.0058627180040185842145723956852076410745787965966751137718927057489465951416904057714502377574364424123703065900025510694951506787415578059343376731597532984166134612434747398789182618858118184088327805321107887252331671254552023426809764161692499426051468950499828540324749589269405827484677
71 10 0.0046267497844766602875025887543811646285881269067192940428672306202173742554878786185994754963056223864261755519504185053723774434890318746504353792208241473575335451011167402095192689505506329534283542929837394957774188223513711724712396144426262547802583171288507281091784966569112590646985
72 1 0.0021804949080945907606016473516555508822680424143553592017517570227370095568892120233644886535652126325600583868719169809363621114054946985344473194502029958908453371804195495305703281838431368584742138998482942373029324378801328519320126640978144721254279745813917752273865652917500547319029
72 2 0.0018746483684800973510307313199295137111169365092405414442057811499278575972927102077128344181248206598924406226741564395630694643575230929652949276540267546754255985666567684302773734193254626143474598796040602252061977965904935721418106158622138882278228572754546636526335118462405816075393
72 3 0.0077522921106212864121853618160094605305305416584540537662222654547054760577884530862644034151983976829479844257751086442193727606098981445361550480909528328976318382172498550955313403076770713955126216353451093830481744562027593612366557000918352785567199976570992536822638005463701296286954
72 4 0.0014082348131546584546445875028255798028464475316328254930479932630163568325218251074026813229324864294670171102501293195609408615198061002515934409310057846341091160622378587715590357334893132976556744750728243513957860520894197973771689249653072805907784279683254669165689029276173153115647
72 5 0.0021156984189395134387641551039042364265154370962187916215850395166318925073597131506053229602014876656707789777262912632777799779967322079916881871755950451605378590133708356158262920887821191510926612280740841305470569746760098819397500230887616792726929624468066599897857728658284401932672
72 6 -0.0049067297182839449106813923635865810008225235516226301775781210223915076553150273043014755557295383896336970857626888900308730792156634352086780730774626390263605621024728683758669553611562800743051458078835424762823955854077699816204885576180748282666795787351291575859503129903824972912147
72 7 0.0072751016767491185461641450680995680891444502089751464909617677164627682825751461352958674395407592804053298052499128645391064478375003826586062429182306218340229095869885716760723149151888823827424932354061313495610175924155323205176455521914481660453310314945145696997321251813337641794878
72 8 0.0033614250931068614872542136599043550866190513766743297222200111057927587381860567607969635932015229764197896745500026440390834750007906427067978218191894154923127761787158386535436766469763385365250190737905071780279438781475126750900941118523120745853778081160636224141635422991748195797206
72 9 -0.02197944481556658563658417134634862785970016422014936893346798346616780702625726858140562326914428299212898432280557471107616350805594000194977764468456163826533567220304710324003718245633544909245040140141153295040911448239158693749882510906509549461249340039827130053859403067186083448594
72 10 -0.018445677258733979164142681605446964330516812176008101894215232344923071012834590853258768007750204842018935402757186396382617504589401877701555725717656139409375047309521305948624502282445537883558509692253388651397298232813182079711809912924400351597767698231561332991227541954794562511636
73 1 -0.0069674660806547895951286342564875925547447790521097919862534041341156770675373638572361045975096448942875109199044058841295170478568209238825608192800272682527033343493018767574168495847124768935192918322601680830279067538020393038849729869417414991435296507950588528847165002539181154543908
73 2 -0.0079824652928747225162957650036934683363573803916108533178464699880680309541493853669182867843225649174217792938186569625809631710348109909306853219569853316136637948377345346473518474542188441342068001732518408867592697870011899709673423411284080850554714633940912321808345957887823850203161
73 3 -0.027050870442315826648657549794201100340661735461380232885369545634851787598666547506001676546476434679235353785475063740234810701154811614413799152933430833157417050622454796552974934832403768245167914213258632082843052220072268310213155135534824704583696152100411655501115637748435797616772
73 4 -0.0040993720293112871293765052157484365303077861700856705038138689918957373631333429895196613470794201621278360044303669048202840030672384780548347706901836763309116516875366894021252413986870433344618700403455995534701294067979604804204696194479928916250229408375468541434529067903604094247205
73 5 -0.0077850152303149466464903703045437254180043536055811399008329320337103138827773844866866002866327975333816255763326497988909821809045615340130085830635713543888060772392390090586949467716228413350870473219964545236230564712132822253608873949566195112821914136067840355423262496727650871834228
73 6 0.016097403534747880783380362596140906174078612334755869541939792550714423746094400953662043996678832085106714248567311159190957756588077735530500012965766214568082602133314791087091996155891472349534599895185390306807038462980357748640374339348681357693610500763707306194476652191124550230994
73 7 -0.024291623811010673526235294791460170484207833879758350000760817265187024481107456075028718872276792976112319803990323453695751381584011069817828432548900815669585370076442771011948049532413193209041234951544408967372295654206027472032614817344357188883773942308123940203545261479531921355894
73 8 -0.011273409710275761002993742959720128035941375661279327488379562098365084217068911416798754352500229622424877066556814499183303954686657137616932939273742445964338225559332655339549261328695999106471603254443180104244314169308742666312259132558158368366134179763527578848386113052391573646901
73 9 0.075198449669473494794903736159037058420550757867261815382856106802671797988616801575689653411571480335001009812777445834313262113690187163561962562936475316474713521692657569785615843796780415861558248010720733048722290369709030289789773652516903367297715184207399593255781371367364466873154
73 10 0.062327838225379893212141682829765637028491257653960368646230655887410011217998774676689440852911390060693775213573639177857708114528857868203464571264877874926603327594446685650674963615043430600490257747988386274719624920642498678019428619950653558946865125267440067829439476441990480342563
74 1 0.0096323519859826123672299668940839116064540765700257417025036266665978290975347755867766811461598165800548371970424418069471187284720293444996346944206075467165048578651364113979517883666351676458111478361940760937015677989392005378811115044506060976229561114512362821374466414083019379728789
74 2 0.013408123904121464800767925212370241370605175750457779148978655804312531929649204049143279768433053768526108521127449055934103412127026794764657215610701929110531654650851043111086681571382951074150090407311746879824820044776598955820830301178180781340213006529014314395354846173073381108114
74 3 0.031731164711361853164131345227911334026876192835307593484910407478327638236423644047677694734912122289253895783676609531025952023262996807479339149073091369261246930676768193990164414799835001586427803546021710640889596579187417680335712380123597268438931599209816001798569378997973127852718
74 4 -0.0016841631979413932754099607602162886330829680649968478110608260376968309169548798134332429019546327370675470853081032532394184878029160359303112610725848885317265943518455060395807122412876034059201986331985753974603776725821865923524429345011342082248228168869359286491129478307848690363754
74 5 0.011670299744146614064479631880828696975325393454469748045413514454280624210462993413517265060424058405534140605406401317775992209470045521329995539565817231944850404091357847042600970502384202225616996005234615668539694350547578536160579602782404868305315291550843296638868930779462602737099
74 6 -0.014402043620964229711922494517607819720847022695863332565186772889130552188543740849118648485894462236680253271371963021398002072032736641313189301622311279371705561962422757042026435681958839559963803786083813916408381444651537274756502208269051975412149085893204340720836506798490886549335
74 7 0.023471759901515826153048314846588689343941968863141785490731385027827576791728627873621225913286934865737838728728719808725642225434713433668385460700890262464004703853180930469323159699503049508704392023242026806004849596578126646435210104936775258393991973774231420132769520279831718783556
74 8 0.0089771557386050540601803060900035686086925466554402556015267897448626538456412690575497886047628573150510556766810670462895473345288307096350420138065363282912372652628075114492899947858905366330664006074089216877533781371937798838457959670253725488618327690329551829369736368630460856855743
74 9 -0.076500908175200274313460385853569570803151504224756936046870162748821397742771737551141069172176152045602569774969790395574055512206800191149710885730198484331521373309770587289145210991184066514106736144735691032064968101433892982190890034837696281887805222765246593086485418454730991824031
74 10 -0.057917533514950815028266270833955704247680028634834112642545453197497162860579234097595517512636770872609860015702060368887479851026651567768698802955448268629980430496786176969516229577953617005563048404688371656993305960765188002094977426727127131562606099072838645126521430750841374820013
75 1 0.0045230072021396489235071587626209495826473296763830951535338804657555919883049675748994992447756456737824420845363906327993301510964805555791121051495328502755879466501743198336856678030401765049581138971204581631155339200604213231303712250124591068416181241768319943759155484027375558976627
75 2 0.0057628514369613258494082597769743453166854022783994215957682890586008436815576503368887988363158504054857211567772689656488092373466226907132164312152006410397237517633680001448888178598617136130963498172487060722867787545256771465609963775789519028831843170884987834563649076295418781003188
75 3 0.014225019264877282358008747882925477016629782203069185432360972628930420144244495739356534834345151653344304729694766331492015086238322882247838885584907168250905549792843827738634640928249643097873804375016593545031736619854136248471092408128046907640376135653814318570712148415379015036537
75 4 -0.00072551563262174784840243070593877107532033385095695412021273852444429192996433342634953040514598140853077983010025620475203586524655671125512750349107214311614550600520372067816025820142379638482313074484260098153425062579057948086169229236935253372643223803216470186110139962816908710661917
75 5 0.0051964403919559161307247978566233682453383063458382302651749079444704638387976918194431541032481751384338853919878719738619255185154981562678535434673362999686938234393246534377290148087929922214212023929596688026509012761188644167199731297782363295441962490978740225513983161707653653576232
75 6 -0.0066224373215011364013909028960414228894619575248995876680308788221808065157356691791760934068708130209306114155254878844397644239560963474378546282452425144324582044977430913685918132982165098630671325020249340150757891110937023784422507121199958952787984220236149570899765448848147513863775
75 7 0.010683031887483414823870756660267308717323673801087514861000666361742073945120385530248574557975155165154758037345525718730338078302824896507963999531312040547292627058919185839513430134413930644027795815812070138265008320070757559595338290741352980456880217506600239019561407084825522251579
75 8 0.0040323404537070873390920031738817509799517409061522645634453905109756302072969828179831383171407834785039269396440704189468404051296810174607817649751637013415763391855794404940466742561562614278663333536591278043574963772329970242029447091955326115305293586450581449653115355787758846324211
75 9 -0.034372076649875480771401333194331528487056220849782565449306478405616206302502995284528990607463664292371239294180140692241071190278076238540595677904925722051120396967407402983037758226319124241460163729063911401485941289364567429364779455731161382582977768933580863460258494400894864824278
75 10 -0.026099023675501478973121072992026856580489459468298712300378728263500826803053788566168131917769366140355973055446994754536410045145479522144682620240351690093773205622074710294716425705557342099163106179811078397692190066172216320515957315307245241542044606441408934962368545649991960271397
76 1 0.0002059549768916340598009927646298567960454034967687007048151801184537311222533409885547349586011158192119290013532812869397843796450799216433776818692503407857745228993888679479585606838820318740593961483672900345025279969589258009899423145906314452314413332778128554426958895181310425434259
76 2 0.0019765973440688182403204694835011916552747335444668086718747895996457221683078401615124955759333947589638435081049967937337896617255498031519614663485700479513131828599020409875470314415713632053747373854369267031602276686250773018767515110559806690723333337025993544870075224040776690748472
76 3 -0.00129303571476461894610577982723812352124971052491950636275074650900680134469611540099771554132020563167703031062513028132113413975563650614382840707153831411974573508451594975298722082793401722807248222069946990965073357509149153320595697639205461644385503158430869814561535348421018104593
76 4 -0.0035817852451220555817411650972618108686746972790858219158392397553940560096973529081493659623883729296132399276143126797475604636772041769763434569981582640536702969983463998686926409776828237424300574775581856425478736836144211405241349446513663945247449442082445050381439662101486358430684
76 5 0.00097500531920230007701873242212983319864991678629760932859806708107487160214913828120721135416662738556814113782910943163295212424791062812875586687672848163675609588335091372441835513908151757698959297206296267859193377782618377637823186845764871163564373170968889015070002144293259515574337
76 6 0.0032364379000492464093106804459993031796979126978960913520858404000368861624037645194121787627812752316577305577800059432774371831229579139809443565120793792450074345986045200827995688650688249005638653436847859440079407934076227146486470665163449151494133392369569141303906390618429891163947
76 7 -0.0039092036768239987450836155208247206262380331507497812750620204141428344348599489529955248837069824568437939030207103797531953521262895092649283960189643813731682491155036985087080293364160835744637348552990479684977916228019287510399729913531675355325795364246597027956874604783702268046091
76 8 -0.0027344620360944550097860416175790236756104322548458347051532067253161566899599340126521524397349969834623401769578580223361713715892148589961159932565897790152341305231538907879586898650312040662679332360338528864336859607644501058468177896721067874585161868297319169208954179834408377667892
76 9 0.0097117635738823783796674573682354608886069711247521374605093342955910907924344814723541347038965291012914416011409797383767596947963176025421288742418106666483910512752875002040365484946841529217423770376942352466153302345616415873419503119413730624357342827639848869817684501040608322637645
76 10 0.010945173445852298089656676685674466853489272955623959351399318157532430845600657437557322019509512099050696011166519003635546932917703185991319049717455591352310489528057888766983085944528948175292476149130269549915499921574263509857602870523460498526356136811327368876180779903922810949709
77 1 0.0027096986665329038303207281959453541264512508839341556420003796487691797942953761614571253847962720499242693067825649316201391573835186706328594988740706547036800799845100471413294520256885774884303071437779680480727578994665312827572906780522518022511167298717295969322056683630800888581213
77 2 0.0039897596509087347218464780346822972389666835272027188504287382860337985035629707294829787779242063770228383519223718974904307141261593707672560107947658077544264315593547692973470115392358340728176020532866284872418090637172122055497223822470641032631321093162615529020729993019848926955554
77 3 0.0095771679198639182892652746910631473912717849439904198499528290700772384446335204958577664609697418613801191757889257205200648802311410698322027666583736245732006395730770835664757378635994076243482355687689154076274453172040862195759181854286466479770021961019217708544097350404592590162191
77 4 -0.00019304082617153575404406112446587464527713477206554288549054372093152742453898259337348262850478443724666324948209265897551324409859345872156669305017911987708559394315025154932643749118958610904618476818470064147863877160165706427549647382867914486871357093633897328285429361763600178723951
77 5 0.0034120080067850042608186804593872319069572345036826566438666077311619827926651601642986798914887163520054663955504919615960092529008048914377602328704499111997647652364191002355309933594160074558028305456887514994798731191883210307393561705320591892580912913118130430355482010048466325938196
77 6 -0.0044820879675257860692513963828814287450688391100706092875288999672308600399297106547249855638027201992900454421647142144031644013980318263081455532324410202993564224477403298839612996876254616987518306873932199123432877016010864873318743043165367149950559398731238810265532937891309962192039
77 7 0.007247950013828954252641102881040149689749057502423948662058167686198029296510041416518335556845765104403261351958912605044166061802879129884699634319257642030484375544206763212775297511056714816097164799952714487188760202450880401436477261612921459675458611717832003985381512411072630380127
77 8 0.002923533030609777291567432615205756999256641470164266122323902713084551457713369695990156662163614064680402103281886443817977155320204994471433326311286838671596686991818199461284654255029425486195047470480684609971716369707336449478914328000124608338949216255692123133192726058730692889964
77 9 -0.02364705957319075971294058958487567673683999093619610956199530394255919517058414012892879435928773258311609203259969817309304590067628059511734909636736161222618707315710090888822986840535110588430407746465295232765774989386523597225926545392412007169237574698950665135522393746822188332815
77 10 -0.018184697403429916379794921133129708054002986329613449073366200565419840855708413002824679301981201939283060152785444153573481365897826788528684122098731369766572185352477318335900064823451238711993717671039741859037857982841511656485000683520298797188254361729209759752779656842362248093321
78 1 -0.020533544153708570705959183567743312217207619699355035413347064076564668640354882084331041349933309683506069366290628775437341439397497221396902190042666247239768060820592255163953299838905556920701836530338006846135227410588842204844753649451075306906318327250472851768459894123225031639305
78 2 -0.026306246053408746943905746070296549065636660766464208044341540260757668207661261081019775267922998527762898888477378688710928328375371167703645945024946694881684453609799632309818928316881845150491696000617471845763122161131508901821702555389861345122709817210100796099363425716524223367865
78 3 -0.069971885514495149565770826063185723888406000304854834501864352262920879037804747078510387475221594263647818819281840896533764966573083353029630934266269286712623382380920385579179688634525437794578223205056209060507721199583579389665054726266653139175165955696367458285107787051329267197873
78 4 -0.00093314777014699447226724293583373107069116231786258960828784110433184417741280525829126729846864716158842135321536913279816674690054262110461075858825891540842475621721517714046386302410931093041596928737629798277752801699266707961543529393455786603326690898887235789458998711112790465690507
78 5 -0.023879725519255485290182918193255806431885922631062315575838627274418981158333044359272997841116714124481899821175111305605987060351431500877645191948581699807990597373426795775220940554998201594432707139142906023183844527209214558114931410739381315164832220578407072132478844853137723898072
78 6 0.035200214980125043018876191725833045665914935570518207709592046830939738018589446689284827201780714214054877903900398670413951388955594385290598769294922866556916913057447748478076405598416225616582792272360035043565647490342233169731374346294016600373988477035451922758047391642205740292259
78 7 -0.055575047604944040884677147292138920767589551625808851436105865430778804208568078754496948120250671941019056919223753943476071598036981327497224709161766334593632390259026550918525590885153918572816769213085449313146010879940669189424936660348102694832886365170865895974993109415986635624267
78 8 -0.022817879128713188906365153237609757571169924055631623622435156199774169771813120839696304197355917206784558499158923551233553622009529160494166885736656126951126238559470228662200445382565322961235119092872620978323867183973134428206149403694298176172943509886651996944720693824391501044565
78 9 0.1771137885481382420099130703439511965534360005130053338446648886687504711761330712480570324441941151157520511731550610775472420606723672091291866678274676715828679390880126430355630824296458466447491340215875823915691874464899912524415157059906259363881605888543956677999966837281725012962
78 10 0.13869830424318284290144628298901754515301732754971494670225582454835640218289533614001278982574859525023047341782111285342625426763845467111197230972656729799977017775325240781003131018631749191381265667936814511397944148627604849274358483722135989862633819650392107106811996716383208221101
79 1 -0.0076702634112404681084726054707897286845093637158919691500150022862318784245030380563954399227794244662950340342192558224090318782539667509841787157771191497704972439530553066565024718002880835609731151871006244099621601340892915590270311550600088483886005068912219871722065770696867556789216
79 2 -0.0078456443341000067513473725579806153688624355210214576557371891497955775899155774608919706405511096904621090942401693147374967159606075754273545668625479674132631829709319926886884131891250569328726397330997908487111365360821432743218167312294129840519856955707461702403815098554440500613838
79 3 -0.028483911078635933459951236811756256981699147978223352963556988358281095219694507524618777057048902592921717367774783335650138815527133244518008936736471399595364231044776181652219237934388510032383092074186905651587091501770083624845671753826109040777018116543879533219652463957500609365818
79 4 -0.0045207816086384694737474596385709347673453515674174273958408363632942173341673280785748358023603951197997935763580509750368063814796089259272810242583316469165195279013859563329101042550548879235408890301377993971128638843215096842032409210018748085297214317212854797388054421264677426159031
79 5 -0.0080779988653387502443145142791884410153077963632698738832653890486923446116832890208455418198098188113732511059106803412483228200350594390912675468638441419753160863906490244013068406312199614611497125335698102639666794215194642625354208731388564107272849814117841225142644718204356087742922
79 6 0.0172958281132145446484068540550904425687161949507262531224412833979262860988919589651744238675314407093050043308875119417659375375596988906519334771812188343062805788029321452619566317667089581479367811705639612347598763483054164978809509061776323532368225841965392867961950058467344295985
79 7 -0.025942783906626579565615778940852968685539965118564286283787113102931550553104008002448680445994392124342545052948925770344839413976546174342491700495346879145771269951861857173460775189100586929806384333759819866459088208676999326468639159131596077490077901046663745620144619038885203468417
79 8 -0.011965549551060331749382130625718891455441420770922574552260196783061199809997814723233409976156437461234441699713826658378235004019710783125053892243163470055938020683656570883001438315169221813204040059344843368828896292544807118391803568552359367848991290838541809590622111913528283715918
79 9 0.07955947011352719705819920429736786337644070942690336493429352662440142813213460676145306910695430184522648251389238039953297445830100643399755891455142357635649892182291555342264986349118316257047955261346787981991450141616814078378360682309482573979550846052148226098110546343092204732076
79 10 0.066158156610886861101914954535910403771829596179846019238681546001882816676800558257680987236644278823751631316461216546169901980364942340869022488288726362396929361350307511087951014626453556353660068146561299420407939049233700142295593018492189367878905228231890909210154795272971443373967
80 1 -0.0042626821566134963622196516726676616453721587823391250530092584923057289348873476204462271161331875247030267989416741616245923595190375847183182232719569892683300431754761894477058418052293113911195503205958979042756129220979040670643369788078442371453404232630770264096605284505664510582897
80 2 -0.0064578252521483072580459968161698856449703010152933592295677210095269902466567431785878611033672206073220813882661534466862577530601821063504460795522451245845084582993815307580980541296553957772557682788584635344042005992100377011176343395198867422486473621651919866282155613478380592578991
80 3 -0.013509133224409718037279915079271280716581378260600988955201643819431515485822700414300963627883731612594447654665005135052256070356069350204721809502300085717394501081013812066647376710698215995943483191623296309202713025766433314559504034591917597781540143630630686776960759705400815286123
80 4 0.0017798694613826840601403756834702073941530943509802623645072440400744948364958302467330307225427681711660216412130876407387222994499773654082855035218106196040115955069744964675255737059610868196209070349471183721432148040614477516917948994603922705194022496111916612247329443703032963923712
80 5 -0.0053906673631762093181946790862990294520548077854430542766222329095082918379052771712196398518833855834572001641546609406565006385533559712432781044375208784763324559741275406375437415168666387364744451453564425125496873746594791895040549631433102070557551032794843521057258718384455540646155
80 6 0.0053546018468312409265377035175032181307760258473490168800100777808229932836305182263404643828935212285484128010177805393003246009835932918320055824439113279019028093672797970166598291640660460437047567758913744377615235183381584701266753819087712340609088697004517745037130453882651325615656
80 7 -0.0091256469952487215309624008471967327365456593131891698906298026941431369695526268596410756543499355915287723132609631939231841775415705176309726923547297647903815742624084311025074878438343275508700238879739316795318634235758493762712977450871147629671354897967529700964690821655454908401939
80 8 -0.00313318383685516730109647608733080610769923446062067967745721066790312321523586497099741980017958931623595025013673671832266279848571269435496283014000884502879553942469408754228151216345397545459172171477795717136945722365778342336742344516000540375151347434011130361999526729592165357183
80 9 0.030650476758610057697288910097685315574964015524084746997538539772656589368294796628270367690107502703377916822945056569203801438257438033941503857845022993088132147308633683327432473269454602826712697168837693889566454888132174709826645124591242661726081639387353845652023969626334156313797
80 10 0.022157744440473517396146451272324127871825334355609040471908021060068894206789237885700349242396191559059464988863304240230055929994737084479102385582036777464194286164142843661965608810745639800756893244721994969084302478374056988655046548393858705623893638147275688420417919881633270190986
81 1 -0.0010910120056719222091333671802238390031450596330588343121750756454699316029231655435853944010979967485764313767754298610880691345159518032164699720921475361523304701357288649625616606794306282283315089800408018442096254202188550537481500454578618126662849775887683003108172662467969930177522
81 2 -0.0015481637118950633601715256264539128571825232721286037300109193606651764117940946852613253526348536833540360715724827298403688288527739544385792915588443656749723827605198682691705765589767858135228818936983487406294571801911915206010322712451495691525354026806553847685297543849782918856684
81 3 -0.0030833634406293608740885172825867922416751162744201099438321363181525612152887474970353911473709528460040300379926108075583708894290071707124394402834452982340256278847313271492242094888337764303761174843812392270017798583609425345654387445883031022091876317204796725235563066706418458776556
81 4 0.00063536681831065050404890037327720131536665815070051219161774481451023095529457516997671040869230490285371190971952097819863237757814731807333895363493551857690684062828727543128705672724164757275962641730572112955647547133083533395673797002128507927664939036408227997468573296592400960540786
81 5 -0.0013131447176328768820824770284461854698211038548215478634086097938542817154112819950845141583436482193945327632802333895463092215766388277263358538478228145264366236328974763721380072160775556215271751943051779736324112941513854611299574473186586423898644602573173759197095231752566140374769
81 6 0.0011213183560757337493730959196546201209881017056616138850753092906232305587727072470590280067908894429769157044993070423668447097313631864162021052335678561246592187632392597458792484392322837183889168366651280572497941288129960456521375741249615261218752680256541442082147336201202483054257
81 7 -0.001958815038603136780099122375828679335287234414616726482666047003070815034482948186392254944452341381480868281942194970827711832888733116259157476471721980875060309257578861955931337256200775962183680044721487073210479735417760817125298076243174577179606112291664395922125022620466161547294
81 8 -0.00056603114113673908689119522480276183145343733585695403330583401197291089317819101911040703457860298051139288268608207428989018250843033555968539749572146169660590302288636086753583783602286479191422804935837112858064142752686732100429034076146518717586156254533829547734129100727270290268846
81 9 0.0065959917859534093214817251556685715332601251675922951027120985328488005965407768023133176411489545966533456469278356845411990152180184019547656886803457037885038678219566509332110835469141995543357156992025398816958745688780094415250013488520030885205953631150033601286914188645445873294061
81 10 0.0045554670946397605337869166672256790963353369213604420006902262403672828664323442422793323751645521412020032610300287820457515346518071751710796262985579089696576652183091778501835524858945348209383097982245926350755411712111843862994638358753250639000550915798585853189592443561547357190892
82 1 0.00088130089616091690911255443365561257719216615641851118164279094171505985280949049486238080276501987146789477914169621242875154456101657484425108327141248194647660105106305915904022820473780912875928198198094289738456439610163192027903703081160134482955870392282952286201343462975176261080345
82 2 0.0019865055393386351701867606106805765980205969283571040839674923878303116672918728623655706904497505883100750771026516424494838964529094977095877305224716850357894741475072112300959606233082636957028479793232411438661314531360733987932512656530355073213049543785534660898884289353342988877189
82 3 0.0037497507606988949453096814121530918477297963112249585803133459477084440835976879889193301921192197436581670459392878564020452639247062143638409278944693892986303551650742556550751146237067081845530371582973208007637242543441671291556841653104590026291537531052445536442106923590212955002257
82 4 -0.00034135685607667478024954123990825242987656046891772475752315467464648042722262785314614898288260950253663339956089622337792923544845978859345525942051526642347572954720678350286016149849770978559918105279551392323126075097251076315711606808705565331590800923413792546969805967161367000484503
82 5 0.0014669946779487074581021073253890685380986017264760556392938199963596145989874444538996503451538118507049476255851736185072219467438505342638339143353394995885177246029037302452442801641565489028615988264456534734505027586310723920093829788897886732496675860853030004461874604652846613012261
82 6 -0.0014032687079404142668757421466791452774199443376068577488972682783613000310699257132209911415122258297306213300411049608937379146569796547967743777911366076282208957626847783952485116624518846720202646219936128992058411000055974553128706975048103339898656168194225072559105746407414183213057
82 7 0.0024737949023580259033413514029642743464075886661687330903961177336679512258860283370549672170789202702112620912344655172600846204307112590050877622831525430490717926845282707784384647020031029763815176038560006352788037401540018926602308258509032276713206462579184513658419564730470985454208
82 8 0.00098268973418459159837166069161572849765615360447454789926772282471950015323541256914688677237060685292363450946917415047419927780256773777593770553610963158019925580105888460664390486369317004342951185286886644092267604830168043645021028111283852756813308987205152791574325094262542727068249
82 9 -0.0087506926297000259730931651884683324672984505652639424938570717691135371105751507980465644917341871199770739437609976331200027754160984613300946789547600760807115201201583279173725903265643216649347253348594910279289472654931558319093050581965273848924617320402316546427277190423475654191442
82 10 -0.006419771823751431289583017920401895810920426011826182242775405839408311318149842086497154140285940290061482929455708576948202690764851257919739050764091465346725717956340639991847546625627527722656027634782104666313573579925065749066337937163169738801748986930678018912660883819180244999033
83 1 0.0076224807790329555762256714247237325260847072972752739329994813806872760387636234386914017917330623037077774497941585212626626909344137753573667838285937220206531305477849432960378525050616164944800468769620317354283702740628807513067723222319162497867925222941347970525999828282760409410983
83 2 0.012995959705943390516265939578103322834742914489275441830650549650806568986036331577575359940304028626064835222506031032526942458164455208522130566139101425347178320107945346408575673558401912213255492745533600573408250349227489751616402352937813305926925208191743200104031677000841814773679
83 3 0.023994872016563188104677727252111020872470257519564318766641320852720997903793427476003972055052867132873959026953063275948565829760354656730370322375696842583439692471848692125448547352203524944431621556206176877545998398274646361916000386561453477322810623108445806519717247564681521878352
83 4 -0.0049669023066957908044305508364900806516015017278254029857817417667983590131430912518860113756053983071278308427707212835846260323455508201974946972772350630218562171118531972468989697779316669904495194737945066659716352342514920502020539795272517927610645617709073175575678348941207995669499
83 5 0.010321246592445607135752897098361979132047508750432170508568524433898475578656442342629958968200658534185813575105688479582096407525558513634942527897028835192950579555248444450702896028252355796091853802445080456325414766847459506856155413813845149882998435858864240835737940114254226426164
83 6 -0.0080672566437125178646003356534351907187485658599416706591191028572883505131101630605409591226576654366189484494498032429818898768061379078348390094759934149118741551755877249067061067849710450863438456975351643090153873563025046907511872562760285303614576949849397670392505039246526424180811
83 7 0.014618487728593852122129102558944118558354707729817402712289629964279408489548815684523337323054704259151089139706859802775253638278338701464464046861627935561744734663804606920347891145759530294396923610347154428797163771302137869276306928308565424016238995611508038416950138859080259149346
83 8 0.0044199560432774231382341082350392942074767895360272920964864119251235928485378586504640566960918757562213091292003241945868907075359347279574222029241645774153617212548472386008434681585013246211629609513544888992150051326823377964847712743935251579150317186932332113962445450898224796872669
83 9 -0.05117102135779567662389087404977733818300704405769013713016109602143404269569893753390897802481656317540082759376694855694181649308292135482925924013739999517134230727626540436252415174972942690383777123681165614823919234398392388956908737454767189571737591615895686661564845400098382861392
83 10 -0.035076520942387267370758880143528784677207558790022146597541842355897980368999865750790746362624070394924143043336930340244645550032052725120358154384508908804394259180441233087950648232563902342532758490552088013449057787749963908104541676939273823728813538982193299156564232813656159582715
84 1 -0.0019797266384866437525041075783887649662476063659953475381063100232519239912733354649182683319718887947541289930593094086846536066012605893218545426051234837364106455807375117909099677100396538149267804846974040581058541475892220773242464432449279827715219554119751690898183379381038630538962
84 2 -0.0055689268184122205304522327477391076529137336292067722157816563927589573758738919960726527490985141222488609112160220528190083592992850933216816559206776832597103326771205599024578976779450911534416210469554354277449074416836564487779715150133448716096580136801930731605974944136123103108704
84 3 -0.0013438757325933335390474455615804419571925420704025247211982064548745345108742458042654049798531501619296903479819176150230796031778665241176433057126077929180833545758395758129953976548288682303622265568088699135320317937715103779928080721146609773196259485915260373384346758494060975421794
84 4 0.0077783534157274000854677777360754123942585934248107591973573587708410735907252716389777414463419032240783370639312602013676582612972125558945268955516631993979331700506710653293806033126755025324479891968496107182388637826174747367096468907074468126077535772852814953920739551646081044963843
84 5 -0.0035225011008339401106007612043988186658358895790053871066161350226250239846179432088508485675519402095923514373745562558301844758247619436667312434553298601411820062814082442520303344893245437962103086373711764057073045123739268257895041119917974764874142459510357786353613739996310908370771
84 6 -0.0047464067310579517829011669259079311750704801610396459034974208230438001912833445260177860182806242769117081596366639197194050914594233850149587906923408252097191904518117575937577240412355344672551305963964033923651042055637944020989649944318312482917656350332812193463519501047900393194464
84 7 0.0050186534484180724998818299967850465034361340465706508723579713678725508417637396989413224503069714417180763455245816003462707380192943926260091046741307227408587781022622914813110488490177726825310034311653537725026922026182661791501747922995512023197612833707931784298514388768187476072577
84 8 0.0046281844659013421010556188585869252559865374848830861260287125932215975840984869482163051934557660199313983932958767827312038974263612467609293162179424492348898996045533032789980499042123115846511611781029322351574743153085255599819151978734060058806253178184634491482383995919915061670521
84 9 -0.010633464094369575848300654483489298715672906714789566720970126835094273004284460569383338056884907588463158488307061052343414661080093934182812302534311454112473648353654748095583541841949847112126534246345895783027880032909977503258068702318363783979399703834081084567158191764435343888091
84 10 -0.015546141070019532382142882629311737480967650964520843704135396538112359329282850920553592799405171709371106181953615659709555195312413093813639040002820719553325174024888751827070172806127972853662217629304016385914710063351223812691753044110780743831415670808279798700089881121398157614818
85 1 0.0028493185118498861699116341661958140375463225502203912518847178504821671748095331584209615463428322890912326642362762111319172979245303049288053379083303542872834362039707709800758398865532416638647398800467997983994944391489580948417606246956667503279162255269228676281371443088954744571534
85 2 0.0033448724553529973254845492794886103438754594469210000158800496214796753766907088785145626368450355761282511200242464093695813365348586788099284987124277776179734277543113150224070183771949181105242800251907783968533143072932748462181348836156386774368030489314588973960507274728713822942007
85 3 0.0083881343319210245292566954662473049158257531392706597275165331745666837512819826429577941920587711269334577015894430949273922790877815343626042411261607351313962819276137366759873475616037978716295343052861840238859599549183082183849440877978699757233742015746274434918131296525511397860121
85 4 -0.00059007131416366655165697632989038470077616682762910491149184086596481463347777342096344659572653297240778333316296300357238452263673564096330657973693441247647740700088045183134822814411906816961535136234124177010856843895297092053951914899393473335358251508141886325828854435461433131995227
85 5 0.0031112464084177182470490904227634191899377003125436696521334828418287224588921795154345632054724249730716678234328560592545587423304115478816824970136260199007413474279528687382514306553068440958731925318968368340621343214940015780127391663775230468122148800053897304645609655044638669856356
85 6 -0.0039050609694402633469849825620540001976246872242527023160570936855432241817084053196115755871361275080273735622371089537691697378355422647531501446381409956829279772916096836879258022453348860692654373108889602790601399218838253567924203632939200701220582278759328692121903590722108145607402
85 7 0.0062781496989471033530606443742225906320281935400322360483003589471530740492224153576227299805715786513289585268951570228647438940535469314115520540295252956484306024963637410203400531554257695831595757762610747572879365783600209720536539359323344647730010997158041798797472863881448386731399
85 8 0.0022678323608691941859664457783678640889802138390337347571062256039750197459391092983911950516187908624754104394081282969179987355938250227069492337787487106880335135423327363038269603648800001595870670668426443381834532995841826434468760609375466593232305202022026813240502756336389567542589
85 9 -0.019998288244762062072780598628932615959732651852580407465667471196669918985290315819914198994893514015201145647919608626870524150771634528394239737338658474019122156380442776756534293182273165464452406915317966351778867115514609564090384852971865314858008645937147608550136967336425585138117
85 10 -0.015069106554510763858212514213616613074225227183080094570723239397283892310165678282884067262407961136543105863901445935865470375512938069744143181198081758967204701579519182831227646092096315874180635844166470608038836571037443124803977393564424790608574419812749781371600955934070432566676
86 1 0.011974298453462706057337460450921349009042771044235873880889001033398849861052237495427760492213146418811040621204916702422150517607699976532676564763953033802017374752883833680024348618024815783925396395070113053298353548989761675930384180301609652248208751207890692349188907910577717084949
86 2 0.018491545006063112396105139907909256268533932936562260620470771855199590425723378722530513999192973712177418372213562632290957952544642786202364666070147998295099127530983298303317684432624374124921691005064048556254634182432317396942374613198596803346204993631918222384671036459193097291359
86 3 0.036742537408872927201516625545244858168614236172198440810887858677849496305862936792488345615149723175865321487178652245588901435084881110992378840283821626626323566296967023061015406759425336721890201227839498986978024959965171922857012786193179384166840334723416589396716989065410097109749
86 4 -0.0063697052069256906612402302770752095043279940758193812814184026559288360686086776162827037249780490524768465093321365704923113208909708066057930861786762206531878077148634179991132328122553011604317642281086847980226574921739173225321704558256735535953926823276125497490426583894990363767279
86 5 0.01525559214606240853196162949373534951874197468168839853872881010636515261293298697263210922194516593520108172671614100724700461136908919332779392983616857721557795447219050547065389599132648230168870858396287799405053078909960110919682715105222049289363498698245384971109178382744739353135
86 6 -0.013578695432785101088209080730252667890263032961801350409061108260915818686067031162031010523989789670767179612347384626663904233835332863473652561503550156230371913450110460883047663015721849729678807987331435165530240191361468314974142776440776230988351744249297664565568624241853696020149
86 7 0.023697284563123721483264855057767468969463033896553879584927981566376803261747836267269151692023641090657735714207995461874513774248767019652618633756631684465728851852688954017867005612979631336471478031810711892340091880920163616691730982560503649697038962544982865921639994902449130495173
86 8 0.0075356195567463853364250235732350328987818199751888528467096282089178010368335427209988300935954163501799505865937561489970546866009430736572012107127592617209529018499883194898285847248676329954677544600042157012269515576281590442617719637611205871227015476550031650154336129764004272598398
86 9 -0.08063575723053747631132832046779461762682108008075887729497320985309529346074753651532028442549463978036880468973218637939613362785183569093219108475644891949238464054597706837386288020837667128665872246760741009333445500127528910790323537461470654673418296857113691146473219566702288032176
86 10 -0.056752129340231183944372750894452664398601721803590400914452342239671129486087235684298343996208171802976692584362985773222478365633134579659513399452857281952045077869455226360785889036462811716002244399176209942684344721815967136972347556436514275253814612754969693640063983062025192258389
87 1 -0.0089551800409355882824150043130967899462043101026179365247052675823023578577592079201451132920941074334604597031431607344716148402570464538406191026382865829104619848505138476883558785254920183925967629215272155870182150636728646127113306949344807759158361814926053508642684795228380811090683
87 2 -0.011131911279334166236727134583118668249734470183334746581273744168054360216640067809546050888892800801881099054535144326396224020670111808125374921204738423624214964112570910124489425884828639012812736303281206698574829134604779083057198264864385822775926346151029864817513136565082011499434
87 3 -0.032339419170664381876624768544470248081920919385517924536412374593740592328713148597687633144153343411092443550074170594002821684269317701764402189790394050736564126429033278972158160694458206876761110651939483959072234385990996874183579934056149373553231411725225217872948711412580117752848
87 4 -0.0022799662612106083205478890688093879538584400579403354651344939000404121637520846726203516446133502889455509134018711246512387389869940509164173133546360273587239245768332345277207361366902788929475122892203763678257377812845461599319261234644861967838829194814667654402910006242445323964787
87 5 -0.01032802781448835298464965569182967646844847986361590420030603662453789518973258517767766055002102048608431548909013714201265795044234304452052874641875232492951134933117795867820984042578558759531640029135952416313345231065135544236903728883927282493876360372820058565222164608387541585053
87 6 0.017450111038492406996153368049355603956406740115433951104847567819896028591821168555421477151859988877670818798863204641478664192702341422217853283289867460955735215342666049467957229221313709847966043599053120431848604107965332923737259852169055729666225208853776239559517284318387500362691
87 7 -0.027029003456930879206720091632557364489715551505429692489765960354660552717248039518069731108684131026163133706800624702633150209484150147805596500283776289909818932395549348819502554319635119163809827355032264103364450481753241038365149896960380869370068370584659051078404271177771424515394
87 8 -0.011757629371861996582405762231168838404346662641261535232615165983835583444420827818991081006749271189134054923433221361234424950555014792217732330458354055774237554859056163243886882118624338740713021487206371981497868350796241074990340345084968053162042614961641208303833102612225559354127
87 9 0.085171159866600558984771274534693268259123113587686716114011793339559695697992442380604803320498332509844449255800622308931904114614320918279406750801471045507459236284070015046988860191616542527142759330429487057277179931014995996499772003226678924564987013655384989267872670865568372864181
87 10 0.068377980859126582562195996529654784606224343853438750498731112809692899661213424590742052844768377206508352901709076043632098536131043282132499362580835259156763959488006530282033693520569373862649599859030542341584247791241459878560825955157485943619443736111557297371776949854452317617111
88 1 -0.00087012992133229476863201564630584325465757163259287501376440441562592753859654226626966923667959750150845195805596203138397355041941687629639562200586076405414720805899253416320998486315095946754668596429230167949204500802349905363218508357346937196625980894824106852321863330483590276165593
88 2 0.00020366757331517569476189978679881129442003769899652299797895301465411193548088232404873393607384130076308311489671498965446356238104103277823514674725631696189260611704682249191880549807857114432071237607146355634450604823027979353522075639842894818053218171915391462547388187660498220071818
88 3 -0.0051190639497014074654692987176565205964071682420587476225643719544656797262997897080422212310712162019225851424061344248289396769089120469469896804783846098159974319088665068120909164825623895120752388116138112465590163839983731296277809173861271843278162173366977860201275483167780231034897
88 4 -0.0033120266445235012790645855332365361766057661473316621363152846907467770914657101415159991096967596833835822082035762014443234989278246894451526618994105867462359005492591028931357869849090038528900382060124030326868682295486568039274832128415194095687728089645913469048981969216868805483177
88 5 -0.00046834008353053819629572430194982074794750554386363322499617478734076241871962180481470265370454252611651704427878931430068797218629747128249979974277848121777525302883705799312987989062497560624815677962022984468135656887596938860070108949394535762147486950880526535989720338339720415526057
88 6 0.00487403556386278450276081375876009979255511276781726594064102286462759411340369055781691134794345149909290670402488592660270970506860933678351895677563225002819725728401300989364501129629615485239852227355830912929321136452180513134031588139846977441587365464977830641218629979824498892112
88 7 -0.0066337579212389610576395958443853815062137095816370013110337227643138269195380067465294895259873468109146741480028122226243070624964726891347997815094589548796224312794431870888006767457242930108138605088695164351240231248185455533169167911163436437639323058962871221553498162041796232291132
88 8 -0.0037837143230614337103763059021353683104106813218290962940627265460484813625236375530432278333846189404464531257757081732874118545076317383547051023215697689275805146521474956741317997380696377458301348176056091770657829873384858897454148596459749369307941506339231901630387644663404337572781
88 9 0.018813990719304377033550753444734328979838424402002706447332686215518276041443193121141310293885780765962380433468413721155526775869471684431739589363733991739559393976933537303637192281536390735917665938096174359421249431667882462995178166242355754042064726849306386115707175195392196891515
88 10 0.017760500596911098319432947799543313435744900561270216497283550855610873248319108047796182543642734147640084691411497757354255745831616426669834431028506513203834021708106129240674746522586090146301300264359644320115410964475915443285518465628305386179042755997005688645434102361260203753548
89 1 0.0036062420009641984568378808073411302171204301187898729797458975647327597474482885670507094564884202800735010078462539157796239567192374094763501158646171591742847113162959602087231266094571211812053722967972885867719340207309019613812740764831655915922443234047369690359376410557653678668836
89 2 0.0051453329957982609527656989551680284855067202047444901329066030462069420675283830805504140472196904489551713012543738515485135675704900866828037169204298188617184680165246293433010666891121292849788042670441040361814442257255111816207025495586972072671826814527988275784002170069083622059963
89 3 0.010084981400372992888827317064995799335764390369122843607670109370922033581021708154727513817639936558964340230393059308420174243246747085569861012418627135561486091597390213081039150804994136968020962813343250225650852364264488681029658023169815861854245334832225868714642754722822342995045
89 4 -0.0022366476352563402466614193474856048379513356074414335980627282848412488907916846008899644504495294140805980102312481114048364158742995548160853477971044419517689809186274215078379440408064590106929589598802043536945890457430437609038790801947105674303224678358665801135650424372589700535666
89 5 0.0043554012816922734988068197930159737244448416891545665583138050735064647946329827087205782041141475056353505754886378400610217825707648823010702622731823117741734864388315475737707815137590803618578163726128647034911628813220046709516354288328441017694733989103991003704261546961125634007141
89 6 -0.0035166029750038082769981701570172785070533185038969988269083904265397380500694255947032101000137278466493716625618182497201134288584500718583778335457860131264394924762088548015263629071100900866353450847869091833275174738908332745196484803280018829353436702508698771330824890625113804599733
89 7 0.0062501321156191186848889409354058529159914317178582547041916620601435757053071176594151240347543736814014935521871584258543010981112557269493075997881721694118916351884633627739867307372748091881232450548139928582407254866726527015834612332604047558965100471137207895875570111195727067993398
89 8 0.0017317753932308179010494505510070618610728468686358844711680863284634178234465389207438459958930910837274912471808186987573098700839076928562520238078357539766082936173603055602312522108036344587647411518149260332355060456574672992344788320935306672034427547221845114403486557915042109267825
89 9 -0.021264864804676551242244124907340044817261109483333622275920980552467418167799296125801976958947017402970432153746024639896434553120272619558294381767635617356871180142289217643304669753241770480220738431602322527178015703848196247679416619573149688735370000193839982870101788785423946583758
89 10 -0.014478062371424450844641286553158960543624253403350631015638063341919800417979139685142469602120215111993055906409988901851913064605628715993951963924636709598246715507815234852820050942849520636125256145293202657758790614879470832408643032474338511838458428253968444361838459455641192472598
90 1 -0.0099542845761184537905368465808162368157501233925180030192759912273243714336604114689692965721198439609660827053648818806676139536281189066227359624833003353609184260948264295564912935790367612158905340631209513164647357929441855640432858572537237931773892555376998043362136638760147088889347
90 2 -0.014648602543536927505642853324735462522143281901321222025264313130714691222321214263654091038222555558932530560213317298711034031422733028183076310297644785833075970305648522647754693802569189347969293732311095816301806661262073796906875057765243824707354172263717273533057278909557463214792
90 3 -0.031170839872055435181490059790165283365136306345184178565640501768798592315348527828119610197586193447689533864253658111895283627244072837303373046348366140568445813378894310419891628452987754114626751158347696064689254027810781110188075911522647141788486126654728940938604596009667234571893
90 4 0.0039573344655784877286517636108388244356404505965974889738010616169304769017186827066723472773254602411085200663542668651997202359560931848978336081804578194044379971221203080936926713524181908432898869184895281026678485798630541159861479107201538120236359857358688388229932301300396777393391
90 5 -0.012364883299088454204199865201783161542829385135334128932006794961709178158784438465344440475748070005746053036576838744612879888194535677051218010727762640943962015478179152863796427788667980072364582476866995611574557593752890370997038213438784602425981366454650645647596565737846320922235
90 6 0.012583441163620056215507485010670606909038093762640286136251949284497507178999644326888961872093222765666876742435573391205484535259329292446331675335035789065207255502425546770097115203756024401458164654386547876836619611675211069103164088448107555114943394582015571978577644191392028185656
90 7 -0.021289746345001822666432327886805897793732460508458035480647505592905205746395736936154820662228900595346644537053540609838616809515496145154150740918054539842945667438326390042968958986118499560293141887649178319727920788972699034248658084454975811834238884978365100980302301647689392159526
90 8 -0.0073272622150193450736398307527249466153909087419183352998298629699986293820567733545815892821646484208164769382374326873177196372198489401318306729489590890003908242478502805648403433956933765676389017457281236165717785244070131011697408262514966886458132559169578492542417402164738842911748
90 9 0.071018994704828067299658593267656671888954565863018810117392341260120300730669484817452183337661612323413909197508265408732035003257828345208520812271810093002474801614785536543043367691781924769354536906391177809871608976479956046776618586176515285052050302954925034659462239636321007721566
90 10 0.051547754983881429289592693287977720300202003024059122507990575389820347386834087202709381551791352865923933742292495854167114959288752811519027193996091904351586796936655612803256098001523394530138733960618647991879725293349435517855722503535172742598709526751396630593000437225208270371719
91 1 -0.0013377610685686664860809979156699205538108309117907575782752738638520006874800166469578964719396028716239111225405631912002962792639618058962076710659648377172064883447758935308766999424548912586536952334467411021716045467917776363358024169729514407049734159624224682987283091699180139424825
91 2 -0.0019194380431458143052473367173745128552807735237216214624809988245667344383369498914498306645997984550432694783434947310252725398908095297770717026086174349121170224410474112295502994315580851593217757044634395342562083261622465404482351161741507339531052865905649649318982139124205620737993
91 3 -0.0013582603888227148447358613601049049962025339724590787526926088554377349748570207546373038755928668825600741527402097068813170670982321382783100828344940299931022755406166441340480774280064402591102501065096234015979445999735670410909284586789340919018175754348402573551586681461245720542762
91 4 0.0027867980106292209652020821496194024100764364255872775626534698011145134971140917237112168034493233278228081233704133132815853838772182118222366115090289832049937489157457200098546591242573382196002043377231486144488335644126296893355057930432512807377200007496721916540047678081057092487962
91 5 -0.0015253213140762548029903627231629361593965037635914888271146755790668537333889988120107127945445871460058308144704458094670747051228769307165390570324364972782621250992498291482258048401912953851043902472937628879523431630485160089213518216904818059325662987213057865337042381940033395230863
91 6 -0.0010487799617301304645721538767118876274080811971793246311415234961338561431927627517526538853360196798829510776256750289000878226625059830523439422443109506632559151404912381026438792936632617690034369963278638382577457716527774089912788931814505856315048771742501846287770530453810655032514
91 7 0.00089702498580251602999593370617397939329116074141987539017715061643402602390839398734377687358014601054517515572563156842908287773578654953043874555483517914497219340579134356739512921920752637259851221859779406066539344211403243417551414284707919646981454987182124890562131420290263203990013
91 8 0.001411538204520478062799936862857472052371461126356643995738410890533163298946676334735608897391065537446551175746675397264453959490329742082925931939075311227107013424530902999484243758688186169001205123655608220732778685097945053893482585645390137683404824269308596462378586626846556664669
91 9 -0.001590632620716464852761286957712845474663412855834218656685839338246161910677393397753875037063467754996275311849109313849547749247093634651782504530709303545620518232971515656536961444485388300419253667705970888680306054003048236618122127515320752520183581833460647516303771701220877674579
91 10 -0.0037866906835387473465380009084110628305994636588248684125291903072501197382440877698202631544312808253786946290435179584223473231896902930075121080133556382462774207173394835133498988527097573191032773732615392636606437202986160257712897470135735759093465972005452202548718320954671277417309
92 1 0.0090437586264182670969672058211525835036785130097114434465312932317085353151433451033284401046147570064486543965054519865631303945405211661273838776642998167184708357200285244892052924877044369616027377596330279474986761019683273822366740067205373837239341308789553161798431688339210422942576
92 2 0.011883286310211785950769657067620307437816996463404564780472055316894215587612469071928230841274860143864238955140090367036958370676320737419556453081956727607535495137880208670813953461583495530233709509670499532442227618101641915271911221197173541019300054501120703478686285423651979324354
92 3 0.030526337854688335482326997927714528735128603607325759452049330625529864664128080084990105557794958761144888689040182397998606690691342469982954230143568567740768465851536247147069467180414654803113464881654614317372150756028428840539882426875735288610333499861584023776513520251529198041423
92 4 -0.00018070237883819355773114287432623190813339029303627662665411783418651003758737707667553866984539811812831301702144895645230285528201849557998405200007270322329888605938313786273077441173546559326227523725395757174832060680137663237597819996721125259137252041617147354879651035606985063580956
92 5 0.01065389432528169554644849241807048406385249045090697244710642464653998386572534867865945682956904667523793622653416408797252280309672147446304318137656455082485714015554026289912926467422393914398297748379866816690037041777081231355928240615187868974124117935400905219639994763985394459103
92 6 -0.01489128507118392457074158780747843761391136422451549014387633908462673318695242302027923851087045520077352572862500895631516000725925659935392776461923496180406155017350394802312927908066082415276897273925685448595640792529242008731452606740347932285058369619428318764729262829982899843362
92 7 0.023739724515229506727767706929369316677256387212676729291861216427719507454714474555280241721795533134685631122611488443213648109084464678676952831613960429791108090146232979318352175466619316927850056254567398385922936311385117043079674223966405387372828743863289160628826874315987418724956
92 8 0.009563500362957063502559973072029111959832755454990730854515183792935910666047065124228183290048242017569223560632421650796496153895425439885604856258977540935528265939367514269171285465473512970136726994544464040140142162449332407829452509139120446922890425022311651218710391307195907499204
92 9 -0.076187468294049788254608887408455864761642536537080117745791006536003520103992706503656031105331882548020691129815075208775203931357901130534067692689403762378786741511864017969427972289372368930460545328000098228393503663793520423441891716700005120504019693049935197034238474081950305670658
92 10 -0.059086372376649514451880151961281746292812794613350474976254558439462127151836173642071837836682591404126777966459714171040700845699771424272510673668902020107236873255801488217086066382819874083386304563330918135416066590279401209073372435274269621234800125719758778355079879304353254409645
93 1 -0.0033642254008427273930971940763815235011344468671464890106652139068341105067703922827903499852993794222784217533202319130387633093189549276805372995691494634025703431787977590354622909065141009085801633517236861840834918649064225533896571347130772113140844417766151485827884762618638998872294
93 2 -0.0056506068517554519366396888654328006350388375045524567090504148930680441355760209132580814364998039457191394215487507190188533475646471627592541068764299427835778971209763351155467512552784795240984473812894805244372093404757329849638849659241307878213403355815881323918647250027252906434941
93 3 -0.011863398607972423925613070680839991153682262094517658000857349398398373155407927843465671725988755841703641802941018290606357993157514275922426986975385537177480501467590198865640290822619119977177884973604767218267054810598824242284438544380217415264816563580164196771893781058634651322367
93 4 0.0010480300062992675055048208826644382427997597781404292802481236833006463425348488050549356942781884663443643314334745075570081905202272582861403219803281036500054278902960185044293021425725277994016179875143960218470552460122043295650130886785974086386314452202550162852543480128028217480871
93 5 -0.0045629344742374263136133257721638579102048289871240005448534156223674759916521084101128525586710600626487681708489206050047462912007193871439362988404676613324308044870623580066209820176556360754619245832384222748826166120888846892531661846668523739135077153260280486222243437946886190737581
93 6 0.0049177706615676747864378273056042751519272269754418934525559973966170436714676008273175806299798658230813728026100567206870386422557011209878983994989592331621570003670559347362959831594431488857680393995126220134112536850480466198579080878960743965251302632117042931337799560318550766640856
93 7 -0.0082741465706841899023632355681872915684902594873891681606521292676036970547818617070724269839346910291449653526005475348205837332057873372270087224249511167539886415930412449535852853792026808482143078914497668821907990629937058998488149816091155316108646473021573236070041219788904787895592
93 8 -0.0031174390941611000882547630996359298171360539159810731754789763679250765790139492191396963871050566768440683566649707027670622991779281904738301915263470529826818595364125238504461485928009858302104493573531395171510470021569871175620234269870019589800449288012644995888930389329524763437738
93 9 0.027838693270686901823162840118376794864243090338511663387251298469288785480212344899702600215830088207369402169796121070011690280439443544212380960791038144028917338449883874289090459958713665411131461425537661390629378253346840699205462283089844678612606034552909659016821394030798807217141
93 10 0.020631437512381407019664159407716136175298282956210724944337419478289594806843277478290435485748859458426394906915710833700782361858790960650850755272826902170607950982542386966310455607580143621630409821393443685930475301559520162220969727343615655574211658518307974842202207544820621864454
94 1 -0.012925594348368805267267358440794459932913545607286963373407882330086837257505355843229389703892964134778412881850881625018865105524196993072337456630737842304748079566337724147666424981788109427263900312399572125451984837655737333825321110776488543758575905819614088989978954062990525203354
94 2 -0.014176840817179609827798142953759617810309873849221793897198208560052560804054640319690700098853716064193577807002263841558715268385692595591130509950545397835911185013889847827560384481399461435168508382963408014556239697360510201999650568153020774582666127419012279302151275155155416314267
94 3 -0.04789593058122783461761386056188073452623326219615878922330350894707687636277000332299396261244541244782464792893462073314963692912309544073102725711142584034068163421381008498545253915577091792840828020107712959057589694948649061422555061820576206435874498107945026158578220554544594530234
94 4 -0.0064521397531514265666679998785824864848421120545180558544472865630231010496463311469879257503111926675149804997920629475858479086745175039311276364388995442541091193612950096547697309993823294578366862560743632630215387203931669174059999828444586313232509131507220753703001269141412988075975
94 5 -0.014054772698022476470510660116065614252730801260943836655994470736934903493002157819114830963446006016868260884223601201908839021662618154353579828200951575711302407999239672715358624707697556156620233697940287033276565360029385175932120509697287408338681095462203150475066642801054383407927
94 6 0.02818140477885358077275663668386549044444421088192866490451944133169678364959264352861571593350089133469315642206328861013088269655269449318421770474395838121078479222202992904663284611743072272254562888060869384045806123650550422450020931981341133486049367450176758180075738078987425103551
94 7 -0.042618825562196123004626278145291313706487040744754150093086000959597251968166576420762143062689324535773774001255361022522131957891835112532646472107470719132837053103935092768905929617313015967018750600875765925812126794126099929677914759111493078913521293457215455812627395841479310682164
94 8 -0.019396259019727031656395322931292021721362909551009638434401259934873676318498376795292136988541940266503836672973204740746921399157067262809443419895994478859068015371712505361761306470848723122885378989779312530720765478309308371349724501848447526027292815581349237691336754335748919448446
94 9 0.13171103073521055923292663263300821251353851412889944693406710045501395342473761832861474028864282649293691808461940795161993453400794394170148218981366034971834955121529885626072319333954761543166916870487274988490239046658355610779160435135998066916144371280234190164038343049897071499854
94 10 0.10854316662997702287516947295753769540302705682862874608896881734373868915264647495887631082375036171732518961849296527735421900337504549010846148561842364919530381431141612101586660004878178355623903442410020541851011717981752223941103165747870992554843953249638708819766518962076571071469
95 1 -0.0057909604245463295183273814543905378177441889569515984176250470224912876845213477923438463230259651541882901845857578671379163124523655438274090576378843113298094016615940457100503009251251801954742143984071160431755977017013857508691300529340975549839246625424521713325959418606753870199159
95 2 -0.0067181052352795093239447362490890658234292916277078433011983982546869310897189193220318888050767956069381987061112089046959396721600173663242674608214415277068720137001320406045871331924097348524290056622111114140421736654834774827381636252253667420713810824506797433229284353123358105102942
95 3 -0.020345023464341034256862197019297711348090452643343154425080783176058117729921258907827889236006326806136374636350715309482684509652627055616325365409274712856616994895499526074628614863455263890188178469443988689289990841574462246350035667019065079016109200364901394248796334122930413258187
95 4 -0.0015569230104842963292765354167760498335134094178325454143436716793717638625339113933340911708171298688524596793115195676980920427010147840515005113622492114704089397731499579486709201398029859471835856111929340756244775345011530071411526865611215693993272283868729055328027892674266608633776
95 5 -0.0064289452680938408504567157814226498502880674668868579851448127066684790218517720265005651435233976490154106113453021074353208378987349006823705979380516734459456720549460063993739474881651601225508553514762050567292916405792871506405807135619488227599980391440475823323841354631467266363205
95 6 0.011166464045015647003589098137713349218673800026855290407125276013687081623763556931174730935926486834694183767956467120975632109026480409243139175869967217790482534118324934478015803435235903326409320828480454406645612020005504942603395331691568490800102591362463106430107857862699735437244
95 7 -0.017201211461473014469180675156972105843298765924133153353013576536742623361253939868955352161450389062920954126045913026203867947024907517226960078129923985659120183576438635063500911589005732319413827868452242364026692891740259502844554319256138728830079885799618525813634468682760218563931
95 8 -0.0074589583619969928132606807942475990503012345176909520952404338033717925283770709858459609672003166325051675116501217391534411198195607739753220979448862052388198243860639317993711583396927682786503552547450065750794303387830776872665239261869081148500528569954668828431641371006791027597083
95 9 0.053810449518128427931955998333669332027271781321340895039167172479346316997509829377099456307258841267713414634518698097269452227258486600989325343177599459200318565338630229651042144065508015500941251993499321901324046945841435683073539832289713814192599404675839773114318415373890725403801
95 10 0.043333533109261304917709072820867559489655726848309163537196406078249527454045221490127854795659383253369562550540459818815968109361575397500586789724566398079985562952726516744351147833135668903200115512112450053763738445029312540727940474763396978909729236961272787848029306243936205632668
96 1 -0.002598852504424697431134737560672355977707038718409508982366495342920971141148177642915232491146293975011854994575422361958659680594801501625998388309416682443930145341070447775590528746653168259307509063982855479993136219360317465359386525185415931372706410832035042933677015983975762692788
96 2 -0.0026344348890907364330176258944073457140025655627067931661589224930833891037094742662676105390571482383291241694682212940843721734576599414602730156888692632566008342614697470776867797299316994742840755690350162576249234015614788711154156661510990706906928779493997015425342176427240433952017
96 3 -0.0084001905126505033920055722439138309025345536037179950824135647427639307550221037880126998417862112746910163129843442379522560742702162600485247475071464604266508859597359650424519615178004423698380370369620874780575520644463294132902567737093915184353966340391061725951175020333125698094545
96 4 -0.00053498489488332745720967784476631571374039616881358467539425384844754366296733435891665947391212467859173042848006419020108594974726571886762654377271018729265071194806427018601449790048378226973714623769163513430329979170008294552443361821762273656426382314456391574982922671285875377221754
96 5 -0.0026768943196016298831244184743693038721319236960616720650298759099883471281349006052877507233366445234892590996170352369056214661176528181443992887345797499869343327607931801667417259071581660779552600254696060174716603196772772118627173593321232077671588240433063112176037438635540021295468
96 6 0.0046425867155307666260818468290147548651415137158926273125744079295891817765627182869519179743714542563104341815785909106967380114596909031057418488265076530481180029176946155682386323601195489838824335630785558867521444152274332440512830941456298755282767626582924495568313015038472019030522
96 7 -0.0071238181451285347606785765565721785492533481222579575531116611276436792258018594675051229300255466563168043167912988583328217712489284731043299784564565924504592492095305974532297945766514268053600985313444170349099538412741136931015952769216860393115309133812855175165150317850043662340945
96 8 -0.0029928060198808323430463318018562224752201506075729629802617337595243492970200792102484209940328492022821250928021861162127682607299139524368200850948968651211108618592644182196322118027198481742359331223254523625892021726727049470564836974826144129298387683437943798523702361652786344099086
96 9 0.022031859606124125957295835789499232134103269364539010861790232764664273219074407481048361021591583256552868075596981830079293058261332712606232939800535957825486121000086461174111885924207505629150578892097834746387424872665968081410266210872001766383293201000381754350393157764322664115951
96 10 0.017672701922466400151183576942702914506588971912807561743135815766438155672135604578688631222669818183544382147365116509209578002022227009636524121221351005286668237822355688517889921103456582793831608750060242949993118925997345476600308553653241369118957584900931872157336016787154496532731
97 1 -0.0056343368083965071618386913068082298151269383825099997403982851165056318849544429263196557950257172552879939304338249000766419916635613454114094770487556143499130401858682082438822351112406034782848759934246388274994993365790885424385154449884421592601900489183957615172558125335806308144673
97 2 -0.0057051226466107849626194969922740904605695355551162335870875019607300281260029051838895240165869751069171892540870093660574340624976990393222849834786339965002709749231227958254516792775351131496058764250363083363650162223323523029006155942749889836523532422013637027723352133470253112921467
97 3 -0.021685335660087368801879697522164526180692081237433165373368979141650057561383283603224782366618373057791361393832312214605856005342331119704051156781847442329301853306696249152361866689433681781857165409033133507732412648202552730713329243792484798035440350677414267289676539073907429798099
97 4 -0.0040264011188261834538230093949210451770056290064284717999284131136174182309508689485688724473171659183390046743041129814415375651759951834040484996585269678157308460705443667964908903166436982535338093961666649830539952686704786281505169928514604289890266430201203204754167511941303023601139
97 5 -0.0059265635097152116695348141301618374067495285272966372858207911213597402448846933570102515506535432255318018898804955475473703095108271150958142554159311007781199339268596723542218215251760365909768119062409054134655436036817125046746354612304668953475608807756067172587957203971691589455108
97 6 0.01356490963173138335730760969055224476858578813410957931790061253381046139575573814862284581042339512549622363331745867305033585696892947243459852471846451584283264469629097671827894183964459690642124717078636712175893677833241366118477389706029407001729987101621573526055515655794298154626
97 7 -0.020186545936974865530489160956106348051609321297593139449344927700417551138149761091448164071667395237457710910833295669708397304080878416621020905791545672896716030337480313393440831258858784345785614624386819472519771287327045848523776952187247371946630791531606092293668841840377810272285
97 8 -0.0095099572652520875571006738380686469513069672042534999054956468532990270543640894468444257507544201418118008932586005564266341459478873123943104346175918522215094935721606512804866437306670923622931215476748850150457284391368221167229756359858416475920137505593999998959242861225289101083921
97 9 0.061642942986618207327690870563815715262521431126640671985457871918842026346097978240240850593505346630267164614952096806903163893741043853858016373276420749104340920841193975406189372722871439571125468774088962999874182398519303862714864239642490658853774087089894998522846354942876309926326
97 10 0.051765722035188995369976471045293980174770953585450249114844719895498831485094291989932908700810514783823019825981945806834252123220785297967385653012607620511730759243173030675361955620268334320486823825996498351608942018586548530024913257331874776633123951059109245973877219089851230210217
98 1 -0.0018813635126128340120748215224474019287747986844130689063395239096018265266476355220436523038172443863323732315254073675263256394714415641278192689697276647272894625998503138972584020825894399579026923283151580852729419464246741115366750453177764466042923068492076192013510396457974076621563
98 2 -0.003409321456672930069494906749329530183195928088080232895563269224962346586690651733595511865648480542151823119701092850640408463550133482535524166302145666224582997210937268991804740243602661514565676626369383003708761219925355325019617826185564989247595509168102710311170993912193193805318
98 3 -0.0029753151290977297625201513044639827204265634659546634823008978719200504014850407026220323919471066019405853221550564946244674935998935207223272765683630676028197618698211162646785404180363359916111015899307425791040841498625345955784788833479781664676745351955924409586105481534064215600452
98 4 0.0038511881475280751426445040721914340208539515521449358196328049498260126383383782495597314795056382711363417978784156772215131116458065704249039185411294152252779711514453464247597078566867918561059355782622138598632149546139866218969737729361411774919753051171390112973062536425536067927355
98 5 -0.0025207680137326500502774619065012981881761432280651783662323046670054325319872676571527339386701758267411555988283538287394811642358176887779325609867488873238974063714993150850565207896158411413358607881540222770119612801108721688977529372929169066696133252999323589283197921185368204053003
98 6 -0.0010609393118182627469025314123645835058402555138518167943229560112805435318879362634941191728535705434770096233864899383749358122797409200152445700465891779472545335432122898405926203026846027929376667246614597924303565389127608104009200126029553626527297592958876909438195042397774435200603
98 7 0.00053267559922684246224372642047723897018363901307746160630198643301530479758723372616529670805637835558445458209958941900837349975710967210936660983811572728963122047649173887494306481266282721301872947729983482749548973262890817759410532631277860095875932185679285574826654025374551437375958
98 8 0.0015699221106666096390534634451664594068372557155815100966945647769437847138498456299142962116449454972904304229184757231464615386368104195304242341081616523907557678042993106677396858008773740125988145942317425192755501921672484984797343408551070372499316743601375141611832082445746480447956
98 9 0.00054968605569007886487442104401983984904308058186401932458429177159141675204328136113067494021007248078549500280801169910612475762611222580847372421066347937041636818095177720060868381988732514441882614063131819173583384553998698501634603100335085906467981701417899531255137247490622229780062
98 10 -0.0031243247512039626609399130665543094465076737223219737063244904933154622220133056954120341141137580731207001946729259195880609465219669092484497038152768014740483753481041767217832358657516009330260023860159309852068671772467497230850207778169125118602685688296570984525375801299375925853906
99 1 0.001491957569379141398261636997389158959695389212708415564571068842612615807919470165303007554736483920094127860606886429693936709039413839463816320539930062980670708932879843521811692627075406728235124183005528232639290008584894325056855717502848853071176749209333556424713689150444781342308
99 2 0.0026760787542414507002561138533611191261921374603635715582323199148486230099365794149771295425874555343467382881732180733697300736996572244068041101820381779730554136072934186889702813713277555404590017607485270176987314308024772343100279649058057316943177975285429268505208835770508767163028
99 3 0.0032098308168148119942315044894335985825770184434257794669654720541531522812789802854171632033165318268210537342286951273293035866776555239053570835938030021956963592001482411866757429355439582867120396869415604570457626125975189163562515520562414124062627003427352987486717409658085153808754
99 4 -0.0023576976394915463286030829717530737733683536545384479827647125040388301190622224993992604608051930934114531456255300018143323547835926850885522651790754319278930051962289960097651491878075705803378365267137378961231862718724377897507928503725695459535446001670096625627692107512135984833418
99 5 0.0020335567072813438040025808373161530137721559157769702351722082708064804080591879454766249463759440376536439411417404410383822409662867681701834777695083538749960377239553263235098164309115750856163021814926298746300904406815596678675016021811139733406025379835677700500126622313857467573314
99 6 7.540217380478388480109850050595397789722902710319358641360000344918302869292894121967753676417363927825774547186053986902341629285577430776926582187797894412068785850452104004711135094111520297752654211373383278359601903969234338350666478828318607517950638766643200291707239092759282717319e-05
99 7 0.00066796671269402295740541364139645972126402540183671121575025115214400045481296707963613257209488838022657817603738285458120239507802083937606218170077408342540888253939884826821473254721236563697362723521700330491244530936190548526758926260338170631353252373942936097976722553161167186292669
99 8 -0.00053783134376096062556772986974231159518100521835558081462641226489059883512993804690176939734841192711659748927053898475969651831827040402649032907888827060208988575735927391567850836974024786954362614843329075613633522281516802516661682775184065993688306102750619581585165155608722730451931
99 9 -0.0037732922774028052406247402319309378918901833541730181224174951614142897909486607178141389222800239360800731065082693053255321247873318937144695423901580914830151645413209778116860819890694769490479854495035981070920124259961297337480138009366790743404211567678263960968895623675068701972221
99 10 -0.00069920627661655461311832730908517719213328954150207116257617031962026104841351540149397285856553378344749290442249698547274932415344203793316810422462732421291438771077529755619693200629035761778315113081325806586881660506579584512662814219695375454346516252360598997385984893831139149071253
100 1 -0.0088916799125036919325048987243031477483128000453558781874341161563370566632901745081017046834298128564932946860743135705419943375076494558854083748118892507670754294897498455218846356706260677191255971512589310054662461401055662657877494620448660776853742145008218820284259950261736291649025
100 2 -0.010750015072218474375480864943186987012849438480002727064899435461123152470922678681471896631989684257140946684214872787876149709176241604670033599089476953389491409079348075491824235537038672968454264853836688708782272189806441434022502485404401766542632076503692967961452582262198916678051
100 3 -0.031177714650326599380385938131787424553994119848676234110114536457327611501373547044252260470600503341213770002975748007001186001627551108390260666521814253740043206446440680467293744045977452209244592903515123713993907719430227667237735343016334462000753217403900535284297138255637361755723
100 4 -0.0018595606178616584092751229180221226383217882872317731676383912637170479558341461443531627290950071023935038686803064743089394186416523188860908399487745170241179317715240157047524198685019518937648873662324084231566508813883879779507295490051224357507251368596489265672516130261906615111713
100 5 -0.01006742372461234698949478112544757511979557669146875070919005098608711395748461942356197323671981126475396619192600257116025506541844355066893968849121132275880156834651512983558288256706965022809876532773129306741354584637950208040330559651467548005932881650070405810057348819770099153606
100 6 0.016728037965147693657243972849842471088814153572367675916736211843619906993317717737282779589569138940019654643118983642227675074333841194131453502628993785185319844440791373769947284203323381868366709552514422734823693698460887718884590378133466875218092046549813536632934906333763448235573
100 7 -0.025923464930586115402041712280931185563818899963603822956344359977247687762136879809879457781639805030139277879471451199752641758975438019467650803812979982106124776653097442790091900725206522884614199335328489681934798109559831368537006737454479882158637796902748846971394973972917135953383
100 8 -0.01110782523953964424057206270968644214386769247478188617316216568964812991778465373739674474070637945379476681008794445475893317711445445956898919462126757048734254654843525215762536116544863601754769538160577876126515443421823152501855031609129579207899554447141024729963001953546050074048
100 9 0.081529769280760318662094237888222203149804598212900967305586740488664490014439269327323499798949939965502031595722939064591861659530666199630726300860266459279878480840189786966972266143762383359871949044472323651063163465487235653158592167496689527819821996117607662690061692003202591342276
100 10 0.065201486266012217874280798250415077026777020158223852182683821441297710969762925161061444213976775054109316991663832569931082536669229926339875931671667355584246056302454412720316078781314782918780413300965581806124036579193042234732735306232673495896680585568019709608919082073324314630269
