100 10 1000
1 1 0.0051584119462600107181781040433212972081088556542094957405335124676811951838237436324893392135730611934969946153973948785221108389914259460991680848758173795605941258544224526308722561137360261634503619978642233950224607867642833768637879944196272876136642686126987588778743630103616003853276
1 2 0.016393803557705121671290326825018075732586005687029347199333603699831990883459005912510311091349451912929029391203231068210578204401448477967446300111908125553897551936121689860325331012400945889543588342409238777476268083914442094972529189734181597767628584209752376390181570139536871135379
1 3 0.016011561910381279162247096171923694932683432306656873890988081390631592976481270370225611325684905752415059227691715308914274249696065795167507761213298554260918212052945570118899742759338386301133390845757917014455384275950795267433807893782554386806125769953598367955644068960103648284699
1 4 -0.01202516881942081121176684947757235803013508710645328738478762633290184229461557205670573732863045949119273361326371585988942162973625474274581756572229005028682203321598355162722914612785958738588287148450112913025328683953799948229087890882438832866900078579248289402333056612690192347337
1 5 0.010542705637589163023791555260104227351185417881448518345345736688754967960073329290205939998102583812538345024828371878870724842570080881700919610512283419955676722463674224166148731822687377368969042914483082021123921413072526365657438244415168155289317943273917034772319264609210557883437
1 6 0.001222762477083385620254012574322237234723069494906372441436262407775135425226480456997958206490343218837454744719586971163199239266810206938848281141109191394189746888571489772303364190859776825589464047934502391965221099874664440694569801101556480953919116973451882704450934058506300205041
1 7 0.0023849954999089266009136993001698386285820154301295317083583758828748008995045712596686659192599926090348530147640815264810310986552808539922948259187696171307016347472871847351221334000484655016203996259499189235832394674803914928389935812541719333017933759612055796201837475673401537622681
1 8 -0.0023790738854983015254456571642097161521662147666532482912335096903386547464715394507420753703584479946917702761405662348310437154270743967633412507633119827855757486401889599428115295112505230798557207257153558334501389619338105090217013557184492531322050246494051623352427652583613042671692
1 9 -0.018620150285692973221211396922199627603500832939853888817476856548393285953095664676596085115326435365830553717788965430263064503599894725117134083538052573706775926392471122638847254306266859252540077986816592294415880775252512996789691972438527949385392615525311107410563905021424068199553
1 10 -0.0032924340999819475251634270426663824166008659290265579500355377585430115158246693337901162524366189412774725408702701247710550486595517306965112311236829481463654602249745225053955079940169891923617153514618449619178810540005915089406068827372304824236475951367644942566775201532140788396796
2 1 -0.0083089349625569375601146477186305176845772104674508495042108015282260745101099419602866138208150351794986822960398128554581030039386852724329981002826272215535367728987014177935889687784834370375198862870751963752670644173109053366397312442454012981775831857485720284092723299301212802633895
2 2 -0.011426779740283254034525012354255577841802353221436068553254794349001159797994362927046311471693749688555205686079588113335893961526093592259469804202827198493096751589644394977502989697462126260033436919195451693173703388536348131953440337051465058026646699360199095960391317565655809374375
2 3 -0.038419043127755303380867017221708627443959176307362899813686903576415686154836076975863823947719861691277477070983391577146790737929685935033643546303176156469632648127463075070268108196282655737800072867152669554815751658575925595165285279607064705503357060614108721490637579261073124276998
2 4 -0.0078149122897013524906243880601605164134061027340087553488734567209079683890674819641038327553007268228804115765003439085705714961861428728549477547666466642809350461444316691449705630057984999001392265997125247056877058331314049200929891917376716536017416952034301832802621086403497365589809
2 5 -0.010398277316484982210321883280141510872444381717541466517871890905487128084811144975923274470915819687021269208354602398332090286513994576944801400228080155068059912811917891432578420687820244014840063596277041543722380174213239997179849814008127489370689182759422063666069085229624988236101
2 6 0.023725215445849778272898836700603638682615643912528429782677071794944048023256212400667064547329508472685586499219128166522103491875636387291865037046042560392267015039076174173561069270211510300864053285155104293417994771337689755131894402252963436086717369796834562852768572746696180893919
2 7 -0.03551074468997864719391369703135928922680220367032740122597371352347793573298990583636873583074923510622443245607964679811224566003332709592255029049849528317013430328651478605815736248765272563634647091154645779858575017358401496238764898494663606090044693162540572546326420507467859626066
2 8 -0.017470732409100717923551838140616121792014285396043018283796123655089946834734444177442472412540944032634235523619717449885797443736223055294618257373344406008851672103387393354047328686815076829508268178947710662296126400281174305967413388996263149725244341676810858040055478795395022169755
2 9 0.110429849543121637266862932226398359809629522774998136807110050602087472088350183393622398937181404818956128239859224027560255952394750891980527495434740904953392840525562507314343089048156568480433223785629696864793982680756782253242403972646737891473769524822281620699975114063440737908
2 10 0.093164342860831024107092807050501220522561294954330494877392720770495333693014168441571138225530205471170014543547739333649103052212873095147964128492273262049814786509509009489073782817566889002250994152418037091272331081245818588820555085226392558457801314051668162524369141822517160964583
3 1 0.0060427986459373831590470401596934683102345097632061703393061250917648658965079812650763081700212686723701945209062205117945304119637904969172621506083873575669149477524006682364944373725952213213629299150965351351710933839516252721298835648412016819392685145667090993200809550211849986495673
3 2 0.012487159675445627487501644263008606039568247909984944501401900119021927074005398147799027271613200312252895701687022220133604010038706973640469271621376097374404771307318156454492862016589330746233116727941437711604035773253452237214074558689355659066200114430823626746927942434355920192077
3 3 0.034437377611131341190930341469335127572580558089605203787464870705707858416084304155422161325040322097327292064579189884544946419507557171137485051916983628510797850664165952974616353687757494496109704710442140618909933063794840376524590697043642591395428048318176016538540886141081993612646
3 4 0.0061382512435877558533862602140605762251758727989576364705069008785232034288778956011312151485980508823282824454655606396276991523711798160126304317495681759495658302592679189963847490744973375815437120015745175392013287447289715230588384655566299257809828395031440543847552546182625178857431
3 5 0.009823881622229294017222648957499114337744457087958921801105299396266353202881189818457369831409720453230875561603575961916233364461307263093778058706228022124339818247728881365216660824834938919066317865976665250358796908457999206095910335516577331345316249309275155774322076467797574321371
3 6 -0.019431578658053104457572887424514527599110309443984324016769002792027065081162846119365696077476757645498185915856367615459926817574314172222415952208736750149094733791335928573828408363076912822602664146305506725938216728964661117911951697618558111693384990623810791035841281389250146638722
3 7 0.029987379500266512190048145539652789461862180118215273701889420852984833555637360157958595885157786267018101601633278006646017701216847261027573035991096060378108332697814746011743310455599194232830950993100109201382995617885469096823193166136591877899256661055259541121152054736615777987342
3 8 0.015121262682357835784296449206769559754115859436749780195422954239605395467043977985952912566919570310525267923698769778515570651388475697494361400957258815079323769570426960363169608200626150320732960651838166250036872149344835879197809199493876627737559862612243838822227880765273257649999
3 9 -0.097187420524549329393926194876808765371640890221946946821575765112253981487456249133203844585968904868455441756131488861141673045479781146965043289624779244482503120419289897197699166311943213033383693877838759708824258053183135926347961541783136845251010186585446997694386489915144241986579
3 10 -0.080825016420195110504553364817545804560034978416909202231322176139304736087333829370564340129096512659848623319947533054588644046306355068526306510807394796607363043071124449421348121099353195954245422531844995338959112531815821720476577088049851750512848637615617772326816758399225332815571
4 1 -0.00054833894120838963014028391072589791844857863732230342682215063279339709771143781185977432918550399302862892493085037093261690184699567211435103689754455717583417573906721105168495215272054139293658736750723316567128763477100378287342786156803877871935848295014770107883590595382519602660927
4 2 0.011955547876327128741436063050264452517309378955527266006981009107080308951077103679582016789728501788924092151721885597104743871443695894068607136721356640326756961339652518392470955208519408232528124177635055647873554210156739219621574664539580270856873851970629579955053168811937618818109
4 3 0.0088437918056599592634415067137172242888329576807334933914066494068705887806901768729792453299313249992904797053347450731180785555418359940531966342618363869413293375577806605722856835633903429723309044050374562491606224560712689091764351193160148252017594721642277950541653249339109463742055
4 4 -0.0057202389164180864343260263885578452809287597790238348743040792172087191035136627448324650414032404320169165626386005927536088134461529616365579548008882944987838885777180880243558401366819548294915508667136446472828860451270868478977258825785562950151518632147965313061781739073234360453695
4 5 0.0058139451966644920549694880470256854231207990837742159005513562296874340557900453754805674935115588585098625793765035338070297068036648567136736986197813408901840613351158585980328463715971498194657764386990824488296239379515472536028973249118588317221429437535548069762890879940027702230503
4 6 0.0022154867334017653893265127854298605406796568797468814883148922029841682111886288444433509306323950508194189377162842910420188997363976625209291722738921192695255012125112110118494088739078937931027026781163388197571936983639273417167307571129064402970785192446337823662045839255605576243629
4 7 -4.0645264713143776639171786683971918174669883627861806749802366684151795521929552248697601732653910050185790634302322784299750403807938661718578652757759877833751074370527467555509694788154607864975366669687930566626139691915604631428401034136462960800181505845910085797800877764120611962403e-05
4 8 -0.00053473292576752885356557307560023522358248677036444058247143210271749366012482649634418865142418199988059460414516818229229187004100496885108685351135580971022940773670222773479584446267769453527998542856494284379471755885627574886413967880122301781109516794049299037908357602504861176584514
4 9 -0.011609735321690575382382009412777808204436039582203232875360963719451620257259452985231826211503482743803133710494986299003114962398940780405989065426059652416598438365113157354896598654375778771613642964855434554921428647328932334776610327860711241119701353903743684497036120331765484112539
4 10 -0.0030132513444925749422855987949163430801303763652537496336639608683979370488810660422246882429352845695790353120134428495566473233783479935274421009861391902508526565466841746860395822859525899298221441289887718365628271016467130563184740561554220888172571888685722077880657893848471377263778
5 1 -0.004289035882081171452910267382459883719969762333153176147277188348732447443574737109984072282830346667335553607513346545391093978283330832538347263239363511009673274587986797360246853083960551673890087434845672368176498954933145948876439856447584492679277110539355664404460835778367195506339
5 2 0.0037507271361036880402318549086024982427780758617026042725465831107092809881529897916401371883145710266008509177771720352251698848223350950991253068788447738686398459963848624327806268571617217452491357501790915309948320265398121273521833769190818238966534821508285145143247778630316437562604
5 3 0.0014203454391251397340548832540983770349489122864710062326161686965425465117785328481837454329149107325259738542764199002555728986349256039798089871645564050882489921317978104613612168845675293730458093685288799846581556115300373709143480659283032636148378742472097870937781729897956511324443
5 4 0.0025240748806888902584020218850359856072230304811334270164514908656297312751676088096970088998040798803533204702001126776689563390723681415344506998695004429213193556982419199269081099731608128903254927147302344175838439827596691908603958844054949342567545873938198997570953528862864222437067
5 5 -6.3593883741836806215073097521257336567794838425280697092713475959384033022207299818395227194450239104823569998501039630706957260598225892145692822273517137381776816453544529590501864051198779611239580341199109066460251544779642225188251959016874612328683957967081912765343063551124449525615e-06
5 6 -0.00036091393017787422557332625630864767146847539400578721683075431662582045881596170684371913819031184092408122290114115152417435142781603712563663406969620774410784696141651825399236349604022722155885479397897333660610946956780527252968455034448984319646900315020279614104567530089127312429797
5 7 0.00099972681229865131266748258234911157094135599539499645086924769167635007116535676882750445773438903708049076916547105076906912030056959153569722420807709893950838799366399018092248564566879367415601224532983741387659896364813401572200593756561258673651523819756675453917652819343225547258218
5 8 0.0026091539351070786096234829693504820970792890352630879506591353344997160519874572814117294498045037956703686148166680646062820426529354102823338663435887308550755264670310618363325511352785609830883574262590657071775521536810118052319424954038526299354749975523033575326638020579259134495742
5 9 -0.0080982658892510905382206134532631768236958455307879491914453192805704619442420071471422324040980853555846912554189179570025090077073558112983083135623475907209502029179703517788487883582246916635084538400057382403069836654679765403361932749881980878097544126727982540234532044024632691224602
5 10 -0.0083345783987183241836012386639023849675608017344466203880777827909044042947064787100848154542361589503979646933447091132783724546563068193786680046852692816260334674181875984117779621056151776794038319311740695293321953924098491804811438185830746483992841133544969746538166921082236825212824
6 1 -0.0046924029059255169536320275552912801518314757249979666699292328503052178079519738365174063440298660416023198275368096174039206138439719498152788892916565540967733893978374853380146438606831926545091920764922924144554173143050370981833886122865591943277318482461480496181724635834404889729613
6 2 -0.001730195141408001313410464513955846375305379949991937343164713727488220648470433160117777381446307215920049976330086873162388225156345608436315903962873240336943979214815507886566596817793956725564271076288112860486774907135091176068203432113008883583538616734078901351247648475243353479229
6 3 -0.010271681294967403319090972853858002737522119979475349971428145025317640784181213794911754417305164339229102305953276831036220436115409822356219152643376491150048639727016967531883008886642098706345312052315700330040597233155247484294890556083167291057017645295750129849862249615426571324138
6 4 -0.00043586954027264891565973397888834067637095199517685418407595185904796786979185608731570399847390227896904864753968485048366332021919258692149748606079355380928593838256149337921901733674606367490312874267372222667909275599334676927344766255444127150609063620737464707194442928928183985976524
6 5 -0.0031725399572329650926691225719573698611307936846374210575023939617533751322095005998395179720629066321507283907010880301641121253444382430781980461665329479965122618721024139092234354796021436140314379877242769576012601652424260293703950610042227639527292104266982521569459216861617806859345
6 6 0.0063862550749412679295033121247593091236546130709475015528698932326462575538138255586816973735456264758400782633093839926272888183892987780703296770591613512262780909607347555998536602747358159833879602945565756717860162698784780663562516663133053857136560101000683035557349195616755905700445
6 7 -0.0093527236433756539922626103575694910425367042937000040036268133933143199053366274854903397059582302065668476593795072814981881042887903851025466486369243914707691128015335946080919431853011328780425988917095944431852025226421409188739952558790313943858902628725017639008044094096875147009785
6 8 -0.0033736153773116119201141297822606629498057998862390183255166286198307139406010471818048295819211838231937694278027327317780326966328319624006151789042048625827147731704855918564693566034005128160326443751275760703818713147906947429235182567883267090648403535588429287746963557207485373837075
6 9 0.026655800655996198473896260542174956030893237498083948061643221761933651084729336901683155865587891648670051082601960036081005557009408172677835261464687121895396342091823573131988001301129048458559544857432994809744006137682951561060061038115642986788995839554981632666543947276164895022804
6 10 0.021384279553856507304583004538198810298267248876533515833621997857051210562852801160268487550176707512880630577333481596146175709487196266803816469822846589388627057649230107484232047864860203130391387404036270526576315895088787991264583514914159075987382488372553136980201053832565084151721
7 1 -0.015745905640352607084082224486555157222722650524266707639037584406817557857383606344048586167545868480101905781629679691292969509296112362789558111871690310713462476506694594384265895271180889062930531603945735466815142948727252754538853997300151426284262489760229333124317408870463975550343
7 2 -0.017619366610837345870136312707838024206518859286137561738664199993151048402631541222707734237776414447727397360065539937507845304647343279866518333559554160412373990669253094416912575829556678046472455143612084248523603325091635679607865403308802472844596179179396148941492528912551881265359
7 3 -0.043082935608186484676072777799013387127508750836111620657427538585248063729880484282176372755896102235468097675371023574023503195670995361644782273961882935369039262771679818525138648280211421996235700695242633256200744288967933592224105250116244382860014172402525441696162145781626439622372
7 4 0.0052199587884558087533957132577142435266656132962759575334546515193569283254678072684779389036482038394791538149855388531229225859265369682108511115043341791928116494410860872164856708338778560342564444549317601205061413672059361534851609003807538143124464202176152281846308445328661507700215
7 5 -0.01683595935437177766788549421990149282210864052976008819472380111809541877763321701204110050842216290785718045113765024473197143996550109653150949529034548977268583011239896698164528133332690810813222421307094911332397258297082289345341969535637119728664042686265019446300905779778382002583
7 6 0.018262718344380522732906420600543953937941582945520023438493663295791857832395749203614661235301154029621178128233585831365375066882906897009352084567998385976943196314191743299439589655613923457231760440621728464749629682263948798839720047641595312501844964370148823142512930272441244192698
7 7 -0.030475856542690043695883815411981352995854224936157573083471400191633508184247186646417270197017710233295298255477289989360044942536914620868349306248367294511308785415858176796133466687471974686039574035169686693470540843665731289795142890158541059308527142185398265119897809115081100378491
7 8 -0.0099722119163378065877716184744457107123622358326144322231747323349904726894992250506270710035816507804569939993911268635205983820599488698042792639070631413921074009732164371145958906611228545692548985305877109821554996439940084900480299551597810784380207417314358850409147848107079866833767
7 9 0.098415031500894709055571749025493832685913722936497032680465798151031831762328156128782081714934711440273067674812306501549011150552341115398168673298534801414140855242013487222040354104003149682802541171270373787712092498698948744135230349900783515143996723648491169919628662271095412800785
7 10 0.071636538783927768837987427678469793465793490477572946700175644463277366265988115430798517979620256942009533827043376328810554798577800499549052166500423583833480131759170844254584174381826035629190291217275023507416850948830656470496575972756243447734761748394914393650357055845951434651007
8 1 0.0064158913700253585160512802024545962538903800311723760228283064733687207515600793872895115739046384018873594514797911898840780873473057283137166481014486690190791509420151588605823874119435035642050896587028520837727116170306246179343592481623600101619008666519641264928220052808087078315244
8 2 0.012691601756856534305788500573595764566846267462173418156278081514846097983981740606764629971071732986761651692226022881710149672627829046614722905676078749416734692805886017634614260785812958511694352808633055235917414051786459447176769227527514265836950143754404300488784849320748842093862
8 3 0.021390113459427582439018982841779183015856224237478018903889620438856618555023644521592380349118025317307765486428747918424496007075828090571591930791091978140098894252591366212497495341824115012675491716345792515084702204856692601756383593729913927269941241152288425741403684769393424698678
8 4 -0.005467196260058015721631108382696931984846485703640494162629984504587795902797051606613125786627002598938704426003248343036344985855528210546121645674907724219044944239935521126059778080795040575596343155710161346565323225966336204532909906552108966370380212725985561355928614915037608394666
8 5 0.00973552089427058184273360538307482436023361810335541900854814440775058551477913243798348928076805765433850894252706442603641430545053131873993006320779948505761458420966941514383584357350446395331007456807889937776036099829908760089334841457677282072048680618729130721850227749097453822349
8 6 -0.0054327490798446911205807246304422877576281222673200067632161610924495707907325566625931105253850053223618774740280152313309527183801061205548345315284819736508692850981915084604664829911695055327852689964433039104819548934254859651145022327883625285430015941629507292322399162809540347739841
8 7 0.011407772461238908251303792951315712276157402439201563251177480702613537089646031048028873281788853160068894027805729938126113283620134320197909973843107521517457735595836932570072897818134121123815757853160050233750589390888248587733290810080697129881955803829479311653610887319939717943489
8 8 0.003110787642925528398460203352825332366219744280785491336670367454322467575272582165205912191637612273479268581412744491220946368076363837411430589194193954684020672801338896141287738643660105134091333727591710264049387100686412955566024000211190828064530511827526815257848164032409960070555
8 9 -0.043328980237334520146510361892112999271875505254639063368220534746271906170862826518179253299962585336669601310705606179608187293706260807094900594218501607031183293413842611332660891340202269589310726510465894893040987983876544633878707390351547509283531205275164159278198713169412319093427
8 10 -0.027937773562407416356503015992258922420707544589861539482548674684715955825544859008365928823980645567380969680715113057024110446199942275885310593452013298609191471900874094328013465522885242747063635706706221063052277870287693555319774208983542046977978616173288776122933443732450883658221
9 1 -0.00042999629283710562544879043052695964577214130844615059831437366947969166955835139315796052550231779259360553292743047820410391764478064732355613237248340699085643148005535219301098518050792916881644498914995888259914792929565722699571304801092714616724789848405807290861476029893737943854447
9 2 -0.003092439427213859925690797217151264664917234031504954235852107741205170349359046740884996020946870255386589950951752326772358007487952067138586028753078445473797101275221841638290140371406562609202396649343602009054548527887024892045427535396435699655550657465765142350375856368507391106096
9 3 -0.010216928507833031097577775547969950124588764219692317430293584069073932399405323200032427109999122963186497718981348967562624647897180277750779824152668448552542921512201790606913531717363091508119414619394327770030890973252929680922541814056765557745735976079952151705618306541917345745584
9 4 -0.0043231561813739115632051377455629755662587971555970897028290856056890950270027672272575463474370859495954188666433503864591302761003324052266782964454213475478198398072060668211824767505018261486684113796500647567695217945694129271168266876381256434066262670072398765535485662238173773783056
9 5 -0.0020110049355225450371184734444583361186909242728042840265393098813634782306149463629293487820241064454688180545382279052212106167793028939072412653445188491959024151734139337717635709814103505927289955732595174523337243740426756866555702073342451183054948768337068872687270597487557180149682
9 6 0.0072267598847928793745513171771125422235096330481333155602758092196555051411441681066487923593395266426159458029561381675582928657429942059347704144847104289402382878210538392863440734308957868541006059455921359617576195898241465785687878154765172327489702745703557040425019357145977572623555
9 7 -0.010521763528963355012574453938482801001944523406159108925745614428718490817948082102104979121438348534872926821163640954316409759958687971864683037744738465096924284990270874607365695333035616775707399698022859624208747427239922832077323139792129065855108787778993072111108902842826789803562
9 8 -0.0062573280389254600883447984864376073332343900136847546598018346131676588786354359231832135872800276129007506366914127425600472801687426048908097635900289703144779201005039452334071523787811296044049046949755095873518000139331346994907486921962806841357642602787433855073485874516617334633537
9 9 0.033384716820318600743943678573800025957623652136925298842263585383633707272010546784188606521726908508048482024808510316834232510331583348523317087415904056416891546655197621422665012466845183191117250267551927566307445302124921161383603042279917830039887532235780706502857265813445844084304
9 10 0.029900315725314840643159160059425522502474992791967843051979714594162452726574051815558404478111197537563227892215310451407332570759352790870375542027909901376149561702863414354780783690147035951685889556127732084823603553655619494928447827876193375516195011893090138896297410178186672896417
10 1 0.023750368657587961333658684258761494239279242051197729586859155412257077177906365583024082836923751018702946199253173188977784858808731015490585377589507432019366782704368788093164161211007799234470922630531675400029321315689483225306084419292739895876694481265298145053035129658593492996057
10 2 0.027230896837654684080250450438571536192629032383289188255072595551403355277706909067403553912972208927163799581514355281411378650342209245745488025710640207726034653511909198548249129051564377065114799074568336900617414495006064590510182923344332109553068835808267305719414276980532315351656
10 3 0.080029450512576662472667359962640013416576332140855934148058427997826946787494092125506562641115782666172775849026758885078073551416845891649138238150400256767596012690936308140957752113896430655088369889633152821804969105415239543960505958090470916104403228371710809273046699488790435711868
10 4 0.004076587973139222691293764238201714242835890307420444053164706841369297601262417555910162443006431725554297379070258799412675300868427841930985639972245041062614180853028922371547133665257266179013051688655931646670129721531879008768819383523020967094795149592047188988619346741031059729575
10 5 0.026039861857909804524032923266832007978599819347392146725151909016784975259100060630682956617986540007819107091252495447129458330871952115490024974583876828358235997426603196180304459327682981130252802786988462500039205021037519734106902478233291851696627222799800048025022274112991156902565
10 6 -0.043086019876736503832006018357086378137961752821211552595095907538629911540407812157209926222207996791846501668314443270370782284020163732891022183450144299774999992271329675254764895110739769313279319116512033901668932326702869771967693137813269730916954783311614663335098317765548107344358
10 7 0.066596710409736015562858609131893739933574118703838440731256033893274607507099528094498112323471902807770091648894419509049326672020368785495962291967853184234307285479666764637065476447023249797385711896175945849598599672296678763191058453529018337846357443562342033337809537278152326227188
10 8 0.028057070349705536965580421060616856011739029343247435651462901483333395234016147924293165565565199599334529607022289937715200688241300691339281876013617986496544458004709574893422664627901154714814676580549271129205689537206197405761144110361699001079965724789795759559515705406394653910537
10 9 -0.20816851451214711041487293186469441647557956418589363559005512045507535676111383422870302570878104153205586952357197428288784628402629317869644966217781387481105828852499683110217655390135219313748422467072098040339961290274412673458854700888268659722412479849335015998018024305183827626133
10 10 -0.16610022088870022931473500532206066828816293155771864566458010099126280734978473007140618005655286472962370356607612863282562586387851695767220479536443330003311577967842353937930581667461582869147327616279969002236632772223888324254349781266807562013288583803172419136122303582548318641258
11 1 0.0028738651033907478142871616678844731473840137951729965634466770234268817101577359192433414582101653278291120952350647076212439847666332106014500698675689034684415475099674638043920976428908406567978578189341217970212853683365601977110167013475093498789080254345386844660145204849212292765877
11 2 -0.0029516886875189567825143020050406201984704461364723209935076215912696462619548673918596534803719406421762365150112154739127492807255694953075841487065085711822899164945483181025718593836768947417839397852783484648173575613202502677448244128885378757121496350545766124914022346724466858723593
11 3 0.016642066721847728638773295300097676268667471660865037306073018646433945629013847502267419243862963360861892160062499671646249253738573667728351547921092871542413806421644366719158981404109630601829816552545689043613955703238268116013108942484107327776290370846201536373621879582962393594367
11 4 0.013266773146613657065271758034163439217042284100424738082994674724559105093214347249213508794607779707638985138630476077287834400913251915480281431032052863076290429525097857628626310399830870696022375707157411938329616384332476597771117615842137293756959135566187137121815404365913228076279
11 5 0.00048792144060965589809245509162956596820959432505231573751908711060239087771980539907446653496420315986428614310103992072865332794879662152394192989035685754546156114678472921409395713426538181691958847908041883254135913581853290823036626414053625793772318475978305185521819686851363685437414
11 6 -0.017764465966470177905132298713743620468199315255031628374164433464097473473123697061778634392452073173976324288769757135769513849915153088743477701770223441929199827907011212895979459227925550736505392245089626205933276020625981118598166192849652757765714473153302542359514108558756548551162
11 7 0.023730698491844330352905286621187384647919263028510448835327877216185389031566373461239194957097714163454702710155918899368074958943878392381385683219476405274032347338624116689745089653723069897428735507378863387474166438856649659769101439615502315919856828928391108535624219785833462327191
11 8 0.013830424289808176971437952088126116691460902539554541522447823914049779315917003372782192251675634033023611431889949179636904881094727860449692043944362394461151934925283099993812027544495021657276518532919619106168924551019663174415185633028957972150023243615009722305109731987958447241464
11 9 -0.065618271445940368988846036378197619655870366396742134785137157756217031577470595511157666576774575470658681701471515026475291021397840173368322044484185701575063199406269514662239402228153265527181524637915910000249800039123884059198337694664444914228521414721678952000731716486313161084911
11 10 -0.063517780952504461702801713477847653126591396045102537782775171567095290218364146372879354377529457514010944302326599846956875959197261234429606495320176263230232144859883181606191881190435887668175840225111060062227223601727508000257287574899724661013116336210168809965718717478408249820162
12 1 -0.011008733861371447340110761989120170995047517801826376917038913064492940312993430559271517238185525310158566778829644216059130863999458774980843723153861786156688533612320708504215876538689275160291662932910356092567323224193013268507014268284751278979863726393223907381758141487513544941464
12 2 -0.01908164276387283818511230826033253632409254487181893822911557737046759506534299085976863092575427713595613493296024312754250376354784588537091322464213133749129670523450490540703925568001900042981633564170840256064259278204669792846319013594767301284703274291616717304889139486564128742301
12 3 -0.040350694276234010914856622262342051347721500475599888446500981307036758359627595732969029620419621454781843954509411977401309196130718690010445952429688871105007062922019167148530806091116150964005357671604145873166612971683504873406487820264391616211192700671550790175112923158430525169534
12 4 0.0028122086586051093992597393602904994219958763465534038604868362966510269207807649073368745580521252531527079066819868997525716317105588414913407599737532468017684787509454106997680581879356045570276591126695900011930111272260646175441921432916598911336535953048541784543675795775956987772155
12 5 -0.015181207625102135841979878214620817348197738942741376293909324886492144239339154702510075062551361091998627111200806791094399505668460407431014260212467011124373514316118738627805094771301904987425069656349999080386781598877106938759476038539014017648754623079494769893193209271103962467765
12 6 0.017189800538041555839619611044718812860608356503648336004721331840418879064760154762985588181804404595619833478658112264049192072706370714857755865136106968433250328460488126367355279851404848491957437995436860946768321733950422072742064412076524049394972014855535445411086568262080157044928
12 7 -0.02856500877801774253443121177674778060834962897464499303958100517945290916287446459105224731610509097763223901446524267040343613470519802132175767778015553821342655938662366658282604051073844884115476069308622855118019460312315989203905206768985616067340251478982983269240709292747406707796
12 8 -0.011111649181496226310247793187148054880523493206141948626635992677576994591544849599777959371513104132689270957030911272934908726424500230670036897040124635085115053970669241146792524550269225302871272089965295478329880935939340213569487775323436244305758904850924723092844695816201727580793
12 9 0.09609621330441384649347997270231972716137945105375124697241311846353595072466238657008195628372543181267548462199689103052153668139059132904094677989534599318145279158719695801728764319532658683171215919576110687104402330481289458812789432204044307158598374174664361596243833887842001870888
12 10 0.071973455489382093349339721806135566705905471874818153421342836450613461591107937083879880861060281337206606382273355281939554684032710833283415771107951502134032903258376372675024977838344264969735615289690709843243569987082556110500194924345176874126907905087655473998103543057274566364541
13 1 -0.0011938495774362826138757206486273881284612833877715771390358834501584033111687705039497091579722168912886566278448200931101088368245929704722942915757579542321172659771448127158884753586489211763708693974880724206995246137759856937874875845232774835498013690105368912684119127609218633881575
13 2 0.004215814714480401301457039909176641498197422738467799291706217507043535835257967060839715790814831902071126313054237647616724576109414642146145879726544507238600123982181540429730618064873426963876917939733517290727695550960777411492999897674550455113094484317773377927939473397257526640136
13 3 -0.01079596255698092284452812425032507743583149877390057630951208847845053803484198376355643482497116443339774998098963934897310487043936892997808640792952396767804155945331389045825610432116958160946100968464583720351422311339581136826058574920843449393301025734313960762647438345860207904916
13 4 -0.011961359664584072576123296694188564728428997345269174111366847495120265238994764867022066025911568921141042784901743258089251768923383737110056481778181689254699736052080176414190108306975456350710259154413648471750860259284551227574410828273089121222226162222693612920237054213131380649891
13 5 0.0010111562561739402726942466326538777516610598328704438728711900211097145511442560172075718802520989385428730613737991216872376831067409503544363942337932535189860151208219849726796783074241829996334665590460053502200619277826611113599354560865602564460451865687488754696910137236942706824531
13 6 0.013546490903645101290953481635928431130168881732494168183212558610216691872436428944611936596387011707640748271277138519749616826705088099045074754625536491969136605226877862323979732855477959074556025399672406562359346116712349091754194956714157629553396097778315275938784687102800644800754
13 7 -0.017757925973387623173244878440750870966856599903447547751476067312448239983025770567448056963357066417252510420137912719188226428017121193838437652675824815829850551582334408758737674630740004810527022341492744049645319873071890733783311390256728741488976408971060081118665434617226738171874
13 8 -0.011033892284058345568680256967297108178395629780219741487256921101471634636006600511848498022595277798194829517348033645099387661803121649609332598234532852886047398224902019259578528371395787246276575505153282545850364821189291327752103802300302191245611895048040355734486631685432813358447
13 9 0.048430169854225718249522763249070169171780509782093780184986919693701325755264269301802972784864454818534588811655172313428476492249250322590416409192420475380999912369878398314480918513941611206367606413070840683082746885397493328128473917314565346704957386571002814113930313852608441674074
13 10 0.048658635422159932201737999094679994443651799143442358064210115802500961720098635744822455049507466260202874976235107104474772751153418883063943117518987610125024511486683663529201721577500328868449444449763823096786810679053152328609662798389964830252999428262330942961280380578545543545247
14 1 0.00093806593901731517581529812392612261159366354626414316492830537487230516582917534226354414409043399956562798207722016884137489581139533656685226044561592707036291740115567601170868996928436793967883083835869184786459565148159175414478707646302434950354810621130418080676083162244790092883069
14 2 -0.0075046125050473251791644191905967412674122255864273327439244768048052158457938740191757420014175296998532659014417595679068422726807268117301133087003092456569685994596145438089201213754258548454392007743587290920967505682762120544829726688111178125822768752397064707537337542667024835565598
14 3 -0.0038542968617495848515759222865693342373121510351775627560417712958538364033851314771026409874969014900428907412681927084212412596142123657692016376874525501606774545763962383825521533903588298311779327403773989292992638387884694917887076298111404545804233232507048875126159664437905864880812
14 4 0.0043194187812934097936729801140069289156690186819523835532870204019543074142521431322575225124555274979672922854938705677047594791714790913731220765335926573490683199135330064619886499002246409970928474498808657327547516802133414990547080187326668836974746157871523857202107200645071286742763
14 5 -0.0034079365981673342324621342823759692198149769445319140787414723059046467547638382258243768749542335356408708412887170380402197597973617932758935431108650422542120238897347869678927344450973858599401771413699648964899724225607594711325299531685890601542688190143482475877123394612305047250483
14 6 -0.0031100235436857399868726879426717336755353126396504072519934062942326237644178468750956593886188066319666121136608783663317703276690202833817073367195417721408238746425345433952795784224377557048468642436810524205974585600092742141837794059073543240778529692982882729587405872651154040612748
14 7 0.0022080786333095253121300769449273953985967346490953125342266784816971075027412483193300693006904999730514552110394495367204536331313943364015207587810021032755233886557439263380279640695082512091787933581925751302717989587184552991710890339762622526477207011142272611714024850463621321532492
14 8 0.0013913561229539259982894368082820113759334933286710702543443957998047832780255571597856228721518430090878585873847830720324230007533982908578405225421059344251347263046948825670969644247890344339727821319674503138937939194857934699940483865265648085865246899976602109428158190198900514531982
14 9 0.0015568605824391771969265328232720101387434246200161956925985990534525257048622551946547735420278799680137371996271790955962263600307981935225912335125211810969447670113250177770364498360797566720302834386979489433048190525735351729329081761452794870535793506004623510375757478345880814831828
14 10 -0.0034441638647603793504966165029631015148156462302013890622994750002746384608409245474896833390529098714971321932116389127488374443579770501587979201195097637861996511200210263686518225241013369643049241850591052665667807270941194455607167525890755844138215176304249986702331221886856655913485
15 1 -0.015671519792280615249479194112280264667564831541001963362025433476810693723634635999733025208203497811082203397626606893677020265263428779535319313177525175975661509035126060115849982430558196594129846494952256293716426909336195808240027418604700949938691275126717308265751014750583970911193
15 2 -0.011284422698317768253621554303134989148114655393376555272546721882478644844192702001946304023912872082463899346918520312684083196870109120856423740540159667194451353466272766036395113124803934118499899574518244139412328944946254251859164673986806241285134805678304336311350308017239073706927
15 3 -0.04310112534623595658342986397513659244268438373099124709985937840841652266070559031414271888309632342180628566658218316959777598509705719295730484537145932200535624161265820265243560358645001186470320058612521936974866526494650187664915283513300638574840385539514968510226357542887880548455
15 4 -0.0021852359105062027754091636427994356657289574016216644563500077625461574839139776585909722437594113894911321450673406093302903474521249265655110934122139034286960129138416608049830713299434808452269579298542439936256460691806961361429110637478330323172898094130110482877190975861313753099818
15 5 -0.013760120869201681967379054377101394939336753948365801275704086366759187266974039114495213578741473631032272557648706011565982547453349585350880136077190067620185129667985847892354092359501267423335193362733727290642397684096682111904925878101590486424631243768890078009602256995600731758213
15 6 0.024478675910622548580102734196185189446368569849272361426084889872746432846437357443626490269661655497905766919546237003944573539649363567045709692615295648711793347480143566038937250159374436776813926802208829337135141013770760610026719387727163269854255878617581085757911431379046306126906
15 7 -0.037245776495787497545543405858581966528666431823443379608702010657954344379684542553852982145443657761181624839065048007550141917215406766513867178964121578249353520468882125006205631961950104088279036198602464607062208707415873339778636351338151359926701309574657894464753950828703840003923
15 8 -0.014731835552831641965370403574318608529437041687209498551519553389112213693308928386853597184166819136799241971602643063576090967063246345905296691052860671600517155023634017758546038132107181963211591860494977607203342046961651997543850056348943945494411674592963126420850431856024745584966
15 9 0.11197799625671210250338679412401304017684321626694339684393503239117042866045230981149194098088265507136314796811543024353249290178807916658553060891724615736825966617298253873881603231597318973896735661963801882365169981692864048016008203620219891525411995192913260208704805877547433070201
15 10 0.089483719100008299159687389643542898646386657684536135657034560719779296183649458846863712539563687841523270093760488497571626919727066316264384391491083719026124193999864510930407677031020535927815004742771283141581079671771691845350685883035706819898853448621759460656595895953304323479809
16 1 0.0056902777092497510321341296909180525561389228813704554755936540979819035886102419401379455447371782938565641302851033688507512530720598459240895494859903108120899656856016043703473887570414812181052427018368531530034606419771747516395646078849281748319900442473176229182031002255392804935186
16 2 0.0094479554743576922786315779587942755726792002774214994137880417348915915179068267856890457805962400169914882588849209692848333852034024684842239769395182925633188310787372701269842236895982692887296413366300486733281378803031499928981054588525517159918168626328721939396727898352474695861615
16 3 0.013954918151297128870753421612202005038825826973979611579108096281421551004563201015628634085217711473067377464468076950288250093040014196315419916179761948235573885484575029838282084054752200754741384850469178730723377547780823244936299447806140595882573943484938227515075050784587218187399
16 4 -0.0066761481616988991156022904177247191237312222900217523363043338327062994645129103630975784749042696034605522519113931361522655336755054805242830536704774771838766795299041099280482386410942389149704168933546956114460826459282129868370100136651762208558392428114950171393200795679185826604449
16 5 0.0074336278822360349559259352802371629920877000855876732066769064019071951251138838185575576654579087199048802239893152775836349681558229078392047413204163840134079237252439268171448627717840559523823160365629004363823925814526472130021627882871424200321567330517730814799294777420149453520458
16 6 -0.0022687754498262511097561461969833262012372848018421380320927290061404477832416311033387833895297752209637873860282686947384797943582751551587678636357907835906179329188450785536317424183419471540060370570204365260612903685019270963213661804588772732151777221269323142986961166698619385944716
16 7 0.0057614341208971566785999190777528964346698238850169014833275087320920715365199990356616948057890150750174661063899375988100792009743339090195675066198094361337825879693074792568255989105473562178737415961326277710394771983628680301585480803704298265077804218415778998340589261134148939608651
16 8 3.8038423051397850696582366220331125413016597988440913676062126661850145525278670114246422570916764644203206761733318112486714524570465647450895424720628521990477652596337762002023146363517119069043956145261470544892639186557893533774273329250292326258999790789157408790665064685150875128849e-05
16 9 -0.022929669857213602698255689964452008113684608586642194215219482140149911641205947414142133624900602184636442613882897275493143122228919143205591174410260594976207740327134007525785944855465344370536630338309059993155475957282313806403200353987296484358622010953628147923861188426425966255578
16 10 -0.011557020308764339999322377293968921787141349624068788119183943796374952638044209444775427916055554735920749864735286500153149401227606034985725243971966125991378796669034602343333590045149902895487404758953379778099928732864535171425405203687025111411541189886001841629755304122239900709918
17 1 0.009905247089124781572884229021381700840766553056941584891600075858693302662083710795705851325208923261239497048875516905853111591821184275027507859784326492467619346539777080705905643157148935475284537802229024566991840359433696825482184568715588269405009472194634449277414006178010476546088
17 2 0.016219664833563640320128661867351264193167523124588259207408091343152941212943745861441723168513792640455333125323449989418839444607554491359995799668134088584646129025784144184880495877676553197130173209816820554693927580617766006120438586271248706266542447097332602090587820159384105886946
17 3 0.033285637789464499103929528973611813361692190989515202683049821819594043960179903752982539475618124199767461869222216146652977515009503468480794601989471684483904113194454471116785649424944590213108045703397615359283702041407867500632170796481958273630685660338023750302521075299829823447981
17 4 -0.0040644599170899786342888401894055511561538435748226604457959039105962731897316840461778873661077303030251720230137463754233315193728762472645552390861590956513597833860454384516078602740531854944704915307641194134396656246637166275081005027214926636401675855549918667884325568069555920884572
17 5 0.013242058277274965759800303878806791121545604920543038313373645994270416650214208336679036817749700302043157481188751974247590484755286134299851347917108175595134879483888243777193249782633200413050748131628070329978804500442717480803265341775688153887979805060697220540165359910883975610334
17 6 -0.012896605131475514005227566760383713891031347179737457115368616106330959212315996455797729216055377130736451582101590196430418529709141668312472858991118695826983143454241763813133530708063583466931755518169412913464013481449360023875434104235661290208313286480010934072981966088386629624306
17 7 0.022296087280695925578954082360561228628724276983644312521270924548981743121429236498545278037948880309746548609977006756301122923453420381641228405013521683681173570579394398492384734513685924939164221814003887465280483715379907915254878592357114629195323699443213149089809132444499849981638
17 8 0.007916092582064896437885512799510045706732364683460871863297808467190311140052064605499323184189976198834105094947823514325901402082683190999793775240370313909823434459997029939080399568175175578720660038481907759955953671980948210744566922257688526145091089004978997455148963587662078310491
17 9 -0.075930794753963794782318699623906038935314385740622427585812486389588865845069912963113318240474008104705440593121430589732886852636279158833158435820014750547032796529644158789208403748473133050575662499134064584712167292663551556484331251013005740815013933692134057990982064243773342135169
17 10 -0.054992005421630618107114599951373732936157015230024591408609545001956670773243738202793435847455319560544112759411633281586109889351478754858857754572362008659256746377282682300332323535436645079265399946019202319653637776969255300910988760932428464077207812235880449164773634633969664399664
18 1 0.0025679622541333727470754694503349129871025359599986196571344644233062179434858454837529523448354991669712367011023710143708547725172640347373471434081802832433594482552927688861823946500849805815925106597086541582007922088560851315310058514024935055373539234567221079699052926112127647972762
18 2 -0.0011735803744130726075512255029147714120035240950711655548462180546541978261736388893597163144074957062372885615940697692373636657084636597752469784734902909322187773649548707110602420573679710044571730118773533652617310123280040601053376577005422481101295014091549577730980682818158344180674
18 3 0.002159276536893946459506785715235795230422748018291578763938828996276904472479283088889326468434902735004547250642948471987166580447016356217404898716331289562906615424418570732953488883611046645958412994422621998411135249270742937767897018099734951895481203521570126299421814687776546595574
18 4 5.3859822585956541485778997392236105987042461524598204828677273084914533014134082118755438316750305804307504442967134761149166228887511863662505969845712607323192858173425723697628137775253136205593016931550478346211066888399463674404257782563676550866078687611437694741306951947454405206216e-05
18 5 0.00046994473235437546061438454586294748831795496333492777875762197212181143140943797125671557444818440109065963678487827761181599889651619467027284185984189424509069006629310644006451564104074971134160656747939062175115499055024003690614745794687674219213658302889584784365871532106595522983328
18 6 -0.0027926154609733417740199859186221442082333094349051700961791744452249246999547196994440752841261137016970885767621362338641990604064078292082168407323115101924833177878671972316737968814810743353015333464847923415972568070308404713974318196883352113791576074064608672303602992309122989429764
18 7 0.0032348230735708211050608771405562128597312711438740698448734688193561929933106107313266348561178685386486064428961342444589756464166803844986051239569179943513654394563456546167909004060367954132574392003131178547391217012576461320508508361427005746466751067860008729325899951446139537783942
18 8 0.00072104374069037251157285697868585536594966269129468024585106909797507340653644299987529834652178200664768337790126917976136380718841105358218283433050258511120387732330316366183219264998786248634906954818993863683006681200284575166792577841841884965993892210543657365452229098111368935886908
18 9 -0.0059620809945616476267263475256835170471354423303611768664694868223560144699197440690462757547164011628833420333037064208399714799124829682747291672981954012286354054981876249797041904249472185209629145571134808020313749786217824370442109974576440448608714631065450396554188177901645810331518
18 10 -0.0053712969388959027541839591418785335666583759094115720873620300660265448264587031878975854487027689615096216411027374980871480970653559907355715962580949139364343589564927468113281021994157240907481659235459692444210892526464002471829216306225957144863573425177761855039409736303761132723703
19 1 0.0097849903789286720620441785494729038410540249746248250443771579991092241974985135764100841277990933241854083885888332352430221232341609362519755827090601107399409673238920264566119749554134570330654969066637769583429706142456239078256256459988000344482666204120823979681035323736703841638773
19 2 0.016371626012433959749402924871057199754080719414948559466149853627307215574261204290504339098407204915506037479425460510601267109488674891730267350223728335036572205489043248173501105473932199047892015635785119235370779888434101819184825654499876919077764136788687223839502273481793875755601
19 3 0.032724446212329897442260135075902150482680113073915220511531594733270717466431434330548981043437537190896879304963703590600107597799552706988800590267793988739194398186667765889941469513386579733949277423755456663267387854341275280813988375974804249907302347788694565591258510242635132935734
19 4 -0.004585308463217630493904144286214666217141524176514348009237963109890885206461656205181563912477879723588139969508809299755033650876543223491861084225125513932779615999745016207917070167349682356437310594709307942474027880054316740303953347655885189970026858910188201853243005766954778130574
19 5 0.013183538498092092035585641134589336880474066591220331574602903759173128713912593891685113547001822607771699344416970632897571473248285154654193165552989723070567511727690974438280029839902816425196915847382454078512425323099189027234027597444971049707584827179949748437281428618826367409536
19 6 -0.012018371299523707058431588914366116214099703697916958170460184812697184089213786723677867992521532125684787745867881291269848176178928179335616533033680715848141322976217773156731044010566071012382053848302642803142369180745326407859962059229049569512712662158300044959644940622300335489526
19 7 0.021170503190264662055025523267037918993799684325500373486272324784250634067081494920188918293467227851684228309472831582707686065399489658229606262967686492039599120606222310830485775629899531553525048372667966112336734161935812059162852084213299038578790535643203276517012277827827901037
19 8 0.0072977363351290877620611892629371849074775015130744757364283627766551413819939839027052131343213437064913227568167165333620085665322919477837459901132401650641375054130274932834762371862337492734206375832201158194626803626415526543767523630082770919464724859094056191620017919604260218160961
19 9 -0.073544383723640377124846367419314838208566239694660727280527852710232194815120723647564798043210663941969040769552604510065106399718250720517762199404800421420982826727346103229358572175376398935729861299425094282695458995433507306258586687327998978385689209620413320778680361575353093215077
19 10 -0.052446297240121494991249052705097009335128976127165443155130235780112719223249613666422730747191868750685510893009086653299475209314113216497366508169381846252659348879582911285992659593935750271082059898303705559828646767618122457466148825864529856660510175468613145688097447100022616842274
20 1 -0.013762060016938427824050522515945737110386167962783671951687617297375898805091228825440149924815171294161960604464499956572984487245948007516724069550491820887697183712131950024465021511946144336572918925728772210211121897663261905356678461270126295407053701362805970140760390230722204707906
20 2 -0.027300838920126938950819047626991067059558041835824689836186261902322996356858825983220490148316874738502637435366465149453776990663043517034649672178710877084446584368000972837067477786392597337226450370639260541801037476617661726498786758965185423316415680952866717451646136787987219702845
20 3 -0.046414223859779348951876942645208479329771081751388853440456054935291174751207463628198833022824783737802623949247856174864719965254328111759901917841794538707328862998468888804252532031585547787557923560312062085868220168020871271654111273811309363004456726615889307570020511851079813809504
20 4 0.010650355589449585686543748994043080679894871996000125901636102544710206377582535755624201065931773764190649373604281917261180216003141161599385590767015380718182785787978951976402574285041669299758989552721289014907978235176344823242585508269999028314063273761089163291838499811143714715102
20 5 -0.020516080367954508387849826093556588536074606624138493199697502978013787838997610910360010843077064166032587487987161803156410309753946104381735022184044598648161210382262845702995241512380098770640156261343514908786210788475121316437700897701983943199301136326257045161294550188929839820533
20 6 0.014530561834023390981611854924535117018587711977391003539769105100447785663555842360402330562798415410995781532874022371207137481304096749164721646365618744130920431211595758847158941077562081082204176849517980487188626688309534775962661474899714568619696484059420132490773719448986783240976
20 7 -0.027063629457678227630246822979425759498367609206394505788705523026403863806202572480115112297492491858896416320251982623154902612870638110558632040343880292834711907728033881739708464226380580439766414536158319836978407448552935970496217343050780734267014447034260173090916891192509284539786
20 8 -0.0081075426319630892000136149247661765275095810984268301732912551569534637210425433692347331897821165426055036233952116752255991478168182969810849468444129069122445002294848897620943884829348292923471831388114127047722167373215536831385477337099525941067032928408872507328059733816508509342907
20 9 0.097272086892417372742176330473832486120758789543233608937727497662382075508497572590220185458177316841376294379332295181482180044187939688403779023003802067543533116143300897910325711205015248162572023561110179079839051488121233805234431805572753930367434835505772535999826771922348196082557
20 10 0.065634511195884931870438204309327241236834090417814259443345093962475334189158303125595352622535174568111480899567324284399185089531101306163183376068936309611303576967373437255414262286931105514991085224015795018710742696504837798197777801038618906238903893257793457835752261587382879292183
21 1 -0.0047810899417706595554159943196515824659941164205215612309511986141790293815184482850113248357318961183502691488352241288253377399199559752267682939683301546733899172050770195583554624420451127663616332559744620454384764991423917854624982244846017722854709409505528976847485443956869943129459
21 2 0.0011954642129113704529407047731295054314479960415893185736108025773379825842224650247935126738912853734757063153996870894091484974071563295119565881807445342768835364568062186699403186588036769873116913705450146440332437507245168600156912802914099964059385762546100321304050017277963341293104
21 3 -0.0095919094332318132690780131675468134690361414957208770602696946513850065817565301205599133976363818820524677612460881181181178963579965002386898919957464269823355812455824264330828340771714031235597344231893660899302618288602010796446278422436352157309738825284900814908580735353309188530942
21 4 -0.0032154329023077351069192464858299756779037799878195245703495526798864648930882652083038188390413399315654400776292186886644242568064861433345540556925052980061049058984813342314509186702295820239803229171588026891235881484631680474747746897307320293222662432636678578815620578695667520996457
21 5 -0.0018408716588644499057421735713499450921677553202684228242336338691209974881771790749839281683794469352687960899036704398840018273390919538146476874503109562414132105386103379809151498439718948238781871867615099032888022052464981226530661379391249391155867885774238401219123721868531697327643
21 6 0.0088288834009424300520514104894127694759467682098173664434915319961473305686881678118951514747440340450200661130101077642827678505905607716716085518965420137324659098962188933625577797153898333685604198951872668930369077359539647031624527808108348745489158885839609958313364010512603598625223
21 7 -0.011859270286437229619838076856027934473445503315105428219728969744382258334658888299257141321749314773466126199851502703625279688505011126404492302726454971454722739176876621176309525055138565096936865777330557354829505711462190923384429682852699215276995920021450272439093871316024389952815
21 8 -0.0050598629797820342734695405995338425761625120318907905477641563520803963871838369178242533333924575670778065937621543821855379992358848807577869492288765743624448489120342394276624558633678612810407239678905563743956241557944712092034017559920640829133331764795992810397064233222718687674188
21 9 0.030148460175013673402603957483239816634907863184708351710462780482422667669795934485460212127172131839933067914380335406626641905877400083933748497913765609080816140384309162845524371893164965291804282554566753900104948488949693480643891869690656401251961820808630603711106142567216104711565
21 10 0.027135759597463062052444804867121943494530486481994325391590876486578785955508652422588978564288304609407313856715395554695152430875526860962544548771784623773008838583720525099367942469987319656579625360895301980794165257208262206876287564907833728269259513692172691906133117484352709861297
22 1 0.013207690537968084061875920934200333086805645511653374745266850918464606264481460378294947446295993919576405013517869828763551338684834257955804560305994946818781881356037614232000147451110853855071034892221602693639193980870520018601424970008743529621119556076777333610935567456838826848905
22 2 0.018083655933002619261208159356162387290452622721140445733513608240996311444475606535210490397649880780080542346762186976619740827373079309752664537997371286009631859907740098882257851912070953628659295870909999635592082566037738265525809740121393106001544895582715529912951498542880070476174
22 3 0.050684345086490617579006919503462597641412832537684805887668659499626800414496328643307092285131209364886625333724570216862422662955399370014223731491208464806570747788074834836083372282355402713398971927786252813959061985752853814280073786252938820082231383801888549656485035624982008485171
22 4 0.0040239592700960024988047927410362640942394275265648219302712500512789184556602261779935004547467363205889075555077582817087551196621594002408616852879528559414076558820884576818296502629972968431538356026185455972766120151942956479361041329002067240881012818880627635247063826680339107759676
22 5 0.016055651709183068509880205168159953446554404219338927580423524129101682808558191811701438928440406190889873020602451001707551435864290415225872304999657441480687923487076483279453702237240199771634811719551007940331249340711094290840947529397689438679774810228395629355398705597195947604655
22 6 -0.027532781808507142731823432223368957399368717885848096858169749173062563056341765621053040278056504285988341000900399929280223647956255379927721664330136509914500775425495760253572117524287091893163211241464906996558259810971256276525755884385742612577487911076172859769437133013443257479447
22 7 0.042488735222119617110771593383281403428938420449764355343944539630816468818238964899415506159711363499596110744250852636478929443104221467266038499482348753009358512987351460874397044668166048045980948908536831287891920846845004482588595278030909699030232233889999139203181179681056315047132
22 8 0.018871436240268907031934085702858748811486930173068547915970760959924121676885360321967667428711906000682525653037339618993894711474150318383271924405113193871411621241002881662331655668478236475523822817824007974758074294589077004025315527479935033175889705727184981660767260128129843263559
22 9 -0.13443175915627263583074832635178942328805298646233907810932233610028453072297126914655922296231653406225575870932483005279839249459900389584701141151859331775003591734569728540498889039184263918132381273108679102726423850995730283698317654006350882585023427200929353732493049193336717684612
22 10 -0.10842649819807882952772876362496508271297690237125330535896233636227738987182943004138351178336928512658808391637814851950426089302401975145461883338218112661904817453805146837516543697903058729048526935735248829809091891261662770722083519264779531735517919388631866500112019756807390803509
23 1 -0.009043472962321979993574825932466850306100250265690178056768260751577099098965129815875561761842050167679651992701558191934408600718616456342480368198561349831902055432007398746626802031032088255915150371419656087371303856704696491138409452121259461556547803756677171951405680030598919632125
23 2 -0.010811743945944246738922880631176959863561593822800752796631751661298354213882050530049585007173617059870219638890170153908301804957271799439730452431705896473268549552743472918185251793673033799690157357913197013035880550906756388539499673608674749989548513608359413028514871251610012932572
23 3 -0.035651049942939974094427634962937200298011948831232787099572389040984751755265927430206703326650833733180024680115569293192820138875248806319131139210760019686797394539792532419790633861240915738963829867677279091468056046315840210508764934437590097829800429649135704445045234472426330506258
23 4 -0.0054448544599596583774763693803884552354286543114727636835256427160216057812543013621576400612414423028568735068979939131405220723069160627057670179289059625136751557864386333952897575002044457691360668138209133306205752549180443313081429922024510156918459523221625927242663168154963715982264
23 5 -0.010267068236910602134164755290112493437830459156411694092195474647510000102957934141434635888367216956792739767833145453403987588676855694103888861755676564969485117931843817887734509517020692366196768888020934650666276722758911852480487265777331982099634799345263305732404158450324262939119
23 6 0.021690111409996771770431566158001041532053393378804815037662360129678864910694116796841004446845007346255176288691250239189068021733980681352814237086542604051246319985310965953954595154844733393844947341173859873273914670515708904166051833977154625840274557211326680158247291680942448733387
23 7 -0.03239451391765235475135819374009769932514040552220191888612585572324709669644144478467647459279987079615197116669605205807367616843819334455006851744296856403589136825152979683101730817808881473130412900637549550743319072011172377949504071648338287604983418066727886786584205608353837426482
23 8 -0.015083169569920307647552175119378419316743406860364687746711655750725033952079773270584941323235924076734982687574527238387069422202913785619986454474623056024433358076925315279332001209512337667968927905327574804405913766915705425734160013377884030322228216930442219888292259219554900355443
23 9 0.09944910209598307555976604733490651396605490779289558178875911824512543509223158116380202127261809268151641761460183539317254363642621751568504975295735116341228234453818757982923504592473445325110582927632777997988044119833483018047840183464820177122189143805950066560406671507660150306525
23 10 0.082830848328048645881751744139415301156400453770122409928388156728278067629666011898692853667259697505869683951643047345756812683881623309450871631886761222593283922381281335066444424417291308547324943994326890552212333996702310048001853470647132055523110057840525356067373247091818637190734
24 1 0.0035269285151518587742461264258220021167636343932645933048263874683989398991700045762862272623032188056898796914389109701840150907708264538775879054212188594247246536702793030851310609246460255709358659424631727198660899832912875402530974242895382928689203732564333441445790726093112226362443
24 2 0.0076697251657326266360647991529541600221892036759275691945539114845213754698494585059554065188695636662694897090836738489465571812905388859765423967198982052286198987981035050754496289530299786912846638009689241479646429983680653756090976204120264871599519057832343025937118574825240194354147
24 3 0.0078654701659304444329510332128545296437062291439007328601389112467468736131348467292177939998116805645312413234974056073964251086922662143241170877187935703047695234007119137463895425073196927307120832736656921961143567833446473322264769722323744676614636543791615967257226066285659395908374
24 4 -0.00694092499922191850366215221604697905207353641895584393398601315701292756366106625792301772243816947583161987101292027662271305935925893956525382432272193589194665487773369145391132694349410486675257685975330391844224834778484630165630480253888402172222278254556387888509475630077608407122
24 5 0.0054337505383358149767501848543097200693611281996608415110100687703679468390589519197667751386897098259883925832395100654074277612660328850630163236669617450751964557429493332691946513929757855477475586241036855572507407468427123882671913412092460873440798501717479858625910183469349113937581
24 6 0.0013133114185014400672959123796095617780606770719216064015761732329219555056410035532830251790974836665068699146307870239760919735710880050440317581963453021003174919849429508386758713268916610313432112837168549509752092289330359999321184880021451058125466603158147882847874536702849983989392
24 7 0.00038519432061301382811723244336540997429473442664196173868592604536205391968580379420964275615276211738677463530475416082217203855637634912368030506253178240381640724538416190209337126840374506541057634779932500378685804105966844934612944972672402865153220105695646675071763078820985148904552
24 8 -0.0021041838486096447972348580396674023127164952928369424572962849138691563832114962180309171955875055855877371285025984907741051652518028579426523715296845196907128697804965341411424586846879557476505382374734522632206353286978968364707406967710373540032867242315904642998321629399057690226438
24 9 -0.0070561620858065628445119103170232686762078044982871140987729757273650222501077594429125422057273067913996325329416341861590327921000276498972366801128014882992443718804840638510467379687189547105240165015321618490512513367613631650119025958369166330071164907683815727970892492385975215609166
24 10 0.001230273507374150441323505917076328329191687392978949430294386829308748999528005653077522866222199592945853933429524489362427099773769363847682719557667886171889397920047670764620216567085771640970696105322688219992505698575018102303988070744657263173873671563401699689955670877508469988185
25 1 0.010069812081907845611053394206012822575408406312068353172271230318135047055975539011585601276947323398240986186245336516104425031453404760050029466077080298702123451540109528088994843500860475069744471107502702252363418958557632285249459734748123200994500471843674726087290468495093157365356
25 2 0.016593835143206282086171955621156949725455938338471605734786222946695810608695428997834215739232102495339905539716801113152310358768970599112717873566652532607397641815575053790884055332232677743442786502661400894949330804425378612079968301518270588381342712933225094817110774336863700284096
25 3 0.031040832767282077580794094636549580071582070645738237689823914326285414371124470091210685532670420736739315546875710229424515472218222735380858873961512611332275107730704753933829800941793681600723474083573768491914874308495074535087508129228178867070635260508194196313330151791138909100622
25 4 -0.0064720214485317745030543610059156643773102862695485444523564400098639817795458197298009051447253520051304272367459311739407667596835341290621006501850659513484856197909971979895422434732108636577385720994509624593097744130671096483840004613402415696214807506935939810182973165690471944171932
25 5 0.013436758307787972022558094367932529076820263033737402741016967378380833864988694864855921902699698096989291608258047895556004249016013530239990101591644632532928184880639989308294910905815200146750618076388379242257306745485392332867994743563437461007013918248504456955960213345605360279921
25 6 -0.010456989277378405696108738920783755428043067740222951921661891434518357105254173844812246534446943526949211501836565377872143590900192465905185359111043907920735409697685038739832989050364331950724382570541066452932353116377954920221362298155341476735036772881606278613139979380768734736832
25 7 0.019044237164697902118241061055258588889433833634855303621364158262896733750377512629239089943812146777797414071060644938752772359818868307761813953344671054807626551289016470998962585576128157522523926746113300913754153528096266556792185673897264807217909390010531421268100239466549717609278
25 8 0.0056990177907837393167030641471610831882230346661428361164349608195914524220310899808643297889376764388511611895156422647397306789289793334058169818200851189076471577363288414918904414820723959781143910505878675875230827637853010392529629241176349222605612926540838095192217611283597502923673
25 9 -0.066072887966815985886254683536698842851830121485074336451741289518751974422230204405660359160865730407845824020774514405672800766714710275415693806298936362660744372444338298522648520944379741859133191288808434355380995117120143080937768310256156341128697209162704260557103475733633877290702
25 10 -0.045264044087666363704294092870468180716551230641281069257801825268868197635420687580162274760260797093256059625712046139386816079129816676658281059624006024510346192229631663733282633272963276346127053915591831271078056377045561523643378658342304610936450231916194022401247669102782745569794
26 1 0.0069169524439486462864261962890912751480220220266254636781782435684103626169375937841282805004984296504686416060764290809155883173734187063705811985673269822048538919001330002108057783182467978405083601277323788344852126064916478335144357086648631844322302156147645587587965283542526078659684
26 2 0.0085262380167998007958157716015605221740900807012208712153063377103055072372586737452486258970747687714241243276365936211586566311920627136160127250150686326976765735283313563907451414732575996990723601247291364119611291878731523527071627196123316200900186629074499034451718560347387912855335
26 3 0.033125870785416337544011554219760914360148675275259819663339619597247829374287464007238831543257538799794009039571728266563156307434957858644179860242082756386319372676810660315738528054448961011913806496022647829562009939918319109241116879167007516482877603551407833769024014680099749970641
26 4 0.0083807443173466717256260447547273964558193476495582594487326457424160201355263684623874972511766184173186080423329701169289918730406776027632539093909778772894768444330553806569070967752558118100554577914381023509670162232806261327239188312265076296338024984040223114463119505941944185429029
26 5 0.0082468899726761527208443658158780295248049278292401878864587267565569729266081172927955500726616063374089340598452870772920284555236496157504928314504795005357615333312489399306674343276835272914285641136751832801316400777810675633396905449608466746597258947255576447588412817602149267988961
26 6 -0.021228141324823756098835676561946453817563192332331970807718490570185884238913579799068180941176588880691909728361093581782773950052653580873448192890977745545595837958980661986062074828152793601402289713010930301963818290680894353156580435662498631933275389039884829218320987797807466055605
26 7 0.031543624605705364021244906135652898742933960500724590429236396128541940591864755240383248517552054500733723684439872688861848092106269905530363867583076586875385985984399144084431045031024937132713294564075279763822420582502369576331425673447825012718583978525452232953620157651684447046148
26 8 0.01593808872888145954226360812790683793643635952110393167965962724699257343590370755088788798160791675611972079327252481861752678757776251652852064374816903068780089727915410990773109292184839952525113198180137070341741769553639337344434376935297480225562063641696053507614905974110865754915
26 9 -0.097922929851585765786511410531031417912512171037898580976479839817438350100113519671482821890095656687909310086529493989763973225352291896826942635867807747775111480702633082015338336485931742261550718175475416973690927215881591747958522810991791027267433794596668207991782467100137493029337
26 10 -0.083634666581619804664222904300899211667192342963437366095475462319318936481201062895832734577960461428845860897153263888999226738693796740641214549777428499397311526461041236222680836097894471745703141271633943103645238038671457423433265324671306908938048980656835511798846069790413198580895
27 1 0.0054749970982394226844121918456405513674740180650482817502248417916552116614118504898754534270822157409951428608847827614701330512157774325884206573327031053380448174954345831969416491045211077962744759247253006023470675395931991237438602836094452014768539509827385258467618557976888927553668
27 2 0.0086395118999481134017868269445416818052630185496299063761482063776023416386216696147220343763372261397372058355737273528744176557771337338266874183350141777812648473344052441104190541545955892373235289102120361109703340175689821628417623683677801427121041039448027436246389951971641348250047
27 3 0.021325751055316565569034378718071491498082184662056740876294221951931630696766638525972396307625754912880591554345416318748226257376042470677392394146821800017516270812804101241186700523681336227903886978817064758970200126119816456296609470733100977434962717125045379869138987716681791732899
27 4 0.00058913709911351145948362286770871992632790170333200865214354507533258517627373086702558181304858574452030338588037314163175577264378909115419016129929545993475520462227308923638983854535764800938578572590939274348346686873490212877067990210515724036923512985988758749647612849628946803595481
27 5 0.0072331482534049300999935918178468193733478477957817651743156284831391019610568120082178878619178986949099233668701487468361346079652873337631589464645726270082387181558397971458230945284118986925038062683010611671330833035244786948917992967687581707631843348060989806642788001756115320588228
27 6 -0.010498852936892671516559354848876647572394096873594641068157551513173175831930599207817153720905594168764403101539341071263304107727222748234103142121518671199717512550080865353837304716516299511743776630441405377966085629248565202399280969876349258462184381814690943798322717257423492826372
27 7 0.016740817873086931950781874783384566292721156432466591172953827683711598157250728225338656358273178193242630016854614600154829829865687983368478044896530576616568850785813953934235061320671671226482133755554905618302773904746945313370262749136640769129441593332397749423793835009739304960151
27 8 0.0072085343700854724686716900050347346889430959911525575258847695943318060445828763910967701220192723839558615458691900538067336696733539701827262047859288114124361456883990117742166224634215570377787538826829013887987806959529913388355896209398635175894961411044031627415028557048735370787576
27 9 -0.05450795261632076401184658967908459290209807144712543050140919284031533725434605012976767601405497651962583722029949752830401278315956960371643795625593520740961398336412806380823489282888853977581167833503651709739876283663530980998621919731165374528319420620870012766518152482336803234979
27 10 -0.042842067253939346689938468172245028412292222245449634939041465119074058755917265089180671997273279004879281698748497204343527299557590233304737853997257982750303461474879719495859079393635447835541002371834408864710402541527139614229115190424891702594326822398065616816469151263094257265964
28 1 0.0045441183391397016930416317058963678242128818923928588305148522041151401197748682753716408617133803572608824992810774403432590671419458289317093873722444840208275147169703421994748464126465000173518482133567173859726573358039671481264867305593493214868551907467396690896039312019368684708736
28 2 -0.000530877297055123987383078516545698863036480447063766313108917867725396503208667607449928764410645800591474692080633717309979838849455446343527164237266860656817638826356291360262564418170405356174402117954761211323843342240268497605064131762322937977073474217541580948603511416403783972394
28 3 0.024645964673668508803196872070553088907068727196554455007799272723822238443992389435033088170575748828451954925080254456720890285078880576274161886859989204682304371931847273576282887148743345795820057474225138415929241402699150229085407652507936382533072659890860049758681724242603473790189
28 4 0.01486551050599470294515629039470794956239937458180017932752939381490125782924123046180811933897230362271052726275483102581941410090467800919946310186618885393065666286369965597833828992914441520644236518615529366593878520428011742488524299335794407781607391626184706807266616878394224687119
28 5 0.0027474001435474308969569753818735627884859748409576156583525951378242021843095224764939658392196159645139057023985294793546204224837394797736477475381295616435771654821275463754634168557421908922204049859629064229508797429872739954891863425974578843033775553246841327565044332021641140920142
28 6 -0.022463670451259151443884328756011103754954462212118411103576204272951495456666339613674226153068659053017302231467476205351794986460232546065209557937914150318283503890830963714661600966404474202529562735271152356640636063031566583489815503641469179083845012343444807343357234768627991719444
28 7 0.03100748053869477193576718942679925235277336622805565220354520224485244115446291082296046151820294712316509557595398230577673958185479981753213677638264207881847749596100379513785523135444517627525074589520866289190543779807393891366689360640467909232009026673993313652153090671513936369997
28 8 0.017434692615879045150234010032532485021528846915006781144133961682807298150216658655518620068893415375022137339795043199205046175831381192653794503774555576173084652970231971211981959122902836598806595322999112963976533940318582344996244097227553822190886995479382524534685718066573629370473
28 9 -0.088468589089209621107739460411453485320720976059197931123502310722789215992419761541331865899505482791827476706220848514423941172450346354297848414438891240774080015299028010793420948890462832431183654016291189775229231366380184802741312082035685931729272117948808179074027677977167201693226
28 10 -0.082664224454179199659003855381001374084172308115657422422007694443225631853873095379142384825946763244238562826169250426367782843449748385759639168579713259392258422645782395393898570778782898520459491868613941434613010256374907841405164010048310248852251873128586671806955801081186229585481
29 1 -0.0087727673736874440090402489689596332522889122212135194694192609822920460927552537431884160062958352091078248065703350310401966482627977090086659265485976427590461119307163933909674353835159753683031215879919506721466514337987914334463673416997693707906461819490945248780160441417123590993579
29 2 -0.022425607122190660218627039326554498045705903839572635683441059724540886183438373954832104175352955324065954535020728703050396190858927670842234512101851058967544451156160937770029851777712877663422028239216314003644126897304833117493716794243618361564210156797131989468240292335378945851452
29 3 -0.0215740909137630157298720320475087518324235853215629676181048982259445269422493851544549998244257634995179051877105612151348246303937803022272959136913438861922617383918971172190994710327224334248477081898670528159210353963459837877926664000808134515129533547424013886433182522619641252338
29 4 0.019189658802690594446879878461666685259378807658487806226317930272997444871280568438151001772583865175585725256624499821495257778327813985981464969581757473053352681724331113395271938639738575821897888733367011536252705941776154650446787516740135498198088557745355611181076323079271151601882
29 5 -0.015190446673675060985324258600267098169795459088017787574598037060565778964611242944666309265891407152437555413088657145751384957790660378084459152911382671041058846688809068637609754689078456168524036046025517929172354007136434972169446186746776414195818379623148009728067233342479481685339
29 6 -0.0037200425931024404879145733718995598775032629463664694725643060983238733225061709120600077468837384819527106308985100776436101985294835140762710986795475908151813956396137563569269422607219705315265411426199490877558801051170981616663729014485164625212952963447328525988560382403950745711653
29 7 -0.00095871601693720989276426791996297230062068320566389967458665794473927264975951105471294960258604293564900922547141469949316601698382835625595169286935333433146816071789813893347727014092776409790712300434170102732854929944028456532086335814523097620645798823844099271889419629226988350121549
29 8 0.0055306273333622864968882331580224389975969723053864192878783704755763418980816279670842630373081299502955133535771239021737076066297354655480201323931885447144303664669261416274215110935363894844272737287879603251249483885317241055763246074612597562725361542386705439803656355811909371583688
29 9 0.019398282552683090820842625532778340545085215211480777588828882395248999623770011791831522553879088352855107542984298216605553046638446080443886148573621110074610508139647103753033836677641811445882990696149195832076750005041803660215186414793505505339924768607550132316172963147155656541149
29 10 -0.0031679820285572880829545069303213152592567735597097709189699455453211886027280323226729443952955275811422749919130608325506755732643608962999137497822618215124577184279803537832146309148738002743066563720056022608201678707068864174294767421635099403042705007550674689560544367251547777457082
30 1 -0.0086336262259405044163946843332217346104087305092756614898222059058740846829169332931497062389920093994542113756629201706451164582239404690719232812578897831932578448843105185006818563826461444456671599622476182116979225032661087584221930546166182817688112336934007763676431533401232315950306
30 2 -0.014497201408736787082186579594687610998527408326720427320756439090318163262565874641492964909009228094203626239373914961461223508853138502296068433830009172888813834116456814764182139406213446800474412271366313864963933721344651120403088885730458535163766315367661211491790309968843647150339
30 3 -0.017149399416346009868735775436827379747010436630346039991713214590917070375855607165354852918804006505161338206539137026215165773195948260119166486827833766446585971975823227853560992825209049055346866170403528181041497910493599097050743210327009163076030350491460975860972308645855646296001
30 4 0.013502689828784063213730273554718833078318721121852380938878611439447303902078164444568764707106669351886756514283904475173722578628317057608615301589277804836770021839241812984534963143238241918626401082797814080005393405687319749651808071448917450445377297533798000015677755800056801154201
30 5 -0.011219009526246783858863071079290211156166141733080149978018218905753915889973707682454004574568579925773090213757029227342678918463025263213491182419797628408072507279412523357341268202761334995646472192928738820422706944565819299291851279538957722877938374719204728840652812807388455551522
30 6 -0.00031064496093436734061705667670543710004065688491241996584077181508359546569812910829111415411817579526188265533009202145743640461289768738850598817236562592033902841881292422784205121723673703340592238774929442416529260488842840790857999629331253668956959258724728254855612978536912113733087
30 7 -0.0035444236800644791500416440603288708857199363938733376799629967486809310564355188467797925766810180073165897105313614192479042994677949398523686494852947834058060109626945933859447842097222576468113998268816434056012738668802784690146260125063618552807164949769923478605857301024803788069071
30 8 0.0033212246808767851253228074150555888981761490849389861662457376953283898099598646193636857580459212343985854943952167221218410854026413731409719537081047976569049715681159199980084096023470944666245725681580523218105262704837171950113630345042754324219293135606304649365180981808520516758658
30 9 0.018784277857673595347512512470195664888939595746432530110811868151917072095587451864887276807793803795001169330918520400003814604798750304646971735890390662755279574572275795778069055401237720671938788404354066122223481539974687927353768639103254838032296250440458521620982017267956916773177
30 10 0.0022498020561585535997054644565417712320558825731715286195540464855394567436400131743865368522440348368130598622645002634756248204839620124737250545982180437850515032399763192276974461674912622379701730190048997607511828081983352990491956973473525540362149519730085525786161105672395532669894
31 1 0.0045938562265114615616118673943834290092221367628074608771894686802660854102397257454913654886998513507874269152031675288380789092998149580354238091067213695298357808342874420998622342043212872779159484301061871971146602500580231914049200507712076912100250997186610938203724570466867370903333
31 2 0.0027785286791994398518613772648759482514030297095108429890347309680214691556540865664539474574695988969848293717954681234600430147188242828316563776970278241829667520786527702682323049696594279117601279061767014281789399595873140625918255926716776847738421847746248240794566029726065276786454
31 3 -0.0017323262436405762651563577596261852762410811888571853349629586324333486244492942892819503559961425577066159225068935911358159348905585458215082191413088159382905915758186844880779629816518472776337899846028798092908225060153351148295710353255983064777347393525619689531943225006147864857291
31 4 -0.010298356766766391160990384312340571599874511764205119221885074091079972596112983196683016861464461985805720722887966529228665088314681069440234702581023797271630156818018720664390619406020942713897455478435511551649827487257340915847786964257516930099518185962090696591444801034452713941685
31 5 0.0030864830541819783159956284130244236369173267979628715523474385982028186295804894160115390443663808882649428520734036582941921839378334087112235783838147170835739671557300427445813226872396043360052587690592950176699980898221022315802699822827969660107680285964154779519781879486318163555044
31 6 0.0058603850302302215577459452381370387897640293816571866742775539340721440502476701647176701956664336135346774651010538824437078713894548390113410041970737189250655895299413829553080379107493905700120177558602523227087270453018812029533158468921178050801638283131747396533760287299676823370563
31 7 -0.0073944953052178851527911576477516646188201783961862252897256124932274986816923176769091190268697087648196564123241391948048969795141158678525311017989091653075300795740819841235457587311726436669788705297028185240294304031195821520563343131522808837585442301662155538542695610021044667861566
31 8 -0.0073895149154852137212894594130546348035091936752271694407273315810998891695984229202222468997550017060222973474326325113545657163805806148362002800423120778383664924712166643375029756008733840187507141255891359479933120714415068246331741549765541038026586490813285743199843285207249629042785
31 9 0.022499956642717008461660991984762862869284560928076725634136149255859319322980194223392933187239821826718273234005204739927385723574656584971728644152909657592385897874839893492594579571430002203686870844275570014385539084047576588540045551833602279985317246717335155175282830274394425925298
31 10 0.02641243037953843202279021922121208238338528780374450357941222023908611467958937572593897796350387854780498041667478750411306084680741894406371441298755635229997748339216808930601075022297746910522507157556516716762019117331200819223521206500247756754811687700299969635544324270269225785181
32 1 0.0051802633449356832527015910753356172620736300541136929699925482456664185028791219034697647008794860834007370331317772518999740536803801302471006130819823466475563291374589570069088769528214551051630781943226989524172312245472953331795864908542094917730862864671964949158606502455843998981572
32 2 0.0090129275374069470176366691230203110611070236108781508408112810876313267778229181278868613400176149681506118096958174757585684823682427584916604133955918443733935297557327162601838689879017971618981410896871471781192462788197711335670532011270190771035177224220430051747178289241651252232951
32 3 0.010286312595467794091402943258638401367617736386445226922271537319376347050772565341704863234023206095156478262698978735996674729500370029451648845770118994521527316139580956865402944664447518842499104538433890329084596974639484643913763470301648669515471143749630204579259916751921368743589
32 4 -0.0085718510212371171419464876553471333214119129408674487108806353904280866574221176397041583184618612032593746631310927919260638515881502956489392948278533307786312001323792504242540100345419040039734190301573342009812834022269172556357667676013570169644127933390250876200423964264825184406026
32 5 0.0068637247688819479160395068201393492422392153026379304630641248138988178737640025244062690263820044404800741710226314014142410467708504301463351315728830835797510158712601869734448941226342937198614462488580029832331994396331550284885428002365070783991619167467666589218318885191644172321441
32 6 0.00084651476554452869521671815543025211008814462179178700628055137347354597035112039438267570577399066093244693244308445067396216956372523419282142469669018681428907400053631871430557337789552939066529368126535428494667942374172589140368134969463652279544584583107571212563671843950797752279368
32 7 0.001409554226979508568350405235167890200830480648711590907362231729149350340757661730652056420342362775498519291647194966168699399460424879721049874436083911925631756879469359398386624605033240873345173986503768669837860367526559077479144342869462764187753567017356809638667225020041039973344
32 8 -0.0024253596792304248951634958857590317195156693665608713162520774862973581603107024312645769073466121541924922069896777634212695559660819462919293971967736447815909679439473386868060327581570958586188059287824457438651702331813710103353817581698509920834691854393500972631594477700706058278557
32 9 -0.010261042556139297667704244490912588681144378443404385249346476849923767251873601499187840198189339463099755442597068859171328917813453130083390179847209545939235802680125268128633069617645473847209838205641759285613529990135912455507035051271268633951475622986621850223211869633721525912921
32 10 0.00013196830309186206582766085468265617781767127479003535401643758673910719074695342410711628922125683030049099220620148751142056212602943238571469179887510403450523518659627446492735769113739710546108632242935331870433630491376290892252604723310757606605818060392112618555494635405155999153123
33 1 0.012972753069437557703813719942689495820703238803735805438503113187939926694554570036870943196902338985033700822225737790573198634990404560493740537459093911786937592237029617742156890478904428211899602108253339725754541409207879735206226118850949213307799718740514054735417820007552274241187
33 2 0.014051294728398078168086544041349540347454965905101570830914702525268522424434199461932130780797185132184219381549366584856193621108244384517509464090979674791585315095352433108453118269543911618129478775283626171172640709853869960473317326022002379206402264461863426373815335457280538411928
33 3 0.03800743022100836130145073569405939522640704349844244564730205828160370391002862634376183385078815681540928841964435287805980105149943748032851342814770740666400655339930378416599345237332754685895448357570593227598323895828722881722130035939020887555304567189054309977876208877718363878618
33 4 -0.0018213761482802015571578164499372468720039380271679208364834966285654098580472095380966838523002968241895365717019786244143452303791192654941554928466031236403337405373514007020869401283711469199995003844594463315593010878292657928411352347652780836446639855010223994716646220461155607377683
33 5 0.01378004015777919706534083791523773419456817253107206335945671873835196838561852322446091916938592995576456043209391049716749086537360077703479345081871592965546349200555914403612239369344745720451369392445639858372513741018910539968417774138693172052984953330735913470358911392602412760622
33 6 -0.017587710960564125684999244160225488596073885743021463469876194456283460174975432119386280669523961233947307349879795487544101584393539069966211881605509688729503017565397373025742232220685017551067439727912301682259258851053457349954031703536073197025010683837958815034058185964149111175638
33 7 0.028637552815728633309972367846692935897176747722124503126375661165395648761790914334758952560958257637941952088661629473327127564166835863942212357346855179515105322557493240929351370665141609755123171066619338325585981559663672748939188970768899146587014974937851846211624616194941133402855
33 8 0.010540567942278507020056043382035369641109284386404417397151100804368900902819713870502733706472752122973828482023123278180589376759711650452175254790359206582269408034612571355322813702607256620298547208505004118722523948968824337758832751763419743383985190202932612241164000309528793525825
33 9 -0.091691388744011434727546428256774265447336747460588906461088144129198969506117294726536856292113362354190918560788232926564806983373201811286950089752872154876559903455432334701008518549500165943571317762266383349388768034675547241001839844078818471331500771749334015922552695072022301129855
33 10 -0.069337308801292836991796979345523435916956845832259656651758431720779926442156235811214811806849257166657374692431045765479144980847281137557029958299808186115825780885833532923688152040986765626092901760567597877461467940910317281457261345199962440785426027178040212920644757109242547981288
34 1 0.0041578396582214541101982103700394239871477011387840342496739229862923192876947273514299215356101124281169207821499734422671780594010286276648668113180706296992351108281427773970800890654294179139199324396657674505856214690870952446084140721424737902313171497506213531870879864848142784638508
34 2 0.0048935845174121878861657931819895721868428897064861143614559793069687831984054257812243783450433158156476419016473947304208911292687805939282243935886463252642533915414753389722546244731718544389328301738425772543802904892392835373171889688292162095544257587038408770135396276869488161785744
34 3 0.01109095055071632983185825694605220931319357404962536944775752493899075964439265509759765022837585755457829544068924226403077501029506084438133734805991552319691061269726220382608666939908505996139655933026741710327660666909609489917442782901534209807039182616408038083963228032336806153026
34 4 -0.0017471721494229878576160639817307919901988476474748138918306562834807297308489594061044666472203671743001881761853789354068193728540797371100055379186007704835268311644525470092701091926681654121940225646694989766038665959964204179677267386739875385932563907131124453505977388192479351808008
34 5 0.0044101545651989411134238087037937436851933864563569327472202775372212037664744362805450998177355296977151136838923498243600838967874980718640592178033331493553066487056464023837439061204063500600898632046411524441050279935385730345591952267659562360982058599389585266635551455617597460377018
34 6 -0.0047352702904094545359640041636270937292251332368236621538658966955857096334570650888054642409087398661021875465102246369751835743894640218181488506624305921187980388343835903793685046949869846921471132029390979803683137416916368098486216543164612400207962878794942029245949347038375740097027
34 7 0.007690450504171357648803573653275313214089870886194984464436904117572953052655342226092755849054526684285215493409253609536690613061544866696236496605580196795568910074823458342973605795479955217278583603731205943830411916734395490500163547001089233576309930510096311170354739861235723348204
34 8 0.0023672369874516086416423803470726835834877885033411821821046741265783667532998048542081477047704706095010384443789410827195654586210534034890266944250641819337521013945796753261536706943423555273588373099701919768594593236915365779046195246676279873730063768465485222706479587687117960856754
34 9 -0.024824512352035180037979892129454241385193995222198335054543353594227160451839247562067526443489656878309344633052602337679290440502626788060477189434647209705373373361397509203599004836863207221219302476874529610432062054474114491094605814558383029928370371435662616259401643569065247115694
34 10 -0.017857954032639751404029217407005962939146649603289621539287357261553334915515212060057770947806768854827408312941099658746495526982504177412801639011009259843499996232931744007485375684948496141629438522726668253530110530700495599937051023364564555383676156664607812905884156946932742992175
35 1 0.0085865968727075426951519521789539190328515378309603455935119512853991621779314621812990964934952591735508774029989863267839254169740194177426499185999094001623602445039486919689107595644933083691600476828527179074854373422260969350047845038965135535431604866853673267008911263417474407796286
35 2 0.0079101384529781923901166328157972975072571573690524826796506267702641823828545527739957154165658812623198946313655163072526088673195942007404536982685798344655322936959844276507662142821248904707759506786815101873649482276889295115814437393308050048969307385658929014953875873805750953371116
35 3 0.024989583503551698129320013399529765949706747929807705935572820742729527188169622474881087120218191154285002452133980178969033147397709256880989078819327742184822378858163971729890997081590098540736480375788249979285866115530817662680271716810271432889159826881539628957789324295037045297398
35 4 0.00023813533334698815791021858543477127367841269596817214102193670909305715196789525249591978983011361214621813168277156105138502860208465525770477732702155182073055025169593376562513294279796660065721705856663701261472588100237627093816756009517443475349491064862432524091732458887851766581921
35 5 0.008439676365350629452240302104220797985288459042062892145571450685630144964673288737496459794739223339743236050822347973380338782539519039686495348962220065570571039831257082491672584155983123430513256870332517831813920664070298271499684678609493649890284660534455223058673484010707529018847
35 6 -0.012802598995490966024032646531607455661427832167078666336749320234692971198513360872999864998953496316597401466458156272655945031667674394695921115329261848512304511563392236408360449041501352905141960965162787736111302275563809028292365797210982735890613559843061890259684200986965632724699
35 7 0.020154983312434567290447771979255697728182998912469109990408929923735247734326000231684073327873194839736041985082349983150397787066932748995310261510452800579380935570883384928371387304605959087247375682177592447170963546544648620064649763730341408991214013775199244037244990641456147993202
35 8 0.0078309884021631208253569603534998762778035601866230321497109544469821837638523947736434144734833433066522776512051478481764345527422179356094834406810896389542837948921420378724357339658862568471999760678284103343650498976212476773383754563424312541670138179006838687716781020377096693563809
35 9 -0.06287950336332485477927699958717332824910586100208711486273210170227543505406305838335842576037908481074012863645092586385567921041107443489915304942195293958134058643818270637489874113492552258112858337617798871212021648806596508093002451972166572447840825657570951392574443447281764487559
35 10 -0.049018316031994128080117041601586810081356410916943715257089490063915697306942242964561273300804251379295374297599357779372620985698448154131944996962969994461515441730651177933900395150583940083367317374313497457656988310214958115579228727906230657018516198973309299655495389877548293493138
36 1 0.0037583681802312997231876550046834201625694773666639928576040354017453751970571111806995474509279133670687994322942175383564147389854368564036590717735921465988406905723164958074512378151188701237501942847123118702323177153545045680194194787481809911072103954287840521214645965746716344574063
36 2 0.016579746123428395514942642523804975634295351869592195198964607763307153292467716717486175367224349822688948286188804980372921144343360790106015181324255974308376656667934777860308527775384790466049624568934598047921504304943484103817291201114369175025672447659063989258106286850801261981518
36 3 0.0099758620022669521754979574009911525828489320338602434902086532550362663262505646141573568518056521752671499357395914826634240514745465818642860405843094257353156286825566396346006696967070642751690830461428594912569737982182276069037497711046014672812485224389690588562995916483607878334859
36 4 -0.015821182522840386891648633728806097134620044610023828325338885577213250948972874635951816774208303650474081602058001392568179966866728094808403646599274567352261906240196276378917723359512489996290510736406602173675805205784403863136875632612157471024837214589056787744161263650940864222607
36 5 0.009967329013090561800968646778116541049073274561167105018289329986077613303195444352687125943165820532959045232139290053431356158627082140956419255533236100932476202261861697843239804766977047375675568194025407718808255082087468135627355601045807022574077182616843536642138868073397185675165
36 6 0.0081908054743187557153695266113817615194077797289186571818737325898021438848564566530681167934145859914399203140034490529036707086596679592575408480122457138520899283173441314643435528727308266609401058779606281656044367737785922408687659851594111129055453099734182034887790466600666289486568
36 7 -0.0064396020113609222814947475269754943054210124765374865474118449087233583472060417328071558002963722203696782398223033673607100108735986908182081598484831171410719960201600907931848074676540650778656090767090460006380071016607633539009227035979805600587885974638876865201068759008953367477212
36 8 -0.0071335452702496704095168476757549860825104143825473287951152040707329015553671484671996585678198203593257819490036869334668217163053195234975431118471082062984323522102455013682678168328570180995431923797581235092430111979517865817645690762997045797077028404026699961022624042765661551105172
36 9 0.0039986221226405781282679232899517059401362957045059371765089318205992492021322489749430032367444752979503870862157718360386095502684334202536080882272324148649964381557528445045505961964327116344493217744220524688397328766663883136538739862850810836108404767592467705070941325988369313322299
36 10 0.018775050528758381202071437941403865409143253984081483031782808328078994725286492859398604950935662394405129421978017787942825067939826638529927930826509546479326074330948290744910680168570249203877856074212982991077600958306498663076570315841034758518417397208875900288495809030705430251469
37 1 0.0026279087218315522349425077207079995410697549473898627910627981680418666073722309104661209623123310215674312695064444867906073481481309440583970781624370866447566535570735303604190713895634454105302719435055648605553999975442420651391156769613080914055189570047171269919119715239280140635094
37 2 0.0049473413012316750293589445961844235969649446754155684835060771220973462233240888778792179516455758721584639343185670291033849301721508338324595077652597797647767217522438543072441897920733004190688730006885880006662531679688532476201868164859256445266711439158556420085254483908217447953382
37 3 0.0076590522392013991983575739832969038394281261980949366779626562027494733639959567557782574072127457838793372384006884262207474176182840086221336533324170591894214947757785580506382694920265972069735636148947582717845530488480448606104680392850135390716028233487721432645965948099613311748131
37 4 -0.0026529132209397979189390881492173499776521134997859569805136968458855210480502219965306269099355642310088877722368952768665348023524335070626486212725857750686612565647150753498143398643610514212564186883205290575442425330439493999432548545693172210210642458888795076107460758904777386075531
37 5 0.0037157283888874871946267086078946458092161227328080770032068519077041945450707283519645058787729003404674908446079617121420902520419969727941436032824694871370883418086181084617717441279225643600272439041394368940971067595884808832211907622210716250472913608197187943341470539067850336956343
37 6 -0.0020949109567102901591140648783373709093891118449767839415731778473686198794389304090205130356742586650331485367410223054463325432262232534043879898212542623301054766719238096022135430827134753194714265209374811669922699018821417724118620117573546490027536972713292504971421874498344805905853
37 7 0.0040323171916197216560123617883559074428703970538544183972797503122697541640656465727787569654179613181450547755788388385744743339101585161784645111481966540822607366239037612355146764595715211493144497875421400565136364784676236946664190445150670476687143082034192442858915337014506947390017
37 8 0.00081007707523756446630860138751197378232342885812853243401830817956581696636536982337269717829709253958163081258352254821256498890767518279890143662933330467900437574696676631659036722404943485156526402954761487744219293899108144475874239504567634804079789721763020241055780274411907252930079
37 9 -0.014533055352831257278645885611786219693944789554276374300744790813607446285793152172503548170232873509474890735948495654860935440134897791493268958457472729366666569610502691991742964754986399592967775723240448231517338001453629598856442134227985244557688714405535322166680381228847880591507
37 10 -0.0090003569343900778926347055352245962173476583309238278028190121605362026977888237079429487909855599983696474074811850939941617328432341443906861232938542808821310442612642163900512945308706555836363673993603579191647297331142492876656976537603917922523383462472700202733342663071441977724185
38 1 -0.00068714699312768427465792491863054466868533808418475293127580092837028410443270611279710525994765447029674055812411694796405314794847297479508865272725483113795833006629275557641073046409179778902250643980577135761934844938254158166278713428827610517761568678589095067935845117382626935441579
38 2 -0.00092567829995982467547168845152813261981341045402846908908710748173902706335728480234904862348426879660320769562778456839473800916448524311921106826256889918379962009681805869407249785331714745394639570899753448775403078173351495984904716091047600837336415275185876610098200761183910911343352
38 3 -0.0015601215446875986606976487015574090843739595670704213089841746715620079068221217541124958864885451828707352642475103621445622446212377999831339732816463553415080745429361642104826974617529930814069404554962070198270724446701322331493120398543030368881305469131138181773009238898681201893893
38 4 0.00052625252009177857977179092635164493096067802432521033145483546682527392365351409712758879612072541879944511521189944928854180067831532117712040317552478162650687010098457251917765795876770864046487012708888425253760763925691689989478395221018633932955096947164222204297452199367291547936629
38 5 -0.00068513132060376904184385148086217649242098492147595860828680961081699835888791754956405092298625533267135728442259525045355094232503583040747855248617196797153182379671887265501076141907070841613062513261333886770967590048097195660198488603645592613542701598478298103312826185733745681984309
38 6 0.00075855657713534596162743928262667310646511498348865649903591450070628200059847735473594571446370985659275229804146994489762565255592832139117527189424101217314539571185854747498010765677860214946123454112709941893906300083081740584873010477809805269715231095897119650136417306898426498513398
38 7 -0.0010512215079501810805821859704603046135948805174795726886656473281105288954109030091754741350171642059693482373877573695702231098903198339382889830416750473506234816219160567901671331054684898598597130973028486672973757669779783438974365690893359920742383712878287080915320182092481847391538
38 8 -0.00021984312860744252272109165344878932891402024221199474312990414916683824280220004166045114299560883365438304295529222761158018309725507311828400557322585053608748017808332383272504732486372925465632393746480348610024436559720226591489163285467858605441163646938755533866216367337529707710777
38 9 0.0031748639659657150969323558317515389037787272555543247126112061940646986916870406202334222563385161546331246730553049572586210810180156801537843001839388359313041326778048990452303622041582823863105601275789544066510374915333096924276702868637397368534711101248458856153547619963132994542059
38 10 0.0021879142404496431089966340118178518893310894291120391856607558800747978490490371627115539081857022431281890912773408062373161445159987664894136434046932771274129237790993746957490079667414421408695381146915436142687048953356389532267823861576775163416713616933563398727113719592377766305659
39 1 0.017660174018882855242825723644735779264293989071067007187228206083927939021386460034639391074278403092373821020326201800696942953973260384265226535008433146563911499160333970677113915499678356824856436737595624126959078340176371361698412182966008669124870343153742000592569288649616991309266
39 2 0.023009265853806643405160886036601556106434089291586329248306117524676274579525205254739638557201030534236897910540067041065456823751004824885418136768106394783572367947986742619346387623422243211801218842578089072352210923217123708978824264332895941617729370066369481053632286478050599895821
39 3 0.05514786556594040369459545542447322674986018183101138035525114439404036873256609777315775203558060113263711477976343781340520925768691744125774923358320652758819198531704324376194824747151868493758578938522549093148983736460306983235910753086734574924055774579321817910422249762949279429466
39 4 -0.0036492706791288308791368783816534763234566375381407024101784802738708426496295617774607154661286170339794981579132893287567436397522741797870048456610169211151936961019926541406407896351791621897757147543344918097360323948300809224862197423568784404516703166779908763771912819830741880005876
39 5 0.020348433590243545504747646439080828576250280172866754043199995848302004668170179260517663232649025431495636110640539068314622607281778669164392790235886664182537817199448246970665317384454294866907069181956601302814543137190746659352083722071691067611781807817606774912277086154967107794586
39 6 -0.025155524588299470623153875845749212481597864667348459839520935317406002294587014658500710401398206606262802605487019479696429300220672760957623417804427266168369188520706573551120156219728170403312121875706188686832485437621867132213398131454461782959574535397282766511336675711515096822122
39 7 0.040656587673855652872067231405393872254517183295686194946135977360994178192390106374014694706879522300604122122018081251580231172765164863601531272791434896358363914781627034589317596628385464701020157015168625840703717256929966759454726018271648921944448211657985340934915181841425872970567
39 8 0.015055834038365298444129651044672424666811552184649087609433984991599013929928934950000915858180878874503385152481730830560339247764760482526916847305023308943975210981709092407730067030827393000923539427465060095515800273153479295152201238103075718164293183096653243481620879126361243685392
39 9 -0.13189569219262300745843671080460061203603094451255661734790234499715807876936465211338186122193307965080838829936433031801632685539658337324140806823872754580232999555334384479335592298760914790211337053044915562213165960038753681599529557699945579711353461187795643569594047574560188550895
39 10 -0.099333049288647745778846643219207259534911085620646006496175536193874858511659729814045506759694918802781831873688393316913549513279126505175490109402039315747451957641388712387200273860377063550054442361692647354262497830544703891464480027770933136016313557312472565425793552057008955476675
40 1 0.016353715772486278223086793051437544464380413717310750954544572107587309375167186783686742027442708176193963899535097822595569287251812728693443924547617686276514383498076443295762818544773833239285227939614574367523832454394241254253201864424765229193745258834231904091388981902525582589916
40 2 0.024035964456445521319012247660095326919977717465194250297441814913315392099403789526309058810974788092778451064631065308332714074299687955074477266138965252049844978308604222420602277320017179455793210153674780125960800782086784057193633081603272181193047819067275967298524644807564944976948
40 3 0.052624320626619106809044947690169073910095245364703869857181011687793249657817265617351129805755464460448006489501227847216903485110793390458707244204847497418033143032088255259389348842009174323572715615108507139091733665536478713898840572881176051763236793624568321217138295303259468121888
40 4 -0.0055970779440074064571828158540570375063340864411888641168310329041656529477681258798500553803278971650190139086582542341729839479238338515358991301328647157778967679777900944534635763418299725311654124792053258117514043755891946932968495635575392047912999642874250539890216930970895071748881
40 5 0.020522126652323196188837333620995802156947007442680472274642953605814862031433482091742311891896665885466192782158326961263068003485105652353144194076060183371262112298648785198966723445846490055700390392071421373876269261617205530434709295312869247294442810893418139321316286894458927522454
40 6 -0.021116840228643946086181598387872881496207963505037281545909645586894447120245891984405332501365299933552742893947568347315943576800899052884103223806373722838967159035058218563037883004919998053012386632554867315383974124443369989992859397523979261649257327576940860751358438533863790455132
40 7 0.03612274892114002185611396511497285294325369014905705004831064372317012033409771145437127265652233688511962916784085290138623722504543476898873671531622035632619465624905646205484447063438567290587548590999509655376617117623204786841375972031218154432969179368749901926759102095092415235943
40 8 0.012861614854452796880754892239717964287387234098836562839654727401554856063064005398009500897100465630193246099054625652957880630964856917339741868468552610512057122263171205763361356577909336516821256866395687932629850223096600734076427329906263647897050220119961227445971850692797723255744
40 9 -0.12142623660580928552101235709188016804352963524446200837683936898000456547767465508750206051457034054749208746823536853028074403405921206590792341657724254022481153180130937548872154200089100502611456673706345363307640492639915937059575052056530884989916944901498999883712477195340628500969
40 10 -0.088652713654749756626383871373792231167814297101021637524390786740899882635225535740949603140275702808371655564810381016717275079770678380286036429125179435884908894856742052704485114565159543019395666332931437202936824651423387183234466945535709909300368477217885605991031990476344040233095
41 1 0.018586348907760129121152986953422179708082111166998127304631518281965531342733883350885691905366738617736278371618666107378007148285572866769164360307204269579445109259726367652874307408888184125890498453229333154934903054507072853482003228956270712408353236394772033554004397154481730502062
41 2 0.025731490195451518478717256201491275236586006446792669265857008203898222530385335378017227332882312006262703246407816932525946758709039383726469711775878592079683835841724102905605822779873796175433084107748484228926425615600863841384810830946229805864375481774319030425899136761684216605689
41 3 0.058751079849770982463426057855073374773269835302277051118466994161007701457959118475151863206793091462549613018775313296344310964730245029291938736446504326020015323346620202929070421061284871572129407321368601170337644705774143973584232573952466054860335695080770583693914052169764806770409
41 4 -0.0049501693511988678330855474074577018672039188462028389183459781891950766165105261687370729281868715595124171248015578955230000309927839105185841101201320328147441974548035732182660425722336002345750348457859058840956121545290035035695584009327034439428932692696318019374149074033294762763479
41 5 0.022327975848255738823659246167100538215502675379094707636277969322872929068447152011151107322908435390031625433642721322849036952486767883897680189444953390102429070955196451553733733492147116217710490773802252983294455838380096560220869920973326764641099182829077440082442737165180965978782
41 6 -0.026051956037723080515608590630791787137582543363761118686226756428875478199399534731319542360779378121655379491299433422334020200162523916271001040846631284962578633398568864543889420644034387164296180370854137664788021504538105329872702814589369194249911460822840072585599124305463864972613
41 7 0.042640247898876277698031396436172383083581288914560752107632640580664817689296165711305528018569511640006541317856355709409589269999024469778711060151994472327721188617291689436354326075316725215924186134686636739288973309033421245074232222252478860691584351114835766095063537658188069636037
41 8 0.01557302803752236116534611837737938607483060271104362746386840091346358282794125682119084345193150482541978559700804055881875171843440935137943932394988056485874915925589624447780303038103228611766250507487850413013269391793594324475079711393901178077073009920381210337782597848086519713237
41 9 -0.13858610477832299648822678425885576685584630558287105293501422480862688129038075604542786554142491539860096918882815969499922884358763548060171363959220263761549326875720619260459928861245603737804175510614175658315360620521362790310411698632242530196397993176079479310923998624217589095524
41 10 -0.10355340429503691783903615573061053815350806500547370649329848525955382172294588188090498711919278951382208967479016045289793508412539220309156262105395201251880495271878480131598271653655032876106345861380763526949713402720334049148739526018219876096633322098116378695824241934537238343784
42 1 0.00054059034726886369787368125542180435571276642023465044770208970216353145212995587428160856806497788391321863025590675933210080893597539722744588748936637859779691866458747333476208651000732309548982857363245736760010234483836154763708606163391537912082124795949940597606920012525960701679625
42 2 0.0060595423752148893340449568869746628031392334845632799206431195240750054462596177137421179630696960310806459329838675202366160621864235454283362141588985930016833788974248732039719762260383034761439942454235229585089760365269381944214290913268738437190339245209141141351675210716853296816361
42 3 0.0068143903466631323862340497034266909015156846995119843619154746979856430337066817611418545085571620478096122734320792208437165203881914991912854502135501935126916622223874199369310556633474551149761971148281026003131809046053172598515715118797219157756012170721977422116103838611285011973714
42 4 -0.0021144287316353435215978939778052619916793442706587861073017909881664128871640910882599726296685007348174262608141415260302243628859404638477240901032048879941522648662158007430705739289488174780798852979618163597627143303078884986550265800649161646945527487805330395269774279721486833775676
42 5 0.0034356165307028293920092632105906429262518986873487064452567942238659285243672384140513391437255062312894209720334624798076359755698999808794001696312310618027295231545757457817084497783695945316861527350583143710401033694265323883053623453291592893073652133524972342021722212804498847639235
42 6 -0.00060974339863408820367543127959735973783450876627604645963334040383699111903632243183073393767608808025978580372701779287580528670161399603710367004972307947168795687909771468871853626430445798644503124312261365599639580093534462037244926192358576861567385777663790203289450042331462263552438
42 7 0.002504566649268071397807681044056805096591725275991203618933668678966971785351498222272054059144691741768729599171540640498382389165673165621689595609666991607874562722983445626287432216910675344377535888150354356092805329401266188946253403974283277312756724540690437912134409015345003158463
42 8 0.00091692468112016833526784633460315709534570427854437072292440478127265516383456958961346440545838446185296883401966687104615459567805463263574873307066252000828564589816563882163755074279243836914713440274245128134236104346001154166084483126388986081801147990755749788210371406696468405887309
42 9 -0.01304962933415739826875332623234762903467253631799986102347945608096625963142402140436412679762722871814027179894657981792519560914885369078972143737310628315178430715992421963325580085350007687663045935989936784797892003826236011716596884104677010804727646325291362038866932760512007369974
42 10 -0.0077912773766120299856053293950879463470214866027672792580206493806857989391658139443880445379917746870787420723090840435161573860787427034828926365705927375808028502358214789576923629844430888256478599236188514724010250652172064540873638623416065546109654650464779124239148712780507665299407
43 1 -0.0041223786291185370961497456236371663335466539680424394426074057187151960793744111805886787824668482080926817410495027889333571766150670500347425127051010486885870802280239203225776707998142827032331583658276941582098411748499486623492617592988562502534796175240750436235894466650148687552636
43 2 -0.0036897295407216317060279767519583886515385579937766352584442140564197975973752137541796985735414575780184507204807638751034951732265491497834561429102499599289658156359215236606581031130939261459480867864112867449943709391594073506350617884657465388311840926051203139001166419119908172234749
43 3 -0.011973875359628763131541987310427576360062696266618538113697818722403794238924321568789737476025405816855606050894586997921047925529170670524765808652295582361621014331405734935547854475626151492277043028416413391214164194957710588833367709361506798156281202531001842423768652540466627153887
43 4 -0.00069486392240090128003030327749824914497068060981390825762521749996497132511154040700042015271015897727219963816461681649772667882956837197149679366140974311269818739373859035403703949172947278786584767714976779575809287910904946240161172725105097980449187798348272650817553851788174358925307
43 5 -0.0037635950466062094555038602605676209261852234111852307048259162683503099700830210620067799457013746786041225052965312723609688950611269359320265289388485674666351502978309464932218999336537463693886928092443305990629759317716226706692475699020719715558648106142995410587051036613018758183316
43 6 0.0077361643328186840289029826297511847915920151420511023148530477236719561618797762376082798503247100007059211045730376759440663188245138135585701952693764332458605657627905117352222940267293442306993203189293057401187417890378896706934642698693670666197986637193638657710438637671317053201444
43 7 -0.011029422851950488665951672179181559036060801777041383855435966074457628721727524613217109962888432230799712605836371023171273704859067468327572515920359927705922724537584745089373710138944178660434453088091546636441613424950798558019989902577540264242265363888978111264942603513923666623396
43 8 -0.0044970083796703317361355425205875907939662482380568866559978451140743140933172199485918805429648629317548894351830478815674189410104282491066515429501821522915612844294114070431450515872478870533741839280881690348307865080301753669837765147758127677431125515160916890149958807410163944534973
43 9 0.031874175479034732190050621937180469974357484341827851060834144521893124216939959416886474531606761341970609814788402087952783523899799684067876515050361396122739411784069911426643850980338280502556688682048879940384718277563777409446255052960709770052303848282439151835123489715987688919676
43 10 0.026237978004739473402587279885054096463904449323473621247850914595333314018177485326193099012907608540336511701449054749672314186455579041547085611388147753752325004892742782114953143247198016553674005919024143575552323825231183356550723830920913206565945692972228174865044022273840602988679
44 1 0.0052627485012366104280831342246634301725334525493762432313331053261709525791195935507048069421999972735368212987460457607149501419207471080971360215307754533498422504135190747856659780021697676548343998648363949128748628224175113636033782804541222948332075751580736411193461408639412925320295
44 2 0.0026689971242327062403363733306071232639797045446435247648217925998354066124732057503248574072141918154317489534938459768298050635915742699733898136011874485452837514667353579866858243838206405812517181760066774910149118366905588196431354499417013165351687668546992905046797228730462098167882
44 3 0.026757342117136944064947750119435427840788460984580342832995044072522313248627564408265366793825615338840478739215762002554302659026715296725565955037489226000265465561632057843319941374719146488354022921669545480666539523063965166847264105906846822512407729749791437755270079148349054016176
44 4 0.012086334301698774605651384876419095328689743786280111130409001777991734449223686445430785290829053508749429362595691025655354416649984776934264807023402193196565094710491416451443018595067626725211110153982719142370710481505593378944395834265629722458000958294573525241095115156395231551418
44 5 0.0046157781632007464964235979702373459127615056536515247188976728057008798424285735419502609834554617132415127702241066570845839835676464602725113055859613036049992339485947314651159603794554784066906168323193112604050851044188794534771186563191168157864494413576788147495796781850046352843171
44 6 -0.021450746321296731857679887175670497831002658727529830274004937347239505637570223933520538699561332632843807479222306306233633369307362470221601517248133219166414951848675082928002191922427536795750831590764670480718720306867681797040365763115304860393644694869147324073216562271802727577146
44 7 0.030331362837083675451331431934254689618365330374853703593100411200363886072831776254618100765688729423475449690268621919737264981745142615426658996140353903580396772579976027729153524436880938630159669416507357872330424454678397886924108902401183802234206954475722816716804843631875963551286
44 8 0.016387864086533330849941418630485364447585283328062195882173292012029901595661229682871527789213378015168087341550064693389721810908809858623007339007416136926829269946977382980469990160220654622122398262618963400536816845670857735571345449234258944881822976670561979703828667471652408180555
44 9 -0.088814591879479983878595368872429769263055693932495253268991874564513278538027351290688950895808755205566048915921677224672447774148440048219284082331932713515602978995950916122789740331099988468112368708639359710314375580724835850782218723624539448509457884053744580196000782912644594322425
44 10 -0.080375891506311467785621946525774132650065906784946008867870749927365391931249689090226437205873572325556285606327525149368257028394148260954386620637092234561057308294082106321035547250904942127391507566530594831411182003673936110233121016923011731214189522854262363007555611162658454002511
45 1 -0.013069966562593649028761699488236591021953941966350418538450755267739146066795871503161540204606638547834193372320205714094436229477996912325956550751448791168495686181825680383595582927976198388999235317514018544151393565651404448579381853179406422640907161542688197067693458733977695995441
45 2 -0.013003098945904406267215259817449132613921650336943949622366424818012917991948399459281264234264911849831030474754999155970712271382702553052559465318077279205953219531297857341713984818920210767238260651858153495142596379994480768620346672341691483626412214426653081334558019505503506820814
45 3 -0.038278252354799834608624301535522301260548693327191155128390749126310439936329977201239928942492768928420067595827427989633514377460966527854201012401195275059557294407384822290157514038704884208871784066774948042224568898442721752356995347991112512589967852492612204928367355403592706237128
45 4 0.00032131004961699384767874129932911716753008213687864348813231057550159868550425008061895967027839073841233012396152608009030213978952909661168303461952856429441547666716600142472280206858888064685247843396253233699037019680834567822680653412628545640580272379452367488309782506806492263978786
45 5 -0.013284418564836281108704104321391603864002003631037141447820245767355676245465587207393903753053511631422964356764163393710763446661662662596176369707775355741389017804461165394982483844391168949271337679243384554621621409046226924817350946654029599088142185104884719495490572201179602475326
45 6 0.019537312636895319755416450259556103039972413859310865118147784032492770323751996788767062856546975404235800378507639259463135810286277792823341183381561723961139902213845035952484836593509369728133276252747452628824360411647083202910285172472278010340133706957104526458371674350831320627975
45 7 -0.03070312721266565295630354534632405451122154617744064695820811942583920510344992261168546315388580405703606066266009990642060891450818802333472345376147652380391164745818519928802901809615806218672438856019487372794315794059438389167105990494925849481596639108261347996459600244477064217158
45 8 -0.011791717671278012891359304350307252562993816012179505569061204842531781040722517489177251236527242883377496130522839922358131495843227862765347199457916380360265747441583218315389435419299593088975459886018881845113708255523394628219042269685183947920634410864518100664336387254786093142802
45 9 0.095368835932430760704549883249720823116996623102880319845850364283885212143723712723537714601891760604174125929085100638182527672173290626597401569713443080717027312599704411594457466201741358729892649188225061170954800000173879264171528771378655313148735729248712237112314881969671777996422
45 10 0.074106917651306624367986020039602319028837285503033554926810291149945483746559025633715895768431582112681073958969512100080524989647717657059938020983949661472473940021279666988913696479943778580032065978038843588338537033162677011832070377931479491901705642107168634988094356350489420665166
46 1 -0.0012393372617737103471547741472253789101365060200500512126203723963223012675788837927478016388069024194752454165237596882763932339254388822734986625356283445461340846951548388333145673657643694348101643952733608611802224133862802653767949430840209001228559171485713313220209332520368212039775
46 2 0.0068804876887176376111077950487005639900684116456310997584554054711553413154279109176449487645946204558764768359973071102059534140697821985454699616095433474850792139650779490071549417581609673817873941413040747173037257390976123522788083675728378915089833039138783951588867748020409040606145
46 3 0.0047256133915147038181923912278027942960227106774615262933883876719366356860635159879389302731532377815909957438644210175422691280858125789790717543210329075303410668908875312996428041566725588077055665204163953187421883331922954370410837588717649849460878134344878978942125278656093018377283
46 4 -0.0024253071654723620858581536972697670360134207059995935741703816552236231224203812567406260593726995472073198879641558097481750675157975609236696510464126639942154547004630640221780972170998302992565673153310788634869181537734986581544185509278664232642820387779496163465000103853728052837626
46 5 0.0029579379645361345637037478777549576432189515340806224312698905259573724834533645340810198719420254294664921321952632249909107775995486125937166249824535147077994992321389242746646759280464198942758641633996648693372743634622739613438834276672906629579304010246667266968969464857698822725756
46 6 0.0012195478366649474120735145684152254475038686960697208519556332172421155303287509880325760497051037418805408748845941278217013699751464100500067961030752422283865102494003197304989717418092893943221077203417377836007543453069760851501269457425620237344423518263799887338868599959934022275517
46 7 2.0600627108237176023200068755507186566386143414465665539672838280961390245831150576257161776299249274533746366070600291604903153160242672739077981724594201180671868286810036531904266786597475002776937358612571147678724418117638582950511833200744646759360045604904660510938804102713811493155e-05
46 8 0.0002049827149002342205837158577172816770131397896530063412383506681122021972032986272289882909208768292832153815256162170366224127123655623542345806342062269756610701028559781834995435367375109091427059840107521431713592262887974704723099374037485237718225541818656369573287868355932758487818
46 9 -0.0072739028525505355782644807146644902537847033405649745216585001535380112952101948302404686867945168178225991808244696790515024250100633277634293249471685863453271162790237745326054400925463551572366995401139685369666049549334504468895412552103059583295741556718865846656191379506477441826031
46 10 -0.0029264165607001028846103599198790989170001913571080209143317026310742827262459804077007504069158184903195848683224402461018237637452610255151051507791233280055601579402125051378269245625324183713212470833061767528073317772593301330360964152587406761902242029634412010138129885859307789421554
47 1 -0.0066078500142765402579017061560764020450966775590327287083330650324538472219844553852203844698423580326289359104871502671656430554708076190107304952439918913860115667411018809394529022427203148357312323964539405210731472301577358524049172176803672065354727145833828970570534956211570672439641
47 2 -0.0021359017686994977388523899460298179494980724170096699777832350661542648525990237409476769223923472391318560871891880241755527054475760999490842020900548351979977752768849654048014314884957202219477571950390344123546389070532693075466711524903430598301289672069612589566010754732397860152062
47 3 -0.01483197702928427279320371252946315849629023080307788347584282382461122912800781416114889466139177705360740427353525296658145783256611217277342037235051375756551633085620194820506423735272607681260227086723540514569437917884414885075091033557771604766752707243684534178110293905187554334402
47 4 -0.001187770610116837468418064510962036941203356362006830811687324685716319407855468681874086656143043422883616193449720039890085576538912071859977893590147071516373383692142315557193186034178788342563113797989411651796021034681485670626711129957500874881226567671445774060997445312070763927216
47 5 -0.0044283076880495462529463890809392522666347425510665694547307521971301297587911699463686466276745391261114592430533436144132927008078746655813366219733817253324735218523385100426156250407435684448965325427653771694084282342517792293359607562840669543608813879076103414199891974577007137983897
47 6 0.0095334015574632571739029985806540563097384822712935408517147846050314059530674557554113777470698042728699079748430128290172805169785205960403685485787948839409916025797790153883694728300760815184586620114963911245462227131295179582743195774426272239909571931764769968959050473871197459732856
47 7 -0.01395176307526720151930704925622319030155107018517030667776763504111049722680444818731205745853504116064280158818009258462825714352317081331653911233969035735026760320816870792903517280691421565851870063901006014205059011285905790768145918191371551867791216664209969168754714382854618320432
47 8 -0.0052575417575245157372990697053297971132226876014491122990358182490242565053033419812125753378674807058659399853499161814149127836090797924906735934113324877823473393709136017164846421713634760823843241434233872562045140455670489523666585145646397671272453613982502314878318153166046522883623
47 9 0.039386736463454536928930453056100566345883177121173920874753499665565258333606412021342425936638347126036834983627744641572932202841394686384253713385324976025696808807815989261076109539360255834059376680026950716309315006278920024422921508347454451265752386397622289447012944899339090685156
47 10 0.032096872651758654672480841359350159792303192561535026359605881584866809589460769974992321445999926297740947603918655566798114998725021975634185366690194526202935854420180592581440281091084259680679146336506030632465622251173775895240187306057943632973819804611000476540102996593100330099155
48 1 0.0051078946009077016261819507882475122301107564355103213347335356225512576225466888212085436214832251501229083410562321393775268219133675449837347233912446299211004057714353784485461183463489739438387625145453915067066067547769549636407679991333814979625135234425310593069165269222005803984593
48 2 0.003863202771625382929618753110320081766745416748353364430499801183471779522413077447630453607263763064277506531704793868874242353489851397891566017341097209004404421684898435927813011429967022556500810946631667218484058072729044976511927896179102152354070565989435735057593884181281536096476
48 3 0.011605031761900969199440711068333205759446280679430374199307999660032906157958551635646258021435511760057677747568810100745713752992403025101278674784575656370669897993694954865605648353411504664922012285045590065821096861647886941888122390438476751187231257696928611491232781293376614460515
48 4 -0.0013439289022709706620603386710325834556717856067284270353284476632305737647823812860541107222679285258893623117559958909431045998021684501464725399240397897817175342514297235489508922299221899342110195034373584412281211074129666258439555781140004587573905918433360493936253540003258014028834
48 5 0.0044065955175578856481064189167021073945139434642801117602562731250278441164400718298903819318370901072852791463090037189838916768416704412269525898692446026620077941780142023466294803411061993088303221072098928845390400817757285754436970128070702352763388849527471590468253167799546021583163
48 6 -0.0059046451789547890691897366974820097903771691127485605902746896289221899629612393265015625982392776431780144110343269682303710940910307137694484252201714114771649971766403483350514274147126894033321625523293843552795705010352008343713553518857392658240517061712382556436210260920155754751625
48 7 0.0090913067337445062931978674032453299841725810327967982357852103521367772223734149874676338780755719047846803938468871568784202595184288410128803884757873553641459579307491732118265015464502244212983313455757286816228134357748607376333980167154936439090481857323816990497500162996750493929786
48 8 0.0027943438251375561548587843225820647049414575508988183762463654096236075938985040288084018895703868488173281600812753049542069913106839658535605059255397134558934617181289717544493517657903298059167325461270576713518383898013647537123236343254790365370615611989682114932991839337971488896528
48 9 -0.026902448908142292430040140208187518407417377742902561976205483790328439651305576260743892279953282569762212209166690478010019712572060855464797320156240925848619983825323540584187293915732873331350991589450454635329690154519523533541726987838034991319519142661542979830286076147626713571504
48 10 -0.020109798411034089373073727525256281000752355126455787994101443014184824076049562692427441151125200889162993610006923430713645954658822201222412315980754259313737562959753471973614051610155896147655447800134176252921029372492103480595611545781674697701659852848518606019835436153218108798653
49 1 0.00044567172730548425665888953310697463976871833423510377485549329121658731814584797536651212879290545008468445085384221546767521317931874919744903290771458097001236537112203474735829436270509451842819906328858260420212755343502559197230162749965418004083025306521688239852808377919700924974409
49 2 -0.0031627045137296593172970544475694780178876435946328206439758584440958247435083333907944928502269114530520239659039732025252645120847805121473127718550159596455399073727527758432398082035771374739954522745652741854354883664772360024576344397258006616426611563919910840869437968976974454385479
49 3 0.007900871109204509589973752691227115796386195937946624186084649725662914044650418729094920047174173256982341437551269640770149071343442290309934146809846652002925159337581498452382090247034751806633157897813109810442583872565229260333703205742264065868171710735260634228847525396643871198887
49 4 0.0095749370101957170361940643045794317631027601714588501943738428469996220020735196531322662676875797317768688287381728322369169935581306026756418709687158263920031543876597856603699454323458391548927637807317955890503680056688483647876786393043435607188851480662536621653465300434778252451878
49 5 -0.00097441887772430651299448159647435500137709527072189684562462949007480360253038416746863701409718925664231934460299088050285070202675581591812418178341743489020603208364491744249793417637061807650144490542540327673657278586349604143342163210689697543894651882949280057043118230592181787273161
49 6 -0.01079008480004377327636945348439797581012106654686802991268850184461063893869179458648321601188696391109206617178226817513622992937823425545094239775615771505520279282272482696491208708041672127647951353871257301809279251931827899598856395633371271908218970175607128036462654370352807479718
49 7 0.013920612372125809147125471167831541257458888808402724468923730663881766737520752174119709425693644692566769757838169356666845609875443166898127064788617822399191370881898213221312560584008639688108557036353338064879930888502705150222529245471679597367456091624783160855760658678611656021112
49 8 0.0088286040522719739616985722490749963585907680235910890711070575292232865489579203900258186197845086013928478220906704228972709931934940763999138599069836826963281615666218808216393823349475573632826430562398419751149587534316083138099640248056908204424912448509708554381580929031903632089587
49 9 -0.037165436819734667916027565871534844405812858467513838382825014208045775986898958689283295653181003441946598239956518902068077407422975171753207336970216333860114774491230099219459246831607053359115471579260344566314556473689059499773828756614446136029594707199241731061665710174611001158711
49 10 -0.03805801894377579458106457026877051312048367432061788421307739148183451548085977789903057332748737709315878603455864947587333515160966553628723762442440886915369641416355652054171725044148755438630021392188961687607690337988819273102796891227320969360185400943768833727310710024273881608969
50 1 0.0062945278237873632367889886020684797394684750990151661881205650996512080436058203192495902376101626312323854546143474954948576299397711022415887294031594902246066657215674492908713909284367275973517401339589790436464809593958729238993558262222525714801621712941897630131541484279361257180709
50 2 0.010698397048046556553031589340368702657680317950297031962694877086764674316550011995752863838434456874811038108725277180274010670842377724127486133775482436138675705156571311858439109021764087753949718432576124905363552369999131035402706783463576182137820520769845039809658771608228478622443
50 3 0.032870662523439325925536901700140227370981792894537532178540395319204459830596080689352742658860939851779039452209662021439999460889791589247107207221856573479097875207837832920436341893666559262978438540667266615549246245607584414216109991676114473500163098614072690820622931356986223948592
50 4 0.0065498208970564968008032525531007584538493389727782211987529194078779541404210366062365846601384371869112166170647284760312964987689297720554618072259769563728959604088998226890185044701276096889418696909501421120861534698340027777188929626827111790195489868591500715456310459773222090554677
50 5 0.009012892046439415737478496058868763272606366693689729570385379129364799470914587113699118196908396572946295678616092952487791074667894953578966482895324745256979700261031299577942814043216134673054664192151234231828356501854633285014477356811763686873080137184642071109704063162917655218239
50 6 -0.019329724794246275513781693947503667045381246281340580058463266251365346714015092691925790539263030173412944775929538235037135867543508838391084040167160514739559001524248283889697182317215022402767462012659677008541336811304957389116681572458813180304852747103380175757484996880929320587129
50 7 0.029451837069160657682445534221632876257297017180447562822477082750803381250872476794159882493335883121649692388909264288810431645121725464772842946913998446624733830851389938892951850591711260245984328841476259857676873328906557734998389423979132763413343170691512196313516842159329662516823
50 8 0.014781336125033508340628152688756581520821558797042603684694407323542468051892834702647752619856396038776068230720617015202174708520238729916569377884290373022595881398069556309959357029807675799923799040487947012966974557705881385648135446289946621786144211756049646767638888017115038218237
50 9 -0.094011048455854650687841719369656075913499267219574745994223356110842696961317023236298261970820098373992613390315341351892537590140787046801558384477492277158796454833751803918890494973875171763510038231200404374350193062092929496354846052142831238803309173976101972184658693103432540540784
50 10 -0.078782395828105169536328662972276761164370322999680223781694754887977119601119663012573910707075065971093927278472873321772237560349203865443190057786122005751362979169035592283073331419488920214343178681327763170011503029070970703745915560016836289331249487574168960660491338685702307148199
51 1 0.0086835883200013886517310562182815991065382277427003238177359501610239804428889035931813097992175128378002999496724597155262339073426407017448468671112919597061741554668741228615797513587273717805156005326220683212567819044935617273445986500337083717258248397484909667786876070982094173102212
51 2 0.014135536322447676474208251129462875416018259826330513223779489034068345835365852780583318905744100915829243135689662536199882778694247893862090909482194364293271827046561602392244964459439300242157143144821987677507427651703621120996740925467522138964804216480093016829701015872179414976092
51 3 0.023347805974081658564534098906878875269368562971242937338309432394094117551866009467225276410927766955268854846250891467883239339611967912037930841668281004551543764449037334935665144664147779352096111891834624829810546326372165448370806842434172064194679314278395027152321548297223449137743
51 4 -0.008170020213273170386849042494211442498017284866063652610583270478943079172025216013639944005044905774092085145746990535008420172896790177736978987852509520507841540178757278212295453513105605469190064236536889709312264434869306386867545765291913342995780708167225784634253213070317450201035
51 5 0.011304171902445447395582996863429780460219452911808491339602212193726988976288840745460830815102695339566697367876500721416733064005320088288011964364952469387280762729081916699076356267905020635731324923857925333004588916774604730108596262840892312565949950356260089321608329102953077457662
51 6 -0.0058016318069295096653559400422825670113524504477726174644810992223273446037442380544260204348593070625680921214852795137363531274040705181561609106300183441267876051242957921277896320738205040771064557303857606165687942429786454058326344205689293278309022603631701277717704645781345179386365
51 7 0.011916462765952079063398192122142619988444728278638873689184688660464590000074825009732247382504533255251545760608786519302144071388594173702921109697283810754092063792183447902016025061860099228068758775654573797399238215008686790156094003742679165850467608479404607275603201864735279483972
51 8 0.0020638507422134608089037109792158961436969421556525652403487762825196395341219049201907210377069211813657044941580252785951305114170865280353437927305957814373631852668850294556493205392568412146369262380170126656041970929973641351653486791869014293443745212252629881514622508740067491418847
51 9 -0.043783819667355931546174935343988479213399205129521836570634702116256632572649201153055807972300273474607113221842499352184937915928731377433500339388475628008567914672514918278533611008946475305807189985903829862069349333701771194951334456561181599464319786899972051805859104048840699055486
51 10 -0.026374572735109144069838554199909780189271609370354977452354747771511190485449603188095349012382983759939452231150615441778264119113713995658780857758004949657043944097072872511687296590265427657031131024020134083970212951361406958287365548395495790996542133919040299616668758006413606684969
52 1 0.0048759596477028783702706873336350341998838453264276871838033150732501536059260872066410693288653681967712769494192470773105532036649133811177205168063687947334165923458028724908818995911493777731282896252652246539851335133431465076478687347740697007609769043787861541275424311589219576157736
52 2 0.0093977409253149840341020672181041643705609177061716504061518225197167801790772652298038931800212229901452264900092090599668156088814258474402862958374735968824818655343251671316213101490797892515363959718681949140778434376712584783595945777237336247111800597545627016743876720651360175827824
52 3 0.012161519926841403388488316725791209372317005207901857265596809722838713135024938530039484109937772810513289582207713812746698167986978654930507481017003134670907844769650480857683714114844374414790416040727296587360682670501325791868717149777382370262411632614904012162110743336935300101391
52 4 -0.0070281221101654693351392151778532629928264531884815928796127909052424290423911050129157709278184079767557380589587666140268698713811181692235057274281657788037895040431777327505464270758033402805842647145031179736966293842717332135886064672573398105043207009743849251672749068411137043936359
52 5 0.0070349345239267265461012429984942427004774002459499826788007996485867927901597187389219208801336525335140432312658943204264354675059265033714538802292883933389001115113971190536626324108121221755127134784173910690895073792436365456163185413733045934836749558829912360083489407003027351257628
52 6 -0.0010044908216246156829856557210765460792466399606276063631096392552705370124475777704774969787512079579458947546095699193094571463629765923301590441812067832055718975569420575841983497061442701570746182023889417637199477319902116514846534154421386951868942626771871458555804800459369812257387
52 7 0.0039854074077988444485078854133586207358799780033848502518749095182997215737546531130109933042173549920633994759082572876842065007525939632302146566192127702119911333413892941962780990280899558274551673420566671162798237723368801664359854957055096190835232618200580688619523399580575114852901
52 8 -0.00068059544497020581059552237828586391623208360722159518871000308857365474312699687840843549910933652955126924414272424484982171584571573496715441370771203492744650392825447639001647223826460391897649034248768574879383996119248893580902674322493894764594810109950318241824385842529390173666584
52 9 -0.017786515394785782202591297502061000943704656618065791268878848256601769040539046967109846579055672679167726157012783167455197200045290318747612609858823415379470649182504748936203850512354120686853380981124737436453079442075279972112916384467155224788803498988113056763614444032401923165048
52 10 -0.0072512717782495837475319882819950593837132906192602420083009810367300480892703503783411315632763321639901150788782802415446353894784647506383932867685303115889051629080632925265239693325591325993080267871513639149507333080708148433752317105395459437719160096402687248238650076518527278929362
53 1 -0.013012236975329774527656198365144631499217711103003810497185105214700460977214016089839871475171717665381440866169128610812937271588810005654540875341887311300495976996812224016577393541648014008567570623749359748693016529448991222531329138224412218969183914465886739261064609207749023716146
53 2 -0.014106781512420536466250266801175991210056322316720177439196449909042237120853570242664005305086818415876009938817191259328886452008640074689086580551515342956239793133363039712935282309607693132009785427956874007220633720165021797541896854325627497143451208178535799241336967695893314131103
53 3 -0.039649814243103965445413205627695074175291393875241359600924099936152703284700432746546270111993637632928300453497164138999955424959871880810070496809390728442066072352625242007169280789610317659791692689499878502795371532849993203603704455140213673781934052159737818560627745955939168376712
53 4 6.4610359061710712147341275505725860603410708837275396359795160460955529136069521735646042166958723948076932809256394680843313307600597912781690874847037571365807277671038793487342235181468424527618365446570777146049794654852908229906764251833224229672735945461832120924780923679850614348437e-05
53 5 -0.013684034238194515264175024898684384568540780134123420470228611867504772821277880931634388629701214318429560650974193808852408382505231882912933426435724562556775250262879392780806198493794001458094075812653213580925443063008385486981325560830773599181033841330888868783807728917890893768854
53 6 0.020923826821653157329077984106043554582234282556897706378959813236944072977261350100337525959470191499648449655599202906019322384023811930810049487582360220471087409853239723465249412748919691447775022747151242993238654856473375374137806221060827570162604132254684607335259408214188870915901
53 7 -0.0323349369680676245582208984120473309714099470034481883937627499502190445214742954021134868641066442164570723706527220766667998182887496306307962281857009399562970634791575240553437840341816536612630661322621495113976126206058662344187946176067765071317204015433804772203778677115487761953
53 8 -0.012696199871502966202854323365370469441370967667483427084199352336680234139714324130349279794732879436268253704579641321149317285746110258892897288658616294502966776578401105350970392205499603277068525006322857512821029675097040828215211075660321428808990365841239465969278947120447974055349
53 9 0.099717527220051536250041482111716736388470314117493155022212310724371688199725625889737888400389362703141052473368338958939693511092754943701534930058921892417272441437675264026196978255084509717882897440165038209272111087400673968448966856260096222731772438261591020918727415125441180954379
53 10 0.078248430316183609599340135068191606242541291261812962265229471039013260279158429766518569573102482358228760698813290761165323120544146763446211419289458235965979405825501592303367932888605363017656014952093305975328829089033749791837667437333471833164591008725615591791250641261753099261064
54 1 -0.002836564046725597901191337224960640095958040080287935649106919200916337360392174108473594401387782524413843298696970937237378648264352449709874876837620601759531505098339046206191282315283448281072107248624830198054821218860528251596127997095642497652036099139121406898710806943530027232342
54 2 -0.0078006348659766341427710267210421564892565772135717038718915828149498397017214949160029986738425208440270084402334620509702827829637949682696539034539886454053166329992141935196524151333481093263343990945285914952842487867479030079768728400045362898248893438183433929638605574530456028256241
54 3 -0.0028290989590939263928310689405828276623962207322533863968343069145785824043811584404855433289759541709720863719699766635324734589014773984319386393839135236006127765489924668246026222494089554407573219293805289386043240786815374701378407953757133801023171560899275435187190097075569389722268
54 4 0.01031353216965957513280844697235023909973477044967013920629527854468346531870944886757865747583398878210675159053131859453743198215685998272636769755830866576056779859069241088738465555244463169883634397432099488520174738420017031420732543335619374226314986361836997876156069184688568605887
54 5 -0.0050485143446114325037660250578990579147443409362271557876766205474637492568814205186217480361365446680940892357629176004784636106893361809670785199165969087558835918454980689464272771934684829166959542539456094837594965743979266568054820289088664361143749678354390635839734778119092563081349
54 6 -0.0061314431422778462214895445641322649562943470910081951279217728238839879949351375955831575692834869812943726549755875749680191695801209727004563724956895306153587184980990204715802807704330305770818727830206333216972681577724731856022058007691148487806225072834841692729958903964515268678674
54 7 0.0061195197878792773322251999931030824671552121460013841600696785786674862476166625920422478542949250077181344202100549611730064937749778012920119012077394515785108978182489045704920752147045773720630100856499625480671658777296328460411504973831562790339493481109860925526525157069699674452054
54 8 0.005896321470342235359090181134650662950746910506598792036092173494724460288968665673462029750431335641919652577727079043784197193752290647347571447647667592649915809067292991854451891942503204620172260503679545821624784806363974719074770571876015204901023927665549358334104951945820160813709
54 9 -0.011634311887340113249375385963997905752018158520038522577055286586231044981933617269236184571552984556469011110756329613610426897100261562551989035467585495359172204713066766817316355467825399842877711900197661599918316425622086005751406113236714229908136626228770971597374884809597456649519
54 10 -0.01893284037387395648616504717131287821801795649016045677994230922961108977699881678661624637034915329627848922093955993863483772125314588526148682610647886482732219569441367361863855578708084875688161565628455375098024282785595233079266599273252540673661224977575469652869781540290752716915
55 1 0.013500059558125383759491155025062302689820949705839022288748133183724655682942654976408775813139610017445302294001856950211412042680671370722349587218530473866219255394679297082917930254336935271864287112728263225505440531329446310368465149929793607025917166762253592639414876673652979021044
55 2 0.022970279486381046502181065157939432541629572418198556649114707836990702173497839206560219447582799176865774626526928882309547253316206779326371370058317372605387098530947277343464783313719550476836997245727228905442860894415511543183199102947872568431820450532922470578677372237325145068572
55 3 0.048463461793455221415794272199447904258398688429878554084772215938999329809619041504011774143129807726876808190909549792765675884514038380762421680603132136012862393837193339518817493046952406691160714989272747662883020947253393294460820392722261748005048212134419924024808455231276278528982
55 4 -0.0038074615235134150000808023127374965360813630354427598795022605627845498295713523189789283021262256627473024716096908890362244067161551723022847379671823343363478749727195029227221218902371566568421604592672790432662664017550841045981761226067229425765539878112464903437594161838153731377608
55 5 0.018453196754438624788012951970006604336261207622392645819976417610548534528971771110326352068275781854360599338976646451501492560516848904641126205106138810074399683624121047726041193549565787842542310422602807345483057722723870491660057809898078765294673020409549845221019625331047296507798
55 6 -0.020447497172095217377834494235188975567883427558601453743595099004139489986093083056833047507506862343473991828476731172210082193429880344382958549543076167120552564594784105659940351804805764024092431387708857092635109043121851984677214187577232831840612774956530815094171683524070594856553
55 7 0.034155283755829563590725920167783550016543938547402493780434374975263897046588946798533654938419414367171792901147091324733282871054482387295551305061992221540633065514745803287516237810272169748542025779512504871646418317346300786007913279089464858410751200124023129098833071331426445283635
55 8 0.013083655418100554201854411368989721302542745309601500185778438828877568083401123539270276696251997370025975349469958085156319195927832010022328596896371791970557997650188917284412053048194797893802771782594086810612607499423710358911971620699889347352242832470073147426442188032256444510985
55 9 -0.11461777568013381212209645567023110175638335920132805906195951094767700236126278969407902212647247460866230851909592119321816906630130174164740312551017345138056813098957224388596752195060527393102172701541248125252238584647665662364610945056800672492726176260646778684179668077012696285114
55 10 -0.085476355128084512763376034045385443358619295020802159146297054674618904783211127822752995527952116590648703102928004454786602757784382984721858374891482261420806718193402957724426951567595855461093045455601727427365903897429771552798132692536975921044030914517625041635305109920020936090816
56 1 0.014087326852524483612775687621426931764247996042452693259051356272247548018723395745966340959482064734374357626046750992775381723656493596723025671712331749825322906580444596188602778703912630357365657082344210434379880786059818056900699310480922834085367433193463254915713022843137314309176
56 2 0.024053739649099109532635390370479304925330534775128251935286818123168054724368164512280721776637846823381766871512576472848160818257818986858327946559194934028710168050691664111583285330371999472116999592653085945499439907197424256497956171850266393876701615513515817492156899732088332303645
56 3 0.0405355103447783604812462448839428181203643019894791096575705415220815775969019728033348958095624839933118124949902646558251362509248904835133738094517143217101822168856365252964685420063353412533922288312232792153027299707074807910728692864221079990565731347699420363719264768941953623068
56 4 -0.012254038726913848576030389333539297672820101685564064292710536631186001451526357860928860101901734560712407291921653671705786469261028219897644210854782649979582578991563600653656881418422682962513414748213767003533884624013295312472950021030365526879298261723913128122694924643114857687286
56 5 0.01886781945340749760855323863243498501458109411978789018440880708274218127108473072529362191490640380276288578348328100018060818241104934869368159119818848955218425076651833057011262175452118863193338613265333421103051950516966995637513440204040205793204464797648034114982598244501929436601
56 6 -0.011394283206440439040268249587332042961082754477987240056093247841913766817430244688376344646489387797068334042018069454365003487589907985709959989180187398052882356507912022081992362073472679844210297242985723279479324970445462578797399761590368003865137385298997178425389289467938544433263
56 7 0.022039519989426890068660146669966271233444039985870133984782407651011681697654338625502219137884685388226487649531563266110155085670437181141608405019900430731493299460380428346607371143086000422263382319743909252578203962217863945035652243130385586565599383813278122093548530612742283209527
56 8 0.004967969868325442267579626208778020785737734537652251304094240670116753717873697076859856062359430115744111745549641474699998991851131405943638000256095653312182232222639570157676218126913325013220636927460948157263470529092738473020559388170800927278215322921503985505708272936041141899737
56 9 -0.079628971913176593662682227815594368046845719281154188300541964831294788717603397003183101374503589946096540310734860596997397570562324707004421138922931976691817777356324608746954942222061798219759075837229769040538521058968202455610668745006757488472232797487843198147160475555489651394601
56 10 -0.050538830538948623333574739655374479141647893250728626718994141277486754305726603758549749724079954620567286776380512872423138940221781070331085753942384520862324914907379868745382712548779861669805373637246972182399578162689612022072319497491666043900387786056449827937529165098853806417633
57 1 0.017852924532263675903887691292419755574713955643049119355745338572803073027051799385278038514265468295745065654145083594712050201877822961043234117163005859672064843093309563041870916657671500634385947347589925728833480060548670913801585400769476803486484919048527456922802651340359048826922
57 2 0.02635413417886689157471493314597946132325815733735854492399247110511070618220271021722399648215212642869531252922453474609746394233704783726681501158069991399512804488962536655724467996150423503177242866632658593142941833368149585940870737382301148488217650730705466624539776818955115815429
57 3 0.048958241699008538366266615536933367974710943617331252297695092970643574705038935384244356486720536235562036512647823554773846107486255088328006585187112321488555268437009963899398891906648791345225006052338062456650836904844661030008101591508855171838694962672460947219082877150145180480598
57 4 -0.012982945074956934281630817317364040981808557812661145232021157748286491705192145403924939945050478337107291283313349041937532764373348021080774494639161709477459053022873276940667897545923522445393479904465524467298495235235317031161226270728481388294760269745367918479220765571719054499743
57 5 0.022057521858904187398566916889437238018475472144517593009616074991714548915769660308503405164271129108999506730508437928056520994524721454622491855701999111016500848816174432872619463066380990979772422133118815200812480072427985182912769516055614528255472255201827176279347159366046217795469
57 6 -0.015253412452701855715262841237931645529635360365744597645129821702123469247920346488366685222961921500998877366696221286065939895221587417060314273075449747621566055668730177343971304293378646530649344535612110014533780354092706565896782112096348530187000561315287412257350793059011418777594
57 7 0.028486250198457833403756266687620531302354103597236330179889487683878637391716320508725445799017284538587615847594683669855248596551749071896643112143998004911518772605179265210050705934542188361572363405690815313222995643563605819974871790553207285528312370805819972851539456464667596984715
57 8 0.0069718396980817457495200113649221916515830312483718840733972607168168903123632662886119540557477655345545551083477264788654925073948689092635323382853671461162124393216013817898404586906050008964503301304802811509938995669280523970427345422243145066068204525406622629707251249285274740879363
57 9 -0.099228462750323150061483643881193824661432073329749045613513718749790285697820552150011192434865408032777618653716476531187835911637268920329693941529340519483010976740802732029911117653600494783954323899572199603405917833487121586218848972218210595363238886319629845897392512000424079759582
57 10 -0.064986400273905072746668988708814774907911253158074294104977486541123668593443194263587560342160066018785733525850113448916112206432787044188443443099201796906520806738351877998760301826821193149026758450799455845160834786855913362354461768306309748152683107272446849732974867691269078074698
58 1 0.0052808119379777846669862934834661119604659745539749913050374809650487193315273031072024219667872326627043103044767364363691311550961200097148505579808685626714368514004942927641437008620321284875372276555049294447945549016092387539203665987267561583794873865722741944573451161445527353784171
58 2 0.0090244475633691795006692666533468411826117216651866077913700608668196903694797832486667316583906766359320313482337219302923097631945656358675168781015995955340901187499606528082174392905065553289282840165340495873717302439394781246920017267503128280190519373404890302928663672905345043948233
58 3 0.028173069541215944406142270405613875023013646489215797106087866602366455649790035604133585670129366095129975006445979460695367518037712992455246795754879502983636910564929223377964539255860185919752848555187800550071988702778372215056700113468331783065903117225729614950718007178957549260822
58 4 0.0058214860771940846721321707121069152764989880474256512743833678650389653970706982337878968996901763722580090302630849165962806755235077393497254896229764964538224488921338943946594032896743190551157994216894841298126166901586525673188720822762991794830326401970752055057323780720629996183003
58 5 0.0077008306174773642079422760552817783372244460284086501632323075426367285891745731395984943537754510629093949380247080084940198740458876073505233747057563544245630794318562325248392164887304182793175148272847705200515639411253609794556811198087331039337343929505276147581590047379592419462875
58 6 -0.01651949373484456594668404580012606330565653401995526793844314135928984436661650192416269493252938129168637637480395054044671585563302551446059145789133602303992071857926213522568429679288507155704095535170498348163017518899595094195681237352140248754850263694258519820151858044128236625478
58 7 0.025303583998280390690156982213885225550750842476565026145601138022841294219125028314266294763796218844140373204499901774951769890193941782421672813993876610451785108157960319880149993641845820275046339894727620511975446987330555747429947806203367239948774412135025131510034633018859420262842
58 8 0.012781845622296777054213738851980544891380246726257918678874433198818893445548770459887803542447581817491960102359394501978924148275955259033406702707271984699101872870379406355984560591650856581832859304852359756392421725017090208756626309009669311597602322568516919326477400656968584363266
58 9 -0.080784747382850120428291072185963998973854180972492781020555587379257048793893818658958501509874185096058135773171201260368801684983537102000198127771263609399637009800496001209656317867205666394841996558932921923661837908364814356995617573509576100978490134254098839580869489039280028115493
58 10 -0.067785594420942038718773854706616251252633050068150858078868857239868877434639492442662286697436246645082069553467372494809510357633119154885709811572449720111217191107675533602115906355258731386858495276121392390324590017179115926594051058201409216951421199588360020164589906586911939919372
59 1 -4.0750169100864409530412111808192643979582465882433714637240575799216782007350635710022915641893592961149829645113885868139167116254054853424773174983209797236731551188307300771141865262072999798431030233977340394469473968535238881903787268043026789765560052970281012076838564703053327888874e-05
59 2 -0.0023616279630292889711001750457031899240503458825154537719599449118205322145813116477530142752598707882426849791363089737008488673157774189074144108738569256449051633375979037829482655519322115856628439855605392507112369630860280333830660279077677521395740636748710488402361300306442736322126
59 3 -0.0016083029840039283657371469023735406267373903800639302071463760653589102349666836270832537302339554624352776074369738649751155500915716991957457449373364498854558864185508165501005676212226446140054881925164119879937370193538819206837004803725534432458422557988496592285086607378483498954947
59 4 0.001232966600177858590052363959697719197175180406358958790304958506159359430081202886211435023576714928023015830544353816969126571100498050922685845361688700583022296978382350226314498128846155231339739786526502569875543715076909597795395529771359321291486287622820771060096424180094314096724
59 5 -0.0010439564194895289543388154206939123087307233853186086369879088923817268979354417486658905880800685639850133008501095215864318009380196961118225482673575227853064114374831709066972954718311189539192982067782151679434461180176991732208364194829291508989449949242247368933085913396584016257704
59 6 2.3095395823715349520626454435460935045767868655326885517450317507081888383813041605643253066603125136182245052404667391694338586945547856958877883209505959798226451556629435893682575298736882968688882949062592174984866825000454909379284650090474435310671550785847758061488702937707767198707e-05
59 7 -0.00020835741397483949326871260241449330864835254878877418307639546091383394596697765060879247674249585336208110456367735008914589043054937414732590084237722644064863498930051592620681340677999297895488904252701444525600635497527156035377251077835891397632823660126663844442107065818289364225393
59 8 9.6990922737342816867849193230249930200256539484700451842906204538431591750788958804809460282555722772461665549308504802762862762526827916746428343195115843583002599703562159489055930972567592889626120028721684180467538827059962858879086312688816079835681882547477673031254083644303118416505e-05
59 9 0.0020726221166787459465598701116194875930827590486034419124983022194828499119640552252623410683338044888520774409267801115508406590587078783693659917748025530516062296835667366181217382339125511216997748992651632107546791286146081210942343787946462571198217386780057930645793767569817028413924
59 10 0.00069490147717025064260949396937543627420074831931061054795446738617762816138216571109036420497192592080934961376578211548868234630523328737588118813351368023606511618652971672738541409705203274647920877403553314456768010193515282985550703910603962804765393418118351075551016321554939785089049
60 1 -0.01837679918839297220875785009140408599461970046639833121578072682068532983756003388962981108161341631728634270566360598725112048508755468013020481691597340530679790560918191765759651558721573251184122831975857371715433758591102116450021531574749693806936910993206438672935350604664651485065
60 2 -0.020132808594516008860374061853451622638090132273616938016560117996183565605372504703726629129937748190279820663025403009974814944490255089332521478072215316296141152716145118917279234236546259088281057997747127919006790901395562342459539920367513586945302962379462783506776357530712658110495
60 3 -0.057582969115793307046518977818445775995180803203672054388196407572925985494633915533846833052453069428886490449543316531788078790034386903847307413064190451280182694297502093567760887780368580845459151274862552506693360610660326696278656602513560935025135918943910014235675760561473023437532
60 4 -0.00064896833880686578893239005274566386541994060125723180845399471791580191226406867973532021939074866422487726020360690624456551125521629175820576975611276466114175855914017907186458076715957464119500646891492032285349886040412931063215378263865620771013864033686795306475696365493777701485565
60 5 -0.019537655905512075348170807904619505032806666420155393456880188760888174617396518367650871438668208098870419076728819172100213787969645620283417133065964378198414224771213119066339970659851970014760994002490980591344742587440294240918239553535546457771174606645189659443790874167977270231647
60 6 0.029846526607407829475074043084917197850996820183749567676680279463949325430490105065957435982121744311427196064361808270930938157087618351646074121451931168396621213931005312321015709121103100354173524331172325264163386373946065699449163574629657978514113097497880862294217652594030087069586
60 7 -0.046560771450758312626820564869814836248936374995058689745481757844598160061434452782863907200862150974491689304006510554262887915095505430147404067217576896556423364988445524512940706221929228545187215561373080396454803932021946202799103854223849576446789469490241451535975941730293206883369
60 8 -0.018608820838194010570746853207668682041870312634990546640749065916814081019772901309689697450944115215176059332466893450816694059394326067151637044367165818097035269581801533218658577421193453540161434197245475135087992713038465278466237605972032901811648581571807125671301844836390319238638
60 9 0.1456788485502815030462997989864277189159646173930597172387547423335481058358481652535814513261966674898437524825287268833150040384695347424621000639139422871169672447301767152567719106242232134604654163113501065673106498102920782804177599496259864528780320523572458940639510941129097320922
60 10 0.1142654900256408652960882472262021636105738956149130336064941338006895556644873609612706085992582783539362587202876019039771309148009642074657304420221042092987763208120227927631508526611119756360144698568138443838793459644593267140410728317349643101370326475128396804535734784209337390072
61 1 0.0044968228610226048627704497419181779539273061761584840981451015626661936031793623623632676161914605074324632360598947572008900087423741648383444014666623216143534544906226119659067615057036441467780439881065595194821585421794268847405347963333474092996119519344438533521478501449523160494298
61 2 0.0098339235124937305262994588188511288551394249130641932197096884528223905698355654417924596207024732806836132530587944248283502144953133768366306431871629595639601862728505550395659545904338436164880048778115904498314028273123970743229675013523874737647669526873687727885168595339241741404636
61 3 0.025040683553522060581087010436826940675083028409968196817896588279731310984055966377570390062798927392997507792721954235386486388133949321415096176430658369837460915004750212453123810619863544021158973899485774486410954116184609588147887360372969319365830507406577186054148000955729417711629
61 4 0.0039068849794896761164804637291429389516323385170708812660092340268355001675782993838631246164204963972459095186878232497342719577884669493601671310974094584849492748450059639629337886167781412879286433166986780429002406113904571637960573005314474990991269559225175055793248689712989974922036
61 5 0.0073805649883703554229847009741629189077110746914673554565173098568339989461403723540731091800668676009725005197506752814213460623527204975530938390450907204598081479687501972764358245691472852105584499780558540060597250640221334539144321807686333342750465839640882202941292742678942255829038
61 6 -0.014884527270494461744209604215878999307100146076020440126582981262286346055857998210700772605062874266232921199695500571887729344029119833870393260961741392999927484828856327160920157159520901831543330240492770293791729771631169074388552133738550399205241200596717964660511136615999715142602
61 7 0.022285201146352701152653251834782564747851380861180753673527531603061761630844395495958371683811015934994888378355135955764875667422259702652092162255252136991138129217707585798225662049593753345288402718808934976829737471850661837218046448682438810322255057243855715908070730416305758208424
61 8 0.011040397178505356620045742390466162264314946409252842758515716403630217673677298753598805889813429115330756325895808863088179245233971029207028391137962621419224633510301847122375603498285140110338474725936241555407075725755512098528448346625965722941787242171429866174909495033803339219495
61 9 -0.070267651867233366006439170654486759705904970112949623832566339155930720700797075406661080326381788511085562927275189364404391713571867421245180284855947929891359315753050686409170547450846726018703895650666291145688562156560512018313449554025901670368686695788835384983971409414526779670536
61 10 -0.058812165528566651012049526440191538078393385262653533854147407031300797701590237123157518627036743909037054728760213780656472445946166827414849354079955799239475326808453456502772300909116389837302615119991049766615270066688802894324237369261603519947790007112796111169371053872816596444623
62 1 -0.011162354903780931519225649296237618976169779597343996962072128425913426167582884286517948432744844574210823031135731965454759653821086828594052270929883285671879550822546522279037706108248846049237193753168591832614417798910234745727887380080167054952825207272492083894255771186897247291309
62 2 -0.0055807578532500150146577213371771890486071486987922423657690547286947726154119883685809556669412644885486766435247357780955430479539951701032843591429740766022722072442187966049033027792625270020144570260809493847055411007547336619453071229277010716852556801914288865910787476829210998674608
62 3 -0.030444036560704428889528660081934799576699762393960972717886810339522329744685410435903268302716093023479807082706973327046557912186140842120059285462870041572034121007993724585761857210571916463222182397742797260398239045456326367580734526115844212762336989136038127263796767799126240649745
62 4 -0.0041635198133424426646557288756687621418439946523708352976006574913271195440842833479046108402603379587320018661091748287736252087997882148068921640304744359547553430520871333407936452656016343944188728692014467820413890757637495134292170154071526042819241752144202216568023892280600265262393
62 5 -0.0086444385106108556449480386222759390659807209250816646606599707078551446227829702205108675176686541315485001864641193570039270046587577278382938707630081881253870244415155535698973926455948091766579636441385628314553548168139961822538066374825808888001447836598487431338099585398226241388247
62 6 0.019522539186593801883975269235654272996953776844764884164783201583873061273023323721092486949745711871721489888018002567562456037902223241968020896310390902936101762541807324440471045984034708016088639662744283469308958647824417424122571518094641500777671879798077085001062921920151834939403
62 7 -0.028777749897103536748838445308383487395767300221182259749972505727443755115454176389883600869413141020053909869634579356100672827231583415799083010256984626631054604900370685459151851056199192851085337476523202473996457459406204419022332434180567957437909493891628018254476411647322351737857
62 8 -0.012084268489026462854068297247347592770925983018472004607547210783250859656865553479105047126959438576166732433250547981179396786911151767977703875547236358504517093699963600036347907956886861283773169881822175648881261427367678539753492100029562333114315855853847864849013662160573510496103
62 9 0.083867437287381860056795655517550358581691379265327079299950263717361476757927812229119856295474570402454234223670075275958741691323668249365409790458805921784326601918038000989286952725427852660934121170102124244480439950007322936547613418503456179511023461639521042391224543720642821749232
62 10 0.06950881499730493655250088416748095969822377540188743545264870623148004340572910340240579970553206523960651849180838076187466320058172566040901877205712876918210746351148596344259889371348958319134373251705917673461591457786437200983992392719324341462794554088373328924481314685791561183999
63 1 -0.0035768597019410864341394065972199146169429334290604720407022071546655036339156475646451773602481849981804965911281391528562162325284634659734884062851579829336625532438072757180433119152019604053997835164619513953511712233229916330469158241851689246002402138994851474875019809798282926822923
63 2 -0.0048133517603708910263030971523478121188414358864925884865052107953356502783415593684907117176963069759738490045004482721094078273979223084249161299626342804155795848703406538019366787813590695344120167573464723558574525939470991767334118497689314949692914907057293454781001391317700205448841
63 3 -0.015430239171216640200100458177426430326371482635831287293367637201540105762491250314564121303717406882276083736116198638079683399044433358759053788404694160677286281325238583760927848336395286597607694424889042688053671895669425718712166750285310094882354843003332411782015641881727984496663
63 4 -0.0024653379579917927877260599609980982918886777121465346915954281759895305409560544249848445254176717757234615643282898918132239293631395662657773795795873581588161551791844685526707353624824278472962901374635030192634772820565235741365042048469897756805023372362088445672019268591220225461247
63 5 -0.0044292378051578772396781909866762218249774814334566403883617525711040954371636183892679058130151140287985037665170756109174760552479786048750772603002044026734697239049002253972275498439816271877943382550723768077619729425979698612327245649325188438301253958014035878679315799550538277988595
63 6 0.0088999032873719611714820985345935836661965013995044345021998949105783713105950694052429794292376205955687404224098470666799903412497302583183553720864810936635196906057711378636892253513975175217895318428657153059782595690448440239556541839397273102787670656099639210723278464862157163667435
63 7 -0.013617423925695272804304452483495096625414014865662235421186000608341149042120685695953707390234034046960997291253270622107320311718025934091412389516889911237297329665384091311410136279886547881211519671407186731672338799120888564988843346959674442727847252842459627512022452139585288516013
63 8 -0.0064872689163185597914519315898625584734276366849774092875631780786531024597726052734149443265395515950519481071026479263183017043907379612275029052105191978606585678552903913430122035186909256511437793759253570762233037045480530801134043547064952583606155490186986606975586211905122068847387
63 9 0.042978491774635211448522095720702530310646652310204529852453436258056801112269516046210020394319311438143028012903674623869758269650060549444663701748183816782772690378246645132349143542396071667825307336605626505888736674643053344571520039833240266244962241689695733213219783522482314203397
63 10 0.035566943063230517444722771886779987923588379322892934936634565413354378064271518272089203753074002021816748534435995451944716503259591972671474054186800899299139683618637643031727640593352157865805453370196357033036904793209683945466646527599856345446313518358687142542696824207604660016757
64 1 -0.013613257933709093366206048285061458146859879850917836454172342873498994590243036365721635839312725819961022313937303111295218417065561148817733403306501393205935810948695374458731675784397229187306431741281576748180475950475523438591205832545864447160074617879851124443664990179611769362477
64 2 -0.023351006774076172644191202200230065626462747802042176431764537402687482636993570266449736682323590402222356144538048010747481437889841767570414859172248320186960965634175325574183895386676958441917653450995512639636832495713821117109160405251918916617969742964520678137956597812986860131022
64 3 -0.042058171347814277617840415460397224611072305130532421908619391529676121073362079935096748706726262053751927293327969198538106482536595786677867752763373130904898499988416422786566600716540695703206240508629358645797298664437004362048767595630005875194138185129479498833245992571404623875918
64 4 0.0094059858174596414357411986312469807544441731794462227849393189880231620913380354415546321761342088049174529803874595138968201391516955960723574284473093493697825790748498771839973577422322732373277341560936429334853347487721195747307850383069690628049110112199933960508888317281029258047162
64 5 -0.018325639001863406712797147859953020944557122876579334669533191021538272003049436001634221387090958844281713457384883115950020255132455424624938040050925796025484988284095215564265799830575603775145425837180350750993110206242024550334962135615228740665307452357612458178630948416683764328264
64 6 0.014363671376664119393605004611852703137243480419174430496603133581224246098385603990805981682796812869418427608207853023452362119323209305375852355923321927731900848073492132081100436993301909453732996214347955547870827090443284969188149989228646925309053283450634459793971811009353018308451
64 7 -0.025617496913264621955584906257602826059414258937306493840968158719230915137131346453439904911255115621039356735230347191292230010930850580544380812298442231780204099318366027030804292729893903700441794248077162090238870058231906658236161936933613564722981991083829526706600567112074169350757
64 8 -0.0074955013039059386453111466252506527612983923972176012421339725480497247227831102299591006971371668402565313625944151541991605096543737537264187053505629456105419492543636517913757790386701170680329562311472209844244383713437238565354056917699817281856723370027599296978595052787548350258987
64 9 0.088836103720814155244326701453527480935912043209565364006833749857304627591591451500751688188393330911322423903967384984688140476402772895725481949528899917282834939750696359179419281894204586210671049700414616681166743037549806772613763556131234529288321346215903506184259685392888281742887
64 10 0.060650604323897396154300078946064495614383685217168726789249801116176897333589820983780152959442573715820870698850629496947519614585200764043351025895008501233932373535837761211454750729239221177265605890292452229607103745798052465101035223289610613701755495766412436278026406149123243302827
65 1 0.0051529624829384519161378135359678893045557522181624177995624738457197201107561117157040328417990580338645363196861391243498264354537723562496715199729584984707886170529624703293498446590537956475773053608976722148716284367532141057867527597243032059476637522480385257974589208898440540509037
65 2 0.0068501714108766456079106689993990053145090653540082575767382115505894569463904528633048519200850033560666789621196165960040869014060922511976208847093367901743544155492025163055223383583874472501701028540439896856698171446330477833680548286415711934716615395804869910757712823973589472833039
65 3 0.021101633985882932646999028017718360686185905609885494545170277003448817202581357554967797868882323380546440563874364144865564822987460156006857095540244396588157848618040052861345278560401228059876353267805676573034716796896586760770930315913397632943981399757661812690348390513735902379435
65 4 0.0028633251372567060616506076093625794971561008048459146502004314961378560453878902805756625701699283387760747599342475593889612214157742565017804685651167811041789328298509266064854342911031584922637273569437416667184340464227617489156925549439000616204582263454173207631432452773799249154454
65 5 0.0062601446108638254837489993310239259725435228009970699558406920190391550359811601867813698577716171257943699274602707157456438302797321813256134003898490225920395603353994425625425452333329682556950688316724168145165587090018863462520893449313234124448167191609189922723680626656611523717883
65 6 -0.012200120287727990335935089750381410722143708097596282311611200892366308089447601312989324134700384256152140493805282872805143119386185778382163777952325756555987047600240469896169679613558305343787431598105836048631641399353853125446781679272205395526130576794217771974659838596199789647067
65 7 0.018572946486816167011475287097738756675064827665041329310099096250912691326385871412417845373952040318259670421363119947972016451534952281819753753520444547949291896680199391061473400921139190900769693860699301559342718134332734653212853667586154016049849265055699152393900613910719441399603
65 8 0.0086452614526349562771040035002393296286939642069620542203019122387860659532033293342870172452273885440025487341013644220450907004433562065758387571958465391485279291105616250995157028098348805303528377077933146442814107174985218032382945905147222161707586104732226152958463172796066330228012
65 9 -0.058058874907764278233701844828735098253669652566391887054245845270845442567260874823099434138448936866626159668541186967809808415164682184658161059494406861722504903486907973790576969136415081612784175213423626516365692067551618061796543203784776428939630332862065381457714363585664424894334
65 10 -0.047861180862242253858874265444531328967779264901535283177616169539408341983213536875065922428075849064056673504120855529812667351605097233949827472994584056491017358529637886451318278093582187319973488068754715632984805798130099966251096196834055642521698800987006405678678271582107263193685
66 1 0.0058832973278905741221157619080658572874540448488522700907137993354610345723691939040104919788343662830278253374375514471355697353102575233574426137984460214220950691728296565982529854474824108012294785935895183874307350618313347687791048992497549988986861605780970254897320461882418297074562
66 2 0.011731647674232807950515092047608582578009853976325944951444622221661465146385111306184388162848261630089009236824632139775118604559525744999889261680883609048690388072970105176570693522515045573241084852889164399028261875241372381564728392237306019504928535837836731564183724948205833766053
66 3 0.019011338497185642853115423443640264029902460594786409490656797026387085141748274100911598073496621174975580621895820345095760017312814095975594857438731373463196692199736305165765970942677973018024973662935946802311915079393722171373816782178176341818279714464434375875724121678637650516938
66 4 -0.0051372776511641946037150539238473921543509191108821438755049254273444108822733541510581193563046562215087625010762289022839489515161219354150637742145502756813403018066778983044875592379413049754727623564874092440485984103979112860220712278002452811403096070816179765791508480086440392515814
66 5 0.0086751154159096258746976869566633004573127691149416903178642765956404499984227526250404396184511260893322870648964317767327107988331487277233148258005838945605433948148303147042414466640887053963480185024339258861392254216745465500859006268521256067183667957672795549210282482063636872398752
66 6 -0.0058606195378813613938863627813099140176049114889720761925979785743568130872989805472206102087141304480152622189961501003640621992887167160390386465310214748112874081014893393059575560284736104030725955915482730886116138983415632230364809954584966337010598509178321748078452052265204915700922
66 7 0.010819663883348827318489647910213447487508902639935736043358095786116490353874918650881760755756990460018293227429385032237593593721354348556312024639356115392118754020191206418716162228000129321386553682586749146747239057753120445940308892367998879572903590966605605934107133195253255849492
66 8 0.0029381258739319990186626634532340076332682869189491392253407086315500269271194760324110623688429659622696032045707113789495822860226598449231531633927211201436397474154709167498358301450246083869191813359046320336374396642439270648181024908578234980082964559334399885584572976265685684347787
66 9 -0.038697298449012671177994969626943181324516904131006534045377436579856926102314328515934091552112867578191627041029078550954921186536353928435859040441882235439661173661897367848324460558474223543576428341062117079017511806493672048783877844372057568504640454268752081321839771169897400532828
66 10 -0.025570446456556506983675098615470807188776317087403760259273165805391287396396558341876546511835883305451414885807279494283008478298421472900412690737968550408661727685959806338488653691303551546290806017014230311142013802881438061740144902774599832218067711649814615255208911564454514892782
67 1 0.0051739219312720229948119774129572736585345198674660269320940101420016968978114813804684967921631764827921946433376372805662054722621494077400637786219626143229659649868159525167299326651472127813300751320924942526791888772312813954061439225533128083333182133926912971170970119605321300910749
67 2 0.0078985996967186676160678520189837236081175081883562340614415269667278751080151220129021348513340947297653373758267052023782114305345867982484578915742315776864733810642382922785981944998661105538812002569301504566024068630769890526237219019416702933973132949005849622585251147259380182227259
67 3 0.026974433812621970659478234929196468633872965398967565768594291600510888775799094220575983525260562746386450203430728169621460927017620556961092449159939878445849498543200946512006289346211860044008988938737105811281897269626405481368332089999472413082144355844270237819924033978721781762335
67 4 0.0062771036013279116888180099807186794224325182028923093893006513971364244519944345083732924112188298238921972469479218954400799700285890313835134965058232743120754882151627557105731839149193048342840589072107216089959073794651561906033581658892391727781526667666865525865469279837932398067225
67 5 0.0070154469294032073575944912608531131605904500300958178495327924548638356711680643070068473276988120770488720445682928013998234980738320614964266994654422605450661370661093288548067498832787559562614879687929510916689884675772756040491055160296843644730485125554117238203333427824843450698505
67 6 -0.016376317874182773066013938590126237991131994679579721780887160875694494463601152833810767540625805850391901511049270465096063900264354418740241357544699812630026379313001164267555256595245887510691842323148154368657840912943724298998654264879444580239674023942542545691092592369723725983589
67 7 0.02479633449783510334038271200483071045037953894590044208979628376202052625175733706623529500921435916861054406818134945891701621466026146589465556132728198238997604944798428616745024084184977768079207573665677508683098450489839610988993433757484954309486134455810307407608234350318574403521
67 8 0.012615655399815044591364983860102275241640728497859832924438962463386720632519101075192084434006775970315435208160503104088507546616713361697153110922160173139929446031682637410798946003883558471778671494660352254521332065216716282629854632917737415950709017826253276180823346367183747639447
67 9 -0.078648082048646980256873419119335589420247259488806434979188709655566042306737055689736002724331742790723845403296477761719718976739614283899195518444897576972189603831479900642113795470822621496496749225131112873300565126965999286285951597698433545648603302130755340176310672109643388864213
67 10 -0.066513812229879238731115121241987673729059174931947528751484260910918353528942892774485606397598341805307612595749827588842919855927699780077990728016341578649510960106492970834062160930002057760219288979065773435066800312998766124300575583651646216963638441802099481322309135051292028275522
68 1 -0.013338637163539476927421407012656841256104421931423879391521891063927160769918288344379189941065600711583812579705160277582888426185713133391150472049689306292776039510753221567766475294577502766742135036967068140471712627925859626988803619726935222694527038269324098992412871229628671169005
68 2 -0.025909699942040434838780025392867904732777764784247003130584092292555172651069206313927329024768291349859842641133486813783640438220095952291235495155556278975723254616167035040971248183013634962916097029746832686136068091777420536043628403918635187295211957379791456319137099339114582219891
68 3 -0.034153738679130195305477507676247240606676051651088652272457783961422507489101558068786079302317303276788968555930467222072476936506038624143844858201234860845178006585220897268662338164080636994723297115662867245347794686092716036969911926025712432047725175787224790111007312093611435438036
68 4 0.018687772678905357278539170796301499000993845684908386541570981243226487048187350369667462117811212545777966994742291978095986667133064701662447133291397332395112508486636919355032456373375327482422106588065741029014093000593136174458249426381790737826714135401493042651648677446105803211467
68 5 -0.01919489286512358623675002124801556656836936132818906368928867205441006409239136580711751106096330056909204074038998927765192875952261442302444768478593687683369882816148634659020087749716542366360305403746243650594374087617557574080348087882435229931459215988242808935392362853224224741908
68 6 0.0034698805646422712907390850279879586032346490750038119946790796291250151400092581619433663444044346647437341918157072266723515206705439131182729411863038589804417196742274554525612181275891637978172303463810883534897973296275591760442221900691188710071071441695853648916864942539577699258085
68 7 -0.011750107983957811297287739673713299558189454050283186857063811815526265624030476119418389296603654070840916869885166125954314043826119026642654183828657392952556026030443028094636104925711338565055167955840874338078863612818146222785115841505977340748911054891132467463825531095146970145186
68 8 0.0012982259749458717411221126237539542877696954024039214764962515072716966833679802116860680716892393514549638200827276731742103503241578777016404002741366246704669713756780338744121438182060788603327713192163770968214473163045839494724490121652527860906835644149232975085847778491809460050725
68 9 0.051950095023191187344895946815046350522269721766898571637917517151480375497793820969974956610340665387098535769247825115362208742833676485863123246897741385264064211859650470515944243234097769804629223920481474393777554890044564119114814639160185182194009792248987904678486413855344890935579
68 10 0.022802597333736229816393784124210236336183943027515087075184243705895455287680413857835450907304479811622416938575978480661271508198845539861070958106614726901839659651711352056806349199892266094375485633459038116358508462011412044759358807181930910155336035639262405431620500396100373453572
69 1 0.00086934962971886413036177678594485990181601913011936445049591882862008540344714580274102373265122512981797129515938695725168775299271377860481835004778820086075216271121059346721410543192803875605156521680961925036054788409390429489954211440864626956227264746810105813195473653386379567669436
69 2 0.0064312264186634465255962623762982885120135904140706471598660365476768132812895117454693297027922950423844351151120001111609146293879991951067468469281871016677255306695882993842914235178598182380583663135649074879032142899748240097229482629534651713623689707344368604531550680825916811062492
69 3 0.011913415766188038478832295800150103346886323196521058622316411145833975959901601948400835683144648290396634182056312508958956182519611058358567500863249870870619888895867249272360756365896699423205532031492536445167375172854469393949811644608107907568365800280625266518013633295351496500352
69 4 0.00094672047721844051621658280292154580740971242079349726461644826772061164182612656326426430218631672784499271664963807184904011199402271374737585888378675916687325525025736294227443828370388946329822963923199517597557350243478771559849223224743714233593964928931058311192357647329603107273578
69 5 0.0040294765469032815769383623375521538429176230334840703838652343627031710906184556272604289069778028436800488281446923550311620324237559677312173595725815723562734739778004513282145371948511097985418369490025930200115291265510537941537079840390373205071541855927204894092699721812450863839203
69 6 -0.004226285749209520557315703055638224433917226076828360401636601235997455295379935454652442608607943438441708498617769883075231587982127951251002352844777351851167257367836240892374064195257759368821173391125975030358473311553119623623682160277075388198382449130999464570474144055969436287462
69 7 0.0079788462173726869215511628528946099352521576894480437968912975498856722293714974926857023416344656729056618258265608038369600700171847344599311024552324430865510286974422558885060968777867871273507102941312002226647948549532350081826733727703361576574968188660184829531407657890161519700662
69 8 0.0043120341269901813113809775906791112811616046081735227616017887661803493304743096080285404018234986136202090405967411464267067875498601410019867202483013340431876471070856630327351914090820344281166965391912967700558502174730334502330074629494854281229930122140302719379357017815886242098823
69 9 -0.030952854068731504167896183439149369534659476677030926038753930269752676803686273903411146415616733100198607557104104059088027403180473289528465900968156390112620722995557600168965425447983547152095417398654062557819021787169166461600142937261675618019590293557267590781582580224507930170522
69 10 -0.02395302656146923649274515289298879377247745244466426218139383841435668615269296397247424156242440284072634982797935958913429265052001981782443134807436504185382317683500705184526291299437325053280748347582345364912055605756652591653841943572141703403388035956483760131917811890060394085582
70 1 -0.009093467151291573659431111871240473812755142981994207248476951066824519472575314931804637051358126668297136664879688989630483614773243868755013040673841467267749205104273453959093988899524383487723233609494761393918168212017241039768599930623787494142801839421840177440382218898034372409482
70 2 -0.013414227609966171410073156309001475508706816068733379032868865607474444542941356327781210198070327069737656585223203932294784925521656773579857293929059351583181932796125211317392980405767083735358226784258023020194987815737682215714915777059310029285115932168868373749842420953572835287514
70 3 -0.035045009124211034839578684903938035579964701526993879614567085265175618676225078557278770422569520159153785727265680441946415223542329160664966436108233464379008988909352468278190559725456836613177329819049632031650379927207589370949901998129104840516062116195188556246962550728447226063577
70 4 -0.0018085161907491894563229727508992822142850288084852851922492246460044527429795361837897988985373722364613829138139779404475675711105020319159864375493819037986631127797562612887710717403877798170445996015117413452485422089781175736798354818051701294576579868591312483276957607225726816460901
70 5 -0.011488813969111525936092531733457310015880242589463980540088352787527641654505258949866557948661483786158082053063080656153142844745973439296834549309418605865289045904203115444180232116712029210460156035747005837806283591136708190667154915003487707641903847023171251935526073987664819501882
70 6 0.018146178676728286828305430103111981633202609774867914644141341557495156002481179441580361766872585754666881558699493972043884942987703547109823544075651444693470520628203497236379885855173284388288477800211694746717920983651696346340907968424872443861647264934255049810762487541966377463415
70 7 -0.028399675927729099813437449886597972086722071861575943729983128663231381265854573584338181405097593870072913874281893553323989154032439639733382108127743570455667994291595306519342446411244934022513015239719333515880723345304101427665861596130113400262426877702319058748225857189890753665965
70 8 -0.012403905780374293287090258272613666314111728042110139231875695789308473749394068413144508623403940065165266265888145232300260543568869039717572894354367436440854920327059696180104502455533844811991652062175522292803978617967808630150136724054004896144981227281100064918782567819818156119955
70 9 0.091217018933825702819803249996062010289876456998407613421434282404675179018931498765501405845259777613229372141181517228786241092278653661484349743229346962014040193827457189762928204837835191801454929170861810773494402915334812911190954887513036353228172454933176732813682873471117147849915
70 10 0.072604896532114955943331208592174298500715579407622812738184677397676931929015473403154503318019299892335258610314413290721149163727224990534085885327872141392427844549056872689111495851632564063618110636864794455556507034480587037658230159559845454052848444240425621168829445539722258872394
71 1 0.00063134800920867920107019498767440538030969262103647669282579986511452364760959190090573159816496050312604067413907886722543833714361600967139121536087513897656526741222996522510542847743573751321203435993165167717555914040924911492388935888781648466173748984127351908878510491865776718396094
71 2 -0.0017905029640996664111947887192599449804807837124682363728489886267373412293778329279036880611034970529841385512170525753556281422007052368222720691412724080577054827451785254252761379633529634385124628984772163889600472210202572485247645660787293235235267306885280849215824822094503107658727
71 3 -0.0021418653486033891816951109928996637209692325483942355358002084731502720183057696001803624445420213523014953832643088950470589154200195016831620766272080371351127401427787653837837891900518353754596090925305703321358176644180370085838203921470843285671158776006978742228578614072280877955325
71 4 -0.0004522459861117874599366984723715408004864882335300058643677530061717328287996894898867151948151213932488648635729329094066648721623580139411697058326067764728337734498557429093576430392336135072865449920194572956942638792469722244761015582135914692321166847888208849811377031293605639089547
71 5 -0.00065184812879703632789114171316127115138787878572147581191310261638677084136103978761588979924597415559349209347373188023266502355585766490081588339039601167083452675765764330346799784362755718970711204601623708297539421611900160216729305715303620716602785157224439583176544359340409783771284
71 6 0.00053165884684528388487844502594044437138690590115639396060634629720544193550122284983402568147424891617948918382837162232745994504383269506506189192435476514476295794393712201844436070641403531092016774259023204446000511021784988150741190879308885977811859378685520826431247655269945814466152
71 7 -0.0011927008873929180364238655383380301141584295015610536809200391707077868352532876263542602080042856273892947702431996024722298110900264483172107726543131128800265164621859225218871389204577414881880826551672570943235000532863376175312342134982314225676012814365153957725454810749194224244107
71 8 -0.0010027136953879320608089273204577671122388413457997049399715424144596274016142117828346205144668245948055280410644196866671191501920349519141797913445263991451907998595927149304384794901754057150990705355848243438023211968410525920882563005810066609503701419269396070168375087724131738629308
71 9 0.006041907153138541081479324045804088162743447526266657657690899485819322083119093969558215036480291522408261275976714590511065625472625665998465642974118039655890730807788695803894823858725045913687219653102274861947760052390194308987495459755461299431303837743830735726456538915529318188089
71 10 0.004818373754927514869602278859424680165824930856387267264982616258868960180982723004048854854705038035737252132833882376042090808555744483474689104785174774927870479526530159260635045566876282555565323223968001726522287404894503562807882973584307511973580488215959312742481662775842788977354
72 1 0.0023268043107640928889458171288837063602900805923085147443258606892316189646355870896241963789868351718480442697188669348632322809820878249408987013823827323437369397324931767881196305937043429939934963432134999163076307222549824492045368844578645872621899344123285153753211429198812808072776
72 2 -0.0011702747388454672243113744105572664201573120700249786039457639639454438958384101686083094534946720200479025695481076713597921946622895839478264836152653919550255597094339644728839460338751642775231426568516387760588828175736820497643085386967693138551255861529536446462883211733231786044138
72 3 0.006194751932143162597404339981343944778417813654688704460416966744461332121579004286445438046261498346863698778658330339805961158934725509074588563328367203597979175914053704642015339652675519889991362956767063434445115931155397806622829764491087478390281762107795551677908702067889035525228
72 4 0.0033396208722194665404893507636083670550705310710578319820527973485602201265141665173495780839336744151818115365742488897198826072078695493529818312698406054730937294613113757576942598966991003514198937608179497429848033451409848672673214254461215237358615634677118910106056473111611934539757
72 5 0.00076497622931711321476252592918691531538482388325128401612936127005541887727346543457011638745250724896499499308847722140527915510483475851747905550328813955615990771509848893734520433011087835163158295873885027662795621324702806365875044536337437228180725949320175892660637352194773925714323
72 6 -0.0059332510188359394443289520496427232932124333568875284884521858592371524043938836860070511041915853450565568382067077262423047111064166661041933005554695832157991671632412478870029411049896743218732002987909674078804340355095245923669492469124062057148135407992018814020562048929774397967529
72 7 0.0080972464418419496220671948499605333429816868835962879822738507458818672442288397449390265542269835434512701089381482203349009249833301339910811279949851242022435054488293646082949587152180641631236726236125861028730622601144259668352591872254353843613483378073154221989377653420452449733599
72 8 0.0040163183980397073830389848857442221547784977612021579144495873666932947494867492593647042639105908659776964387814535790724630180635826142744621783743804070393740710287262493290106293869207235782355930833036585336536783405570070249161749219543717534480311671132920981926498234087899117130268
72 9 -0.021479079833145978995089121193640850380219560707709616417165670543539372031453793890707276967375194689873969947784891787055585136209878772289058273573158344917390343996542424221862613123921840103241604278812984484618767444835059996646743093252695346506883397801016272654777257014372883973826
72 10 -0.019938804324157320974237794670457204094731062131301446105784672819713645113620981383193201729815950602148300294198930787519779044040718628266754302746271399878218837302689931988604192154234064110750106426775106093253989900068238646780439801938073955402766075221371398318289757847632742888354
73 1 -0.0029910242526256638252130109513554756664337586275736895183165663107789076121939556362557414244125681738724498741435540670917396095195617666524415877687947280661748920077946103123817759175651657204421882284304716792285325407788775614203576411103284688649565852684525194207828363952341365302692
73 2 -0.0035458804472951393538498829540346806549649220195778582934954691411258678484486987147425566620226544858065590975013305550948567513253759061484720680528077724085915616350938652579628633692303845449617630273419993479070537239957074763330778324845028392107161281117597498265120249612401476600074
73 3 -0.02216406792595589159277766261138093793214010290058719393898814076642285549577545804190372110243705990459551331356262755993850700003274037672444577212058105975429682792143070256175763418693565643324832775088641248634846694334588853496702350477983695169030454336701838958704190968735108152951
73 4 -0.010308688191914591321699256984047966305131099700853455508231859175564383907206925997052347770465949489142890986150606316170149729734047181836892519389884523981317572369028532767488850018792791011724011914962496631752122897193537161500974707440831900801618817114252965131917504126503764769789
73 5 -0.0037727023299288272790535993471856548899575969839569579805461830323960381658090352427960934062434708902665744161593125166132707873502535326268738945141661472780692198715467411911124157721632251121374047149854072089873947033905528201136140283412358628600294495593404780143977191505285756970287
73 6 0.017419880015680970764663463376905827948242652684387741901025659270274229743015925787533155869254467223576708603052632515429702877896624330171241614098535811894727757964791891927340055770886223649756117283875639823463012443929173052152264373069398314949269579809845803499144225955888434687112
73 7 -0.024687239535170118364293307736192746524799606263455132013169725993041817762422652020939429572553940927960066515746282452200916684988780539691087982766480488422664196197822365232838358476608065024311498440710836529960848763212605612976012276634040699941566169231837612394367578926156934724033
73 8 -0.013915553284311299346101300046789597421268119282459062831371074070848757272358905800822171761290136258935532595715238146589806882770386084182787416053114107074965903460723891255103360260061160300168458305442087670534274751924088744279013353383042874077878903718622069186255110772369412869725
73 9 0.074151408374021955052717047585406137802942093574188258800285737607220362932583278779241782582537194981655980962581256304805702168698180793233790208723677715948006616975412546762297333969961280776617202759704653971416775789951215057103421446315142889172237545319824426556238172222542116624796
73 10 0.067243835529495907165710485952110260591877462367597660113048268497548637410912461378312655997118494135519695606188262107334801279488714369783928753642133599687083287416035873029398909129866834660328771329979388375405154528329424191896316275345648965320370901233896805675247143598525329316612
74 1 0.011206647158214260081251277761147323459250552463195103390116007119338857848892046508291621840055456422996954143999802751431327689899406625648937145888212394512444107668376084391817494564072476500661170728570799614595350765508524399774427370326787077098019647507731318302979908059501925352861
74 2 0.016742210900353394530015097738573124794973862958315079769110347100397886579675319096727424732395076520456050980788805249112298875776511256702823662084631141566313417081007599332187827662194106926279736232790644767281156002055551619024860182545048695691246777130568687149990484386540757725302
74 3 0.034690291412553185609532188657071397376557636663887897782786391209275486173661171322622944043335280094454303968584326091303803305340365863116753141082615284995480639698352747673579181180308901101467561492329537529451903085249891682898298247082377178130256135867596668451932010063492664431499
74 4 -0.0052193716761293248357757454110710906247098179864011304452356043963050425627271084237122598144795312649363308524540406760900817478878488442163387102811860539046128399407530450899535638978648889688609503224827545095563518638962039734116917957944083260460870457306618694156260728052938989633369
74 5 0.014126731514962780021666958727570144096675737233453227472385325280888730923574299208768567940539388569973262453996819871661377670224635855210884860956883245079459539262149569886947488762114190233474443069335565664298740202267751314481578719324327138474744105039630237984196474418131837976903
74 6 -0.012995085167606958400704949726201384329402044487652231259041268577236504766302979826272720762378116699388085758073770247741676457674743193799959019422311350965667069498421937632913304391261973067065670458429810196677429440818710673657849271658937141830839831533881844749506393659846909346896
74 7 0.022750760303664285711264117229433452703343973144666689484164897184058578993833589930529112119520345975894081948151449064422725820611185714098030951592120439718423664719823611672484152113470947785946208409075400006272913539498266272081303051912873447656070076937596766687378006082521099819025
74 8 0.0075047634665327163914308093034913918587544576090680999318264878852633553463792782806914824489072826654242952078180357156363525321891129885886233635954837056551736459981366821863365148708077791427314353103683202380479331129837427225607195513578584175924601770190176100528291457002306219746162
74 9 -0.077348684352061449491517656461489585749059246934995340819831547745489650336216408037357719530235849889602388630062309875609759780342500789488970806817893603347413645485333806927208130662405095197978604114376648024451489367021568220614934577833677705660041720079536568286405250811265244862405
74 10 -0.054986060484915968675107178204391729209606565875943821741087684953784480696216410881792122214614727972178971020176023595868907235763174745084304407638716707327719395525803076390533128586399516718286382683949330195373580460729230662993439162210738381684026362012352918679496570903246731618509
75 1 0.0065412266073324807351733838571837824190081184259452213187836209490241006090892902414092107102398197300368390818263663395604995766202620880792194800997128903713831205727911645055798261095642827641498615713777246792546720566791512981627852724971747078871165869082803918624290040066381435362007
75 2 0.0061423972996208988467879251917638413793837442500902934111930621858345280704572897035827565295403403219663187731568829713188421594856691369114237121299002100892397348591350388900732573941910945648246724498192204089121465769052541057687835291209079644845870892154204915733675816043958885606437
75 3 0.015534754596597268613872510761519194832960073779953323361515660183456033831073453794588023997893001773986356367665616192744231482514372408110501709746149124118863397074935719481727746192257157905583776041792098492478778828123373405617281508846488365674876578702612565808892826861741609817581
75 4 -0.002592839615021232054558165096097568277547407690698055811759185154227634189599870171387669112668216573086144428973630049492039020411218293421919485533860091313019704373300707795788114938665485104642230264651234163255674347689890271181485822763719848887297497483122103999326945620798280318337
75 5 0.0062378433427099251453055896514118843333103769712881513087297410942684259560332117518132544686574283351240826883331612044267496641119444815733640637673794200909617120529011996510296573570063751124033945576381373728341072007993247013491235807808615939584892430700292354839728155113513051261925
75 6 -0.0068517500883444388896003951962848422133711561929414593132140142420315793609358472917332744243306908444589702912110799929986190693233660195306910547521682186724330780007095338010068126562577433694051681223152940726158101462869094695359389431836220287168071235036029926151912571784541103764546
75 7 0.011074597669653808634503048929314416332521121960534667795754758817274468100596358268183606935797694008773327914840575619824037949532747733556499581684015878255519287037680086134895845470059789108290972530680176038862333441826039130714554208001881564618191852823537585033087426236434783576559
75 8 0.0031713467694072800332754596778224703559643307686387363249016148790788842332803556824741703718356748707960299371932845381487672423822198769301295030659687870436631843814971923069589558691338048869491562667779945226814876793540276419243194263809266002272453446184421215200031383167369693572406
75 9 -0.034468010517331693449158602136686703690250252186012070275732143834312051824820598290914288762055922330226040596006971238284632121684416480339678119998783943735934416230104533313956978297442945933242478539987664098566806669449438634851196067851352086374805248592776310316119082861743047590717
75 10 -0.024716741569440071125068697500652434676049825894008856423597159089300285437293352867659898356629957059354747738398182636634914709417006170357253330113914575467999285275587841974359115668206789545833186689754645404719785678605532168556580291463051292365810455228552525169042168534885451945863
76 1 0.0022203105561845887367523535382914401287775723075013281774298493134609588293141959204895801732299259175063705223529329081702791131194943468155755864262019328487352388752717515850896377508720404806332611520703842877424963186010850401845201427533784626227384546460910522732752104505872215743349
76 2 0.0079582835162118074224375975029253675944189066534269146531795039267628940555048128057819663101643414281427109457780255834656996172287397210376290730690058702124001224852517353891738608274187884253050224601940533067896647268370436844970816725329204877054948394487907087820482741793977437784571
76 3 0.0033687822969242384001795660669836834875691506777507027588098664191059483644055978132426172944323289061436364077043128614648483017669017234275789356776545221895305025220906568687422175701853414187576517826641188639101982521710270674415835348566848260740904503808797914457130688443011641912094
76 4 -0.0092693154182359894980355515579625554591328948442017403550452605988532555230630091043498130035043384199449153174547812736201513625975740242546326771373256184637615587201844135094099819937495252892427536204914782422268677954632727241325543100070724839594830654538911662721617716148741465289392
76 5 0.0048817395047998065235746006669215707204214285739181472065490660488035937065281400369140673658033286836763457358315963340661406576887447725008747312674775294323559983796054230504928927061978676861499135003545344867842473134204499254007635198609074166073985577705016031680797213728506725864351
76 6 0.0054333230147451544012152269859600175842693331507707799398067786063153909917350982474262908923222789862697170908026168957519360724098387649267422282366716319336574813294087427547328370318005716246738661077414511278991520801804070398110289557438823014077594244209714834149574526376152164405967
76 7 -0.0051810202522754558399590552863977288191957397052502817133058538978869099945249909712261667949901696451683215659659258709176542220165438044483943475485583376565959297422094892621665626075074523003919084508100473316102560756707481207242152436722780944382351530766436345242859835309897859848933
76 8 -0.0049877369015613333261427319124416090310055367959888371111610228783077438093536183228131600381374018910490297050040674536831917198417491256704310444311366406467703857209352698845757420551532291079742772142145518527295486623915665725998418226405752449296436506633564225049750151036432458863318
76 9 0.0084364432845212327990647906735196703661544199029511285371045652121693900683231084951111605066320052819569234303598931997703350960817102009465336926570722287579703370107177021625294677080195444709770364301932812242767421288733519090328096753472600894269659691798327879353063922747582343135567
76 10 0.015523242410123489639523503259298608815442963506660161490347873237477369080989744112163133132777782617026545344984906329444288001797441411727741397015100024390838287954381018366678736466868585317460525545157196313442911176360779566075045544351115408595719178346226665904295819820981432108296
77 1 0.0020774318706099638085856522891458074084285343978275218106196456285017193308111557897695235595621121315984678343954524626220453097544240258209227583244495168815842269586784812143162773914971308269374483922274419589156302957539314814418331772804021093256563214992530720937428042170204865226626
77 2 0.0052685616018289328491109282366933576463981722340332457305571796010771381487104725606818311697892912631024890286761941903773321743041944393730331432476410984790924523338580606310076648512130011027310479358129897737530825499751972041131195598508590432997003184690865462168117769754117642413257
77 3 0.010028450230983580037934369689596583884586285715855684667389023192542746225937363920497296338967803262882991829906446409481835187014190261940620949448699057901288684884078899215350489493975614865473571702399430464545758331312213432973356233680026416677135980995292438948032507897416974038976
77 4 -0.00056375297241654684214744474321280698799635086333567388009366912429333684752533333916436632751533096274308796620941878507297187648151840691066910331880488156939373660048852406865302251553820300725857669889160469519949609927498839902844197372383114280788153649245048890329251981696472568946562
77 5 0.0037625559365410234694795268225727235202560172271401871558239898511719614515458530435476720470782152201790105928003536638017797255332635563649245619173947045871526652160959228704129742793983834682463296815769314814976518344178023606336903498395192306443024453491749334264188233698661076516901
77 6 -0.0037796977658885118788905363330493084706259621405290779643134273866735606033171957324609883413402705168298931182698263107612909748126071767255656184188498664090635595742032982651006154362942631794172725363196551633071332863506572977231144881550288336944250809299184077612302790293669775685201
77 7 0.0066456331701005580273786553864549488890240861765777721725941985628797260870346785074257259588458430698763869796881230113253841744891115561334246923057586270820048919808194802751181462751191313622637443153402107172449373784731703743628293826605194448754039877880360159169132497412057268054883
77 8 0.0028158043604859101994590106959275011702181326565612196037849185437153209679014348308685087235910986382582181039767860202669524897492527676626107448122297712713951877775247326220882586771756342839547875963912705231123282370109320136523540474487746156506376275618986249513987426023818867160573
77 9 -0.023949870649591334315720630015710310707352876389208319517614228455776274269588835920866817656510777267895638225526059732973858404995075404948479017524493742507726362804076231962230846811731106862598023451795131151755968567656764749121201079991260584783058642804715065801905673579213441099007
77 10 -0.017802064032881897298996900099636133538925879152495687126905517038720461639481233834740223284306712927327778798692320564829747393683803104404183727764751294885098393670114440200733650258690494756217085522749270178437554695508162235626891320271955582717689605431194217145518295586282150026849
78 1 -0.021654922309218763020347201867264944723197860797779112382615868515489983997014701675948231339096607476274149201042784150409268452538786287424125047598089652964903944343289326038600628619907932785474374370902494945826506058257854926958343468776789678894509885523469930769350611740801064211322
78 2 -0.025835263894186999087067802230260714498806416166119761131458737102309610411807125421168595813120605469742852534434895072126684861169749106934740277236173876012209741502230474435881002414104560546378936933599219213639975149224380398023005983762924056375701870030495339864542249309972286636869
78 3 -0.070345266002524821248818324353979560784393489819010020944908820288557155900716854180259184115339966200417570333406393464629587873188292513866555389386591750704422531870933910244497263685199063544026181822243039561833271793344170640754352615764440914256271213981870551695988769541192713530121
78 4 -0.00034189044798796693716857924022054264451410991955203261912308957668607963289388233200632317886241163141172764107846786903863714513372224999928850576012677747644729195521614259430351512954556689958807390516464507357128927410728938527398534335750616527445811561049296435559021430674644545518714
78 5 -0.024115836996023580725534800817182693596159654034162550600651009520326805548887388719726587805930253859040195414941273748178416374529607352528797639086938559405654775482941043815331022966476969716371275664104039037758664399704510148822745043944863602112310108741477852026009586224242813215894
78 6 0.0356119283710078247313688914425045467241995868432181585284178723279279325874701572737751231016427846103334130483819486491345095347988414374269293737982565022514794906503152642686045453666868613474740116531382558323488914057976062812420707442492171938123354326027153855610776914744505250845
78 7 -0.055977480525044687023835688971023675794215296000300927521629219066497113134460355292660402304585752683333934991145170955305199669989542255415330839345756638156610813708067584873798138691023821404802338010043288415045737213444649180223072390924618525304919898825932959292929763660061029586084
78 8 -0.022494289095352970207497206527582447071249870550973926382467992831883414129668755530648413525977552761451430133007852071153582590897098292377727176537996753636455948130173437429501981487595818878333747875926755728433530088641924807726766904252288133099657641961728865343898826558447410180296
78 9 0.17703237763525039880939401858474324220923429949442859480345615293449533240389714594712298542461364549885651429288982931360584356375558944610681687367646857234631814098065135506594094973190211667824894223762802042178857882111427957117899639160414514211099483069879344568506453944601588999533
78 10 0.13829241207237765024044844068490575339326650578169697056430034923899640835053459811286808787246824593954626119830277490257987877197579858289289584497014607073292304390841579291421583644999260971166025021688574613892192381487905014856575827171160322216144723106992609400214439393769966281151
79 1 -0.0057431354273139477391685057667606699702526094983566370027858009107767761763268769031014379544473035890414414555193047478551794309250589530789622962571711066433353895934650428836408504678108788790248515018482774997009869460628744265202632550958496645029916865583393585993112062534436238519336
79 2 -0.0004958435244712077158620473472176804487539730034480360157507964604729919944337809626844111542833689218887009896507081663023643760746853482585035567919143227900766444487218372349097606110096523404279477892868783902739076913430849645320893457780086069384762099673819420860574740385104480914277
79 3 -0.023330037971996953575748238973267127805976243960248244055873625312821397827702819812302194949967614817440927972896522904502774343445771649932867952273795713531903448396763965782226359141844622336235483369782359296076669861706191142886517928470668734370950296545939264835978073342772048992687
79 4 -0.011046470060027426182896751644859550586272069056536189273901490223469555838308345096820641368553345909247980042362527298717563808639533900986806235522907072451272043845668395011985719102607394897778878430845462065253686554536415485878671067348884962887652501687120917866498344608154334070881
79 5 -0.0036678644859028764977508486602824140369017796622954072979779728366586771858695013916730810000106381636571705391287877487113729515568014515339628265125253975536470010246811693512672412819812138864853995534748484475905025927463721796830790575575756068973734771102110088058621838312224415361383
79 6 0.019566586793701771939501537530203485360841850884151930801417549325984089130426927993071763703927887316539912085573023516816332851361369669118919958204856921771058917154558922311123476000999527903224596199707438494274945251722416671132994359204765148725971110816028493015540192429531793759697
79 7 -0.027362790359124953941978620157431011734064985332056013898579099792111020801221987093768729971290820263152370399831401171262275862952778149628726652540270047685154521392820551632343265305146116575494158382680366518350843560418467361918765703454462385447690853181179381571759436875185960965886
79 8 -0.014415524071743536325993864175191168799415054896157923278660919363647003688542115326935625801961553602859013249496326704651748888664786549549058944637509614124321551191433574538237537733943147260389386615774198149215247207835909078846985928400102834123082952211638161126933308396082834178245
79 9 0.078274490126230874175184443900874153694146472477808484810378878280358286797877785637334426980362786025737180217297178170817408406101891457882902630519604886852101126398538623652597995838720413165147260973876755191847291452167738141721715445172498733554512455763315802437925837109914031084465
79 10 0.071210397868735512325518294271579295629171123691150826964694580654289564486945126869392165005528423163454856725780383443792481541376896611470555537730240997034815111149292997190052429567115306594471830943699242884242799079645691645386848929307489195925395813784719470553537467365457331158313
80 1 -0.0054743757896034855394112779933658104837337457324604742092397896307363305070513198080658786216224868349499578286976409718381169294921050743568287425265797144101444195966151065349204051127750093335944327077356968939050060901383934686073113576625110053115527744507496107324061081502884736957956
80 2 -0.0097593105833869607520376339636519729655359333361911471911665761180830890302974718890631527553100228885031710300702362602182284739451241709878228760641023827476191686678522459380582507816802571950099997109029047309164057027005461421659264360316197131080227601135901710435757549638466064326864
80 3 -0.016139795721626234054500087417631429155407045785199258248017759912136283857064775308070823797573965104688562603698619702369455277924799815082220569153434440436501968039359894756727770674970160846472442243438304419587440069767508829587975018742238062478264329770918703243180430218398740070332
80 4 0.0049852983502598330292546536466267058390540877517551799498971400856066155050313073573357501932159905584817610436892608027695821066287192874751349963550488885570454590916401512843056684831341671543431644730219270287767749294038791861059136669217398690141171213069256677082698027996196482039386
80 5 -0.0075326622852278818762498760365954580761337086307252823932536682768200583957061606708488391595386113211315872382882312791854121433251063127803877431857987644280084185264081020205598266320209557041084260441773108416282320575080525156429243567314264456052766661157804492039438643608571415669592
80 6 0.004112154502712630131490796548473891349124319583445468214769580000654791000310075510074823330673783430484367619772382274908797027328040294221256970207543081381372961355010946983206292298335428383404665428462789670867546141812706403787913325049483940953872647069896777400253860720025230222531
80 7 -0.0083539317858819668339740550359689594621289070400290625227666772883242053301884972708223959645092861117262758451293571271975986473533446974764463498106687821233436985344312193087926270004877491173364192774074045645147305942269993181906115687601759763111382405151777582114963233048126600225397
80 8 -0.0018139379775241679813850036213278959223249723845573771868320306509021971244211328448575331784029170617335275811478054120335219960187655790859959314324152727304323651614163454813250269106769937583213805492285712364595235393797228791511956597630017975645200499161032792960982211423643816507115
80 9 0.031417305610807245578661288785046633946449959950958866487947143521756474235216316440795712400806808995866847213668441306831341591842952970918957580225548696396147272841099698310597574700351579338030647767735382651997086200683674876173593195143637926238949192511341026009388366391936527440285
80 10 0.01955806850497561983563026964637982501249437416469321943232541722170193145821092245117148670044362859278834320226415178423239063885088401775682843886525409362917350889526661152936933616076663203443129092552546916028134966351981015048080393120611088210416463642036874334341790155571158073186
81 1 -0.0019824082700233747923679461464359379528128092743225030999385581180135287653321595177212245936206967841069552700463550317765977776807241160423222284810665325685271296760504060253852670599179674307232316307110421914927676229060621008609115538406230883390516630013626391578257682014923185467778
81 2 -0.0023488660828388405482942971824376209285624962903061978753095143687064733025394123303486373097148230824543259444984820710653704703638246484428373025103369708369850252095522670445915570045916095895943386076011979247267760739278445515114089922040207729279403729357236486591827742241694277402128
81 3 -0.0039615894006249300096303330025324594224325266509036036336938405836538224928354710818779047280885267131014098852317459966675146121869973063891577281691174005297910445542964020242332876641946911103232146048896566065499810901261208569257917654133657855117754604768664081727875203380854680712036
81 4 0.001892741749146772789520636458015466729891505774393573788951985399326305859699479673893662837277379860213281355348884389594267305305820939093885909571719347022387343226597280909798924417956941138433685660715931957387230990168950087738131141804301984871026813172216035387910323431329791982472
81 5 -0.0020924900184410619218582665070383972065176564659697312767211239082478420600426788221658023081714650133231822713924928304255175460781578776242153722054242598092634269843420836560273068971108277218879648515681209449054589633978060670691695541261788739008749888356642530829671344340062986124361
81 6 0.0011275555960345997205891575747507642426478839493946647930020713267020505307025231177970884753616129766468553833704960294890797118934916191513293618526957503694075984309528748085854129339568259949627814041961007988362309974218931157246507843846901988482800846989631339803052170610286696491057
81 7 -0.002083899708379510630254977281969262653589343248460194583574759588470813390657555091398945594573398249149816661020753956263715095223897711082592425853284707417863252445120928864228465873490490332931363671762121973288233206890441442973303163369132267306415941411941789422360968780485982218852
81 8 -8.3703924246856247239459186111330634512988906195024436673497482624593898605501051751448011918009494395731817465180902320041438280848534484910881966132811443762726900474296339707192634781121235467162438757033280792631028735348737884846611270883479902371587365139982034554831129971561855999058e-05
81 9 0.0066544762559421440303340560419491330441500247635495387466845199451487884914106756869184943902531626722753992431698719519371519503915976448799099305652182337405474160202466895119585629438334543165813586065778865999407872960573075567468741732653713027580495770626823944138441414035041532248704
81 10 0.0036631188961193111123293911768857066951578139891943047511788897972538345542919960403588138233843562233687836017524662613483207311593768941482250217076177291574074200278902587314715957214412750598843354621936110623651360458230162211362494666932455417753689255105547994994601666527148861912543
82 1 -0.00062135865949668731071506445315421553779710868847847950598662835076852113333426733321419989427216223623873221928553994257480078765381462037770204583781127807791702487863972912188390957842071691515699988339949351875006824267790860292541673505024248971995683313464413016547802021793243132196144
82 2 0.0040306089819947097571569068417633771049398776113676079653050810825100910627842908345225962158342120965364160820887715216701717485792496250121714483842112888137851821903181574014971600505465146234851487469524719221657630020890497603750928062908355007359054873015030616839841477136112556007114
82 3 0.0042610894633246261712171900464404828197383256270879965325721350797839342901302374835934831312246789408751026773441858055641400397258471252568127392934289085917747133392006410866127915052436299971795648254935820686358047890294874522420648033712281023656984936150675998558202693144594131394279
82 4 -0.00053917784527497104657862232052671712301599153987170420218093249079747108491414123644375704258710121819826721478049216904732434770753096115874994332388739937804881132671833082864430577087489172644926945926916103137615081341864549451699850037653124745617969661742519285079455075552527058830331
82 5 0.0019363178795247689258577446191287029072001245491416208808999525918709962659999993720653296967329531333589499275331648085671993331899453880411813859247950861193580696331749642599392337627875044128161166560929342103971330041764796060576205718923485510827601423059545435122116458802931658336483
82 6 -3.202515788567148931749836211008782620026860912505208381491597211246126237410716656305798030755967920897909300648606486112822608921146177240862664331987360389654450881847686681779141809973961556749525719432368609148189832961215127711877150116500056222651392506579734273004412350455834975078e-06
82 7 0.0013694895387329272741336227678882081310281919921545845232672363166671306311653370579130436201278897090193140634002292885564714373994742515580958828876117742210010236410698605289933553000944040186597134147918845370562262701825402629828743596359366417449154465776653544026420961153305295982869
82 8 0.00099995905724949935720200152677070869130063722178001218508041838239023674289741996450874985727795212892670585270466113378385032930178340154065065262296657805238198884227309666693773527753378103248382373737014995701853148372325651072951634813413792948722509922704028478424666252610102474855798
82 9 -0.0092888455445386337889272370224979614562508986821695127800512022692466090529007128547812491695316675210169056755601617859964391179953334950030149019935269805393010132714262303180300780279842027347593508505249269950723956638138336580783099641349286519377081629080807058591919969183465511765068
82 10 -0.0060244129984686740427677419374667023424282742317312235264126075273664123741293111075253891522171539444121436608932749968968493031887385283686022935319058869242481456279624130227364646052043084330822308457848911593700200762590550810276762668955651008453348712735233614147584615681148881766941
83 1 0.009169145047640038777830011183810948859707092972467766951109592004413571240696970414087578946885834588507436977992965622700412425072056487169675454729825305943151755176862534876087428161409654611513901684785022753434562617819594647413127722631134420137906714120824509739010482545077616808655
83 2 0.023399184515557178809723742414510358002067030379577111031356432916358380776993296667649170556490110627715350318795217351222472097361302433092896147316819527349046871820968511770679618279184959659504450032185044489190348853329906208763382541057913897754510503402596964095922869591863428449867
83 3 0.030899085950158835119327586638226142233784509083058855755648312126872168507713838607127855979181603630916448897294371357574643681735101235137959345713730345146439322333303564882528507547918747185462251853987572994240044900353705565407187848651083405473396661601917711013967703979487884387589
83 4 -0.013288355072180770049729472358067682916660396021239814405688040135154426103482933973559375885593556100340010051306948454891489134090093778619911055966183032961459460621826706162069635693712547821744992613473405702198191026051608784002795208353484950272917681915623483329238523812251581273888
83 5 0.01624640826581631455075618567746604942989305768571397254440654855980518281924142719820029947435377685520422895926551564085562669607610406889139179767153507033593251499098452636273600846976839384689006648561699727806677963982165746608131431933574564666436919830330304972636910950494190960185
83 6 -0.0041785647684356311584191454144016413765773356064087298550505684258642646782149640354866284834686864380333600071612621530732595988932292496880445051876007654521737240958813921257125996544124885742581048895251519874568890935953335892162864127374312316232297568878141285633338134335921014858143
83 7 0.01212282790376061142060989448654950904041599155233993288133647485572584442809468369346262917718988686568227128668144265681483297071298733355006008191575376315299298067145119506578686884857118807977306770328508047305402680031461916165675892698954895843324924926392175112885641149400259148932
83 8 0.0013253366389105586375142374249950843363495636881873528810145520731433344930259400088532918331451955596526543690052062204421661384285045575779832344247183938402607922389401348526698620811947929491620916273573725630023663216400348630919896029308263476862537984982483449387088581142432424642419
83 9 -0.053189860107947528615790145657321585826450224574009609315014113464485806536892169085692470837420893167284171006516035398130864255856488796896127117376602689839317973716052495772364709923282954505282096880318452603812465219297465949243367140858038455270974931527317469588215645450845023996452
83 10 -0.0283893669849752602781832203960313211657672125489880519806769709385387276923656886542731922719637452464740139746120606817978080179315301219103801698893938476080750687593471670778406914049602393809837010566004014495678041218743410025782459536779464240258840780395125713306030501377777646133
84 1 -0.0083605061677181341178462392375604760725323362369443991393497634270378680721845180456286412666707631529626963554172001294358645046491508697603764954702441413043250925526717819502064681547166000838937424576462844886981366054123124093294779766589311710742080878049520062142337176763933591830936
84 2 -0.017267343070661491706589873556162247026255246389485802519481186903575563498081562090024333532489609594817405125575749448036977113531121615421500378123116095683921951923536964418567770619210572210657073529712936689298262529936530111770874101449455214268265682235206128642866781263218100836665
84 3 -0.011480474161608833484285625001810022188040640370271660437455147863230817649410056282513598758063553905098226333542610910523853983999017806062383294132222403253934547795540589537884281781513711042378742788235432871864179805285202800772080317224606683500400942623742241196041871216116142286405
84 4 0.020818714402307120913732262179276406858648616579713218739702057677111126156611687442104846680394494030547103196677741005094637420968739911795448543595680493844475101734573045443924631252364617602343039931288970816643555667513649276976520620066964694546898223371469466125075017696140442280614
84 5 -0.012093097319526022579791080477424379869129962131882074774680686438972136144735029180970396251601330195054064119814383241619217717327399638462629987333873274247991575861356117656044000693370006138990028684225380868642454260475632747110220735585359300915747597320145943280722798058596407213953
84 6 -0.0080392090010763388686142400299238254318386913898221035401678617671977837456511801267919811004961216254308025306432454406649757621046467459280366508329939140051252546703172145425791198191136205437695230078590949287179777838196217024545959152855614341355813010907515819089497220434401112365456
84 7 0.0065526159530749040503391096514005388065681902644449427639108150101530430275171038150441840344658884461364402048567125137760946636335668203619396345632002613084104032908527525868148956442824089417645114129962501939735260806662312652681720913534431093770156962968368011805912729786479326817269
84 8 0.0098212468484011408103884883873831299837432582708943319725429253256396161502826735884042044641702326945926569852548055253595732712178781831484669302711474029478431806848838331318007421390203344904583642204993674933395201570310029463860269425783617538484685284533514771133969167741107870532073
84 9 -0.0084265919343418132248409468851929630287410438431250399151200735563662766774916376272329039642883924217824996844112320236704249227496134937121421463285809414855412291665314657720254733149308894175823390141087699280863259969502554890842334016536774264658206512514680750255458452768755379547535
84 10 -0.025650947287249727404123556064763044237489156073951179134884471488647311943342743062194832284032586423546894654082745577429283394327696479802073013732292546669053427382631826233423692510288931227214974650004921628496635894571776096643340120550781802272117603209685541035049435267960163709899
85 1 0.0050953041596426917800258321181759117989799776845633834295997973280897592359686970764367696633080672600482653437355067876007432800674863751758020214569461379101477561655982144125732096966276029628299893393833962352007086353023687683778761362548613021632098858775907531759255960727662875071591
85 2 0.0031275366044676755834111447925185989064823044886477431735318546534732887470146438340819550937618387784668274276321145676693540221156259667027700929715469890850431614753541845627473284189911891179768380953533098909058110011696007671130706553548128750748081885685551402187370467329956523741538
85 3 0.0093613944580228606850040361186796944568041886225908948294887728766627328197985065387746021903500261352085065064792470395785577422003557193168226918663618289524979955184764506578397322297814317692711046777641423219735895408285272509730668871544385898309687555009605654057437950911177919147012
85 4 -0.0022359769888219254258779511215484123255570240131827410497970607329821339215982169237211425199804607280814764088926212622785851288474059854673023189477448709445264266514505523290969666089550228597718311956265366880144484094278642749861417758967534370406333167529496071220858373246610028578754
85 5 0.00389883244361600097674888847180441526216007409726591887998540378637010494399947665074958397085723343298444291233495232707896062426503665033024847702502298528633766336653813522258846570821527106774197004549944371685747575263682018802453837139760111816172256806308590072983289568784697522014
85 6 -0.0046907406337028268515964363439960752788312946980027663529271316551075802140142107003493507131113126301995475062429552316711629610094338209472634546030425727786707369636881596585492431007128953389362128157817673455540512256829287004819409988152670824604130800915157349519313274855526662178011
85 7 0.0070615332975394510495092609602767719218064982992118893755672420397108421822647954597091441969563286574142226014862271148100027082927598873205469086160804687225745177048618193012738073827222065782303305043391165042106773557017452563811324000207263836162878846291328802568310242469321540881351
85 8 0.0015276438068602031280850511314348550990292970675263354650760423856470312822867955905903953880568998999017988415013820342741319051402289855270277154148198692719352206010597053345036900606784510787775786949139625334693025245673124035747663817362111364783628745349075388008983883387462615745154
85 9 -0.019823884227370731681259915143514238861756556497963505247769283468363849710060352724154969005752791766805892416055736796050246935602948767622887970134954178180359272214149375250914012519822388250394403039092774219465599977297870248261494139473962881342782382745067419027091794868421414517471
85 10 -0.014004236496577961803972764641580236290223440028783466273985580424631870904234978493368326112802564795071063859870451953478696515196928499901289630018271559809608743617837682744081864661647784474670650392595152357594219826522593195093755116417650874825270847989857532660595272831823858807139
86 1 0.016889052627549644071889852874603824743075789489126399973902444087088482344695755874150767377650950644480093588612523146653532094935590025342852391633395408714665237497337852288637134494651428625046205034500551389247273680090722694069732600459370249284665693840302624581231760170590003588438
86 2 0.029639371295313971040418603020250854700891474334230160516925254166595169172130194801204412137985181673694246222305553103268437408743349436283921758791222424525870546985983702622189852575379237245665042351152577546253226135396210451675135642660218679473632071158626184369587608077875253041598
86 3 0.04580377951775662246664437072291302973361541408344213957095345882442145825758607576355077570662892950649872887238455472890360690785169195880200951434338311287109619667770738979578760011339971423864098537448766954933320372770988046781183072036717527918187221753024967174470935242801190832859
86 4 -0.017862649478931797662906517442276809595830177714974132008536356500777457533338036982179265654005725018687464690385979645721494554445658264069616834348149810437651677526429416242140128965373380238497473014245242715955118833705507810765479549954008260413802470798465082636774272317395234496996
86 5 0.022833649862301188033749397377615572562674471123865903996413711124384424001055986668912875584676909879648376004483190283277323041483078707668223744853233168660484693791260064731281195465928017957187000158376852570602971337492017972030807173114441345982423144098406433273834870262912123919106
86 6 -0.010188175177391694087042507514492504234986088493493437875625255974097030498417069081870749061402117437772663065836156875827087718642381042801170659348995189618496839331331089330609669853889436153350526210639794681055552539801415629162775481625740877824718593139389091739483399011234668293337
86 7 0.021812353037776406132732175930244006333148761004080577859604363071291674770973115747802914904778789276052277033613740517697222313208224171928514626547098688990067626980689778694461157931628740665517773447066349757043076088006725468013228137510665925412997154554096210834031932253702145255931
86 8 0.0029695495838561457546701949732107930953192988202144608085504762293603689186105382477007562414622501013801843147819108084140584264533925110782595383132576625854696729253191869793403122686101819311829705372070815089472220509483565288937856986021778559653606984770153476854692272494427061806104
86 9 -0.08280241751692440039456444531175934463494843059550322529098233571679130158558646815500647884069409155030259809843170677316748443204070490686324462133817740946563828176833574147547069315865436740196075573076505852535813456192512087186171172601589530649291011612706146589756860130973437135128
86 10 -0.047775775343850157646382104404047337699174392797199947534209653738158837429702893317320150720890864802427790194751340470182397305886221111664418643404726062724902382590831642162008434593993028383621611388651339243386316796719086942023058781500798124813709237569981457153317802266065463218367
87 1 -0.0069506911173811874905253141949957980953035580818579104599693571848683179883835378944153268428779771406128188278078698146473529049539007970646603100000652394814283178624144527442813322364176345475360991710041956052693044039638689467471910257491346334057306294209244169311325170534833733112838
87 2 -0.0089894977314823519167981749320194964431574791939149501596153300063206371007025369278957679450854099387828036099317817027342518708090943245113058747413490892253262484826492052531128546575353142256465775388767030826520257641859019788717750089542270904636829611164337184182659736696464703272191
87 3 -0.030071899334448780511775351331416563522343814695455508952688022409004511994770316950271641698731398488507885389163116692924264891750453010174920543663253311870854771072656167108467995417868132120629849276013351905589491753822171842002481224703212452256172921972922384803719946252734042507362
87 4 -0.0053255485555293283502018702379201539941773099524229847818195641720845924947505521314769347010923285833213013959366816263635845576402314749988675760827291016124775930355586073342476352691948230104807295691381506289449386422889952837119841518550865943284360110918737247689005777169474053091762
87 5 -0.0084312129061089499031746470362121024242815025000409563986310277578180152913704546551281730167543090255684093803086865530547991516569317680795792259224161332360334978097703759455183322477632969575181774820467759119868287453700468304569648644890231266453152385949852944929501314130547197135734
87 6 0.017848133831362620469501377346946226601446179290393357882325272163439155970951430975410996097796726639198160371571480394569980443623808243115666105359827777824917347520308579068290054676295334979367291516369775033324018207742516454359104041289547755307604083215572384611169873089559523923793
87 7 -0.027085763747589453021704656310190876710178668443902729358007210260613674481057726548069095438634919480017803519167198344463648900706785245173456189479273818065240605554458695470548398236135386311417033235999254532874478972926487879246233109828574637105984839839959550000109335484607629948542
87 8 -0.013017913854425218873847538332183700673408791442397072550743839189378911850808280633319663794777458910242850431554857688778776447721288537574865744443581764340761733361204588864924229798516211255144162802034575685191402256084485782220974881856401711556264827361602153104588471890313635998201
87 9 0.08477783858545454896782966457493131859550509464479259404715193218294293893051940052839054824823146074055139085789910829426237021865547204048567302546433325994535836783940737534297915989640846782855834423830559630767491526216976055213991045928836658994262049453899828568758068891357317165524
87 10 0.07068448852618544187578365243935665029300053680775841508028767906033077375729396293043873883218587217241104335919621218664903705956139549627328589812931118430664991333117972495484154633473074914102057203605041666576856279362051921221065690819365334586998602206219035919249125288205952326638
88 1 0.001541328271139222310332026472540029709729593068602994558900666774651358284628933770219355507478484147062761383213086973856068682972668436425363297595638874919818459656771374446360881179697716659195131978819795553410330095190269859639767010676411091401293521328377895832936946727365244830994
88 2 0.0050498073644126366761432285140015919145505822375245334459540767545758757384610919419954373472782694994020414158811556004124155233120423654981200833591197515309555399628454382888839915207258782995004097648292720932719348657362226685812571595075129939183837936209500626938123948870711328063279
88 3 -0.00083485711285906317019917216282258902461310994508447233435067053015587914557979255602965010133174108545058488147484355597468188288012484413495323221894802163380011607866512304396657395209526273246531698811522888120102875064522224321884727311339621603454445916114325991573523229977397653856068
88 4 -0.008548539821301553511177606505708728982830887276679499953836210018961501358216955624394248342167598395134917678444591912152695586409814222435253373635508379205453211296425960091803325496040908876060464060782506710041491915596846922660957266189340685239601463539477564571799611305335136911099
88 5 0.0030947127319428453568628079045398861419591122969321023032010136164340967478591561888400391571232309242796309031020659040463195165223321891722612748689701410405374611682853452292141665928622096200923294809259372201146328770767124613430340009526120760386028426254352353231898798774998843946275
88 6 0.0066850364242090455100222535816743439056656931985461927151884527286863560170737048306800341811014267884921775050561490793201804050174685142599163322108574034305455037611633916685389194994934747569138074577226364558682677514956625779632644927753145841850687653418010831122441850735642368155616
88 7 -0.00754627319797987322677249833601893973755454442795083932502636357211671213809753329674118147983818157560858363548941689745860138548278434623406595361959840991178624671770267361568066411831879332052634838532412129802995964864509071874105830001685599311505608336159532801593639236593380134305
88 8 -0.0059336649004574217945766009488524514934297894212556140071976284099427470492628585436698750818629196671826463226551180964757044080896785515444969637534410335561905890900756889880038015485661753112980926076463541328099473051711707361015821287572156331645628042606084204408744106126012929389978
88 9 0.017688561459073540211664942562841260180015561264969557547244405486251292800575812806675305536797971139606088662540780921734688684001914915762564190871014609668455847974938740469858513763615667210055532754083719041728632135852727079776033314566839452860669162336463924049274457416032885549343
88 10 0.02200445790067539350956710196450230605261378168720699308055862756721374689105118451612271232082830326118482436192776831629695382190485468466524480376638124103272666383871879135399091051903446807743751845811450010329262257204811832367162741931418776866012779351273424030809870346736488058257
89 1 0.006767311567727805682071289481990587767950758219451520277678903364396251792679548492566935846261087620124344385796188911881730528337483120214423427956187242981520097821944322929950375021555610846635272146139703696250501871113649944842464873819173806171363454696912029596974546475950438826058
89 2 0.0076252536388966530178957908626761764439006934776859635504065033132804847286343068689953794471041452238390290124341802552129036361046769715917386376227284027453587560483697249559356744320958070123136363221012819949603286263305775242682475475475263846982784461692088171513938176113397573076052
89 3 0.013327990784316799767650533658577514296067301141509701533042242582044602375256351650140422470644713004027965425878112301678126465956139540327990013604034691616553988459506311054606667321640982116094975562505089557447144264415421392409666738838461664769768818995098823149891368857729500752606
89 4 -0.0064588119630174646616146851460973476066418689499300648176256736246114938257928516485228537560085799198545120088454709300911103256585080918593723280060017538309695453604558911126378725009845717565228554264857360342061878327061508090700487933162229725686647190841415175648286832101714477771504
89 5 0.0069662322384972402106007177295704157231011864785282638289056607669215102486154214710274500060175215945206968385763664775417397088973166048305414385177848552844959662316549390369846446498015786769692790320024684406449455227989797283217713925871512699311394711832479800076607803773919944535204
89 6 -0.0029755738154986859275649318794612600402776689979485092863912311536079105091995059604104391458879278436450654406141941087969710168469865381894793581899318160004559701018564741300718029478071674631819813835249598969036548361913649175766961722362938612776701478248069292136982902939887779016311
89 7 0.006243595000398385323027062906611378439438349708852362170239480857078634431194987978664728076169182640508646460995262286624036322819462947771949579605779470409812317889797341539871757089775276096547081800836019705285340303973140854026732250607782297426169346090860554478190413381789604766164
89 8 -0.0001135218380633817132794128292413101881430256558890159963725325757909957010627224844271190682277191668924900799128802477442841791899985486531513474496051167448124192282996508796103778599959567365519971559021672825082868735802918535662604896974532784441687902814790034594060691606111875708487
89 9 -0.02186281361456866241593081137992725399100162549022395942049659587157532505535906686347675380651091767452656668533340607250096262543209312399779791826396621807557070413017138382408322860342780370121856573598164357888884903486611357974089963339934051009511179867499452424948172951447538377626
89 10 -0.011187967908280970126926607463357458529246749163148011549046929148372263983676897940256370544752801705995098995674739080376152967585235053735583197751326294496351599772908646067611452438288402227435831381432451741202969259356051723154973616457771099450979614319131577733296286116076287988391
90 1 -0.013503140338544282450556711138747875933887985055283418084363016335250540912382526897342457034242558305050841995477273666253645595741860160696876615148100280146888443106424955476484599157979810471232565713505009397642639741797619309564569478118210484757261275294096663301098743801724954260412
90 2 -0.021431436356331178415510585870739667886514891293962824454568745357057468840158335422303869525480186969200974334122298907863913478182979859435976691111855590354340881304771566847983861801559751087800441210899417068516098593458705084768208156486120680493015356807753262626159053194348793523492
90 3 -0.037012671919137461674461544045931812295395072114146023740323186818695124115500335527444255679485113205326071596354716757762186350951417325639508981872950218129067718356319811832498852296013688410917479411383117235386866243136473875647044988311345893201505994667344038984089877135278996953679
90 4 0.01140974564238525080462631144818028030604197942026710947463481588351848371667323891614080164509228427693560562103152272023126502415572307256722447306922662604681977365825086289149070834564263916737964545128344877611964619321231330671749628824265016932261037752961712877291298181357522788203
90 5 -0.017247305913155405937785977912980609012543420337642452344068186256729774475311103285145276510737343986073778845288852747352515272969401821519041704594870847370198321104038845655612213493541420143482966675832428513074702326085987014022665829945006299473536158463111262287046814505016390433809
90 6 0.010608404096210437505961850208231984280459635979052865371933761655475618592673912409425482031598894590349935313851774394049667119748650992279841324467691648206661857319851705680518732253681712287791695850423444950849107767897934540629765071296088662358572952234765085071402643657825308516199
90 7 -0.02030184710306680297681724460487073674079845536006182367955481343303104253004173076104349057975481150819977797204415831388560103109456135606111599504228012624386115938657190644944713959944437217788584415086458166462154027407916090516413305356968262692350819854209494757312515217054923197869
90 8 -0.0043436411974117380975038597320386882577739511546004314457307161012389793405202812615001035893364733712608770163656067625564113500891876176744403503333503388694197904504720181125095162118241398224238011257343384914756410999220480364057635219659719704350129581200076902916723931281097551848064
90 9 0.072335410211682366697203103621499637510768848812611665091578531537699189726644066577083513376993600013676300929069725266322630338151251177875892886603131861538817698724783129055395400096457085601867984125672630795438826903126556225188479724594818259533296783452379204154679403015607684368833
90 10 0.045747256500265415502227512256040520868973372087076301184770194586130445851510738164675643589864746898242524649449086720371918502594755553204784801939618718923569102498775986961858894119635051703796325230097843493555238211786697936533353247969059495211646575198034180110331019792962423097543
91 1 -0.0060226046400798949469491490485400771654523545642319087180444721155773098761601855731041581239473578856137198259757811199093963756752623385390004449884834244680209757949719925121658272509549202371133972742384122373334883664072435451718558443411734351755113722129879547211975522600435055228526
91 2 -0.0039515741456390796965017113622982250005464532065078511393298147904373354627941671306725404489590177216070082654456493515411702830726428689533608230983860422035078239690302486951651196387433839022259693180789347772030756480278529481507934213408035921817356340760800872051851512148594043883143
91 3 -0.0051937622878711863107703340605200580679376889298441661621616998020542660087940266391727251570650728973472975062688172555468862180072469534642026802221513722780433435341761261095441027065424594389168439908876019388359021054872845084069122328276970429239530793931642065404366213591854973242314
91 4 0.0079224738871223791494467936028217224947343498218536959988822494293162079794102622381691382726090503438704213097048812034244600738820000106608210131564315613051016630689419519034452597975663250454228121491505469156901144489593366497749250820911452490200070498326338818139203211635657284217919
91 5 -0.0045716631853214178513965956483825455534440278589268918328007742636808193434088518348679738516522957238468593426864958524741940814836373735388874875228769743062768443780460658537613456525196068575624321014438163686118036751527259250740397235537801538882508385063976562859084463067655059769157
91 6 -0.0011919150194419809567000433253551476157429746602487407478102122364081584546724016775719785471081209768177240452367116210979122274925083264871127021953606576826056513039421980305009672750357545392069484818836982441473438107345620084651155523176562422891333790539871347923679798738978404149414
91 7 0.00043710957950214962846234734718929929970878694811228655379599581862027295388446977060980479823238566436660203877731158290923501129116044415248082525158581238711944412410935066260719258616659902145512943308080079140491840393764264673511864057315525265885679960290029620214261563425116071015785
91 8 0.0037414275701666930373069882481346361034777946940220106805123833750731548890514416794947165728325669688019030384193537103918798915652019523558651874136791241533906731843244018669317639637836065878062611068840253351533510596363610540804442693754349907697690295734654105737976859054528058709829
91 9 -0.0010274692894057011267464194972174615322305428754866819229129047185116243688649699934091968362574008642872076167383997744920866322651737815235071858944976697839870101474436321666320966156374459761824807382801104854928042692275714328611838375962740464136752958300207484757920918300855764365348
91 10 -0.0077423684165687802815547584304838969540999802102345915848404256595704792400661337696508397700815104820985710721802761190421230727570610009604170310845618009810164138877247798864698282819726015224293279644437288075722894309387632533662568333250603018781190129387370755080085924642555728204507
92 1 0.0098342261406455846105075224086315064816031103951453493988410416728622590650057409968334142188974991659076026709013143933848476347944841886571618410190577890573875640020261188225389860110638105526134487855518315082714064725117893525228105302748357425845890457723015779011870323894756977701291
92 2 0.012457747646163088201307678766629082109850500810967879812392684517995310392760898531325000586089427670273199513031753426484980967363356787539415446972434695743732965672952477937963254469191804258519488553419617179065571053304564176503408570267891998948264320083781969330146724635327839820065
92 3 0.031578059274484685922617256983473342076655342167910429017363571855891887126511170533450333141926310883650826646011234647618532770030724724564265472035616962687256299278905939388215872028156608790177185606329934526821029625172817347507529116840998973258488078470054694577411717263452826005884
92 4 -0.0012331210463205631798568329128207256997247142736204231441814203113846126154235735927752405031237929346048658566199209553362804810245911244864140933889944082581014848694825808128785447050881693360530669554444387184053912338445010220131218831694388560001752933176256710492334807924589101096362
92 5 0.011425773231315509513962779076580437346764231163040204782281291503466406016639701346521378406796196121424356405507594455691157689581229216083049754078983380548991344064013154311723612280934954203196989511476444379905105802082909055816321410841034047068500879543466484808909803021991834764892
92 6 -0.014265676651201915054188124241638468534968512519107807234344446193676358879345779036818243789256123992312138159859293889512907982915359003253479019278778501327555189171603741749913055641826440113543036684459359939155712476506691236190253636719686249431226683926298625818495173388892212271094
92 7 0.023477809530864899276798114219858379080521065444535020741071880526266106574427221839159736776674557852684337732122661054624747031181853883167978836102638634654972915798824150369074217912572202833024512189586647467326273144478523819484513918744877593294031921802996091360582677730664106148515
92 8 0.0090052416536090336516559896042100543884213729843877194840226233615170223595200243876826955736551740270334881524977252688696524487147291786744201834437242624529604223457611681959533098632720269399455231394489617464308027381445096412787286104078119042795096534368267572926548944822691615960847
92 9 -0.076594947553721636210784298658208466447252673667992108260759753254175285336484966602479149174741956472844888524586876963437632692588755492501855148266929285485278952097081964392284200671718625781036929181121432950967044570627327054449528139649489342060404903936098233255769325645933564690837
92 10 -0.05804620911314284812888469139294823407383885699385825938085262820268276114628194678983996743574676660222259724857403900722699026020740075379639201205055266453534622794926337892867538576791126422260399195158072094606150949141271887714707555027676393659344232124261822446883161900150583013649
93 1 -0.0021929710853158836474116598733623823402331328649534759817386831533455568047318294411764996053474646798645261415420058588779844927744979464015380249387848542634463371052635119473983538461089520358824980906046291801273151406345428100392848107055580423495490569337442201887818467773823104367746
93 2 -0.0095413293903190362000883286219724679950959101194314901821727474974144266398299636455134039213756820463880112816112015196635733453838991273859552250259437256088124727570711547312652995968621681206538484673078252393004987437003988780083310369327544577147420320158322993079547103107912176488354
93 3 -0.013302511296817966063460089395430202933194777901099445996388050527474048852191593195090939477972442198570607129588591880225101869470310504281745840619174050853355985725674365663796373369890687757553956583072834205982279670639427072366018294437576498896547355348037224308224797066503566579123
93 4 0.0027490809260516150200064089469847167609578828193290274631176618907713728570161522614988808083162226349636421549659399007906840694254447583932496136888218308774325307072855287139466228246401468074534168147856171269077245290467746880232867728709037303246800582336077580745206103078903820744272
93 5 -0.0059889064005021418517963055084843128719369210342261896281578040229354154125994235994495371737475786872301453844139260349724345857535394992564206501078749606045772404339970012311107421770003470088635020071426501939714465116295897822303275481155447769477375331825449549160703124900734302637655
93 6 0.0034961729849782944965865925343048223575531354761345631355196882266200502718687100618398874901860922335842418198916643322770619822313643921331835698438200913207855363499547318029808274461296245099312005405101001551636680058324872698415981190771210757888718180251281659037250960354498433286406
93 7 -0.0071610191752826663397325944381578858896155404825645921603175304384759059764248958012827103498350587947631351976343532791521801369969340743597487476838816123205587802148779713630095613900899597296662098137760734242835794583040512996764197026510782941266033031815288435251330259573692342297051
93 8 -0.0027310819161294510182709797024249453466849778110931470199159172116342440204138236017638346775202414873076012472658325519914045178889989200043575766432388754869600578140609391099555050581254418140231223205798444442131074140237967221525660082073287712688698024931203047363917073330251875304351
93 9 0.028354922989384481143393776739954624708739336638166948664116408666072683692503659990698488556844588097669767121572358955885564075300462498304968332541227167155811560392095236788307352498468589493826828670350392546316627813967784886048268874257033316102151761488592715258985298067723393445568
93 10 0.019324773473117488010246345267264072338834574654619836403187260308388953409427611852957836659929987665712471690232977631837667138058543805642866855521890534250492839953581485023999835862246359054916487691269530054928403547165290860868476616273927043028197714492673573881182138326188513706936
94 1 -0.0092907480253342680843536310250939241771827319274905950393855578792731893032902753254504013835134900755694099699713597922058421405780353962642049595207067050391368382648413543810902366104029583561718680287563922357843547356365712978011142247427961146123936793979037365435176474405605637031461
94 2 -0.0049288380095986078273206245064682681705764043284290779341599878292256576302613088248894266781113755929208977042187841253739903679980717146824733087025440737177901446710774157558095322060906417895300437701805923072401391116322259970992693087614724457190874244888802581710381256387175305639339
94 3 -0.040552372538723646188787964585426196027169215064001887638603296150303596897671409696293429154179650729456248226211540682123991046538495522163462586168100382127555223251915174239636986352626370379612933819358106318643481422349206690697526344468265517389073337385123268387326431165401460598748
94 4 -0.015649824799911596229189122569923755533379547216665919975114646634911738087715161865425099709684440823199475559550548031144092088712815484214015410908812331600139020878513281151217939530176103775178300101650153288646893087544714762469088341656702483344835556902176272001518722488900263599377
94 5 -0.0078088230859533942102577043940715881052307152644172998061748891084002425307707416386929795510834883068621817318427377127267743148362896995502373477585394215099542500222135890822050612775078477685395338433778860173441068115814222452859310192162788097384557565943230509576776519710736777597201
94 6 0.031224576770815260146940070312618501243482960587652582183328208719301631501931601916772883183525694875569949128186402972579948108844399965512117785077899964609622856217853790703897759157110790973385569892996072286466213759672152621546054216691724305744192697737902744054627413148231206672511
94 7 -0.044253407772765348177089090920193604807412271112164578197200767301639448117479358877715984198371907918840319332766052821939831722274080866306552067807075111497100215162627250607468874458096289600986661310121408591888175588863299633959984615961758378558388078412187087567528542063886660612036
94 8 -0.022992598033780964310273712199910603295309432307145932893523421131835164694044496149308135594203356844558109375255342521062786591634396090571846112252276693422692959712943866809484472302969258853014049010622760102866378719541292890809515425534325533654279648195826790015706369757145952818276
94 9 0.12990079238269487858421486073749023226444273528316801162995783786364416254055218004913293292402895538850720623708716431224313056104328901628972705667243910697121009612835916166150178691500293459467350277824049169306101129532166720314675112181006599011683409885083263563705849024291053238666
94 10 0.11579505993069566351878361039406684109712863948003524193707255009916192554693552376610154298205707221039869893188400745390686328950476195754924239716082209948432906705265477859581736549182227665733245674721148514948751391603636594827457296935273882298750753651684939277022787058854963617736
95 1 -0.0056167562511071116209479458287423145767408539541291995616575054773243317425640537116109466789865498823818811812189911807722560221423412216902570226049410386204096632636873596165777848419891403360255828449503434603812824810350090466650584426303684092482880448317331563521296752642672551769588
95 2 -0.0040805478449423896487446428525652782772304240283872380909965203702641736478743661871328812310024472360878595085153451753366304247379177525058571466231255157855125667230056205059595895990202217258578132932172112561267004087823796032597276211919218963505415907610499698110827638014497223732371
95 3 -0.018862023071270243141292660094764759686066843502988274326711826983104065341198849268200429251437384328387735460258501378068292930519007801452116686322800365365110691101548469010975554090765623924491970373918575125180139362683185405377792596744156582653099903917973560660049138429178532571856
95 4 -0.0034816048726632518477535465580064221951803351398631928917185093134864468983264067995196707704090570665304074409457900113122874290777701638139140859435750508658033516104639247767806026271201238382338596533469713635557397065647879655022164012815208324265496480857075341635200130840015443004526
95 5 -0.0050610947876341093504993099016800206632810494828121389307140976206651314951273735596646314171068140894330808729095613565312249770092507549844414954315616347434330618990662442758606246416817594149831271857852717967447342892293289043857678805771435954339288799714478082957161997700176903413572
95 6 0.011928294329856742793942867681658693537905616325161346940003196719519697203910052988704212300717211998490886587552211910898897107019030129819481587980893762135985538266530328742498045278098615387779329470589050235056725707372841537613856781611103859770799938851632254903271737539343405314979
95 7 -0.017704067798604045779798500374504407747914881647186363659188406235251613039090471956381370622217531615802584220618321550762462030792096991459104245332618487574526560938697948246370502087385888543424298524270160573596414844376581432167607768058780297281363980776345355005787401019781866821128
95 8 -0.008083144087393682701495412748716713400927778309020487930021417992075888034076069891830501221851564374816758171725238097188673971739575223398356645696224622372812329160683674925842800685870379794147366523295811078274840554831046793869494480737799042046425069983484890493494370573844210737984
95 9 0.053461399699376151522837757308560413611877990917258030494271063250752336715125978367919173381031684055708342332594701989264293071185556569025868685055389363425043118629176285011356130254317040508712832639820756637512624111817192653647268637626702309389776023790928473673153041922372155195689
95 10 0.044768833470269356569780085672669903100700136692873811971937414641231749321273194076174752701401946894494462217796579874646344358000792889087029068162307006934147242271672130132033541252781618868453719309265113163954190050878156887011396069994801118461951206922320039292040102182844959704841
96 1 -0.0038098576994925640731956928996801556945153977400011396163875721395094661123228777552952896998573724798278269632978513744320158188511887007437942158046601170953335995793984266782085048240373752042609714994528397134475791079266163475376910309033989673660217829465569904025276540213124664445426
96 2 -0.0005827350819476495150589916217765084053352501716117539043329522555230082745520153455403979055872304932161346863173066841442186248271865949360173534006213914289657930573757217400959436429610892818834415600184929398707389419856909961147430634853629596856181869528199629006839738721994600805751
96 3 -0.008036808903359485274727771686880877756971626707018080285987004473377266282126918136590206796730818814125152542802694128159610232785054220971973041666186425400942633296613685332019180454945115222803332362947761308726965663006063669422257949344388645816649863624976561527958066710931046556914
96 4 -0.00094394942061439734241185849660812953014844030983763443840630208522586174818479508409676889271474208589562821780161741563261476937614274173990020046557341829373582515841717169769305844868227860730423589643366494081420830137759067225118782845391597129077072609518241730838426841855504843566862
96 5 -0.002231093277443898433893656293345647129618551733374291050820210504324694833145150153765640838898148814303598543530554628198228260622907431050795468128991909581360794659941711942540785217268006234932667330186247139636075120265798039355614998700440739715807049662804392251115275250457562001731
96 6 0.0053868552115604419587391355869094569810238613510375146469566576435370334633130290211110173283426118781201047133623127124534278446680007811729287519279631344984950704651763048708814421113042736741617710285405980436832192215619796626983570564666098878918630115760005654496851970027746522113983
96 7 -0.0078159966689602628872882622299448542988485460266303430421952017645454439437329368289071578083433528415005461598365838535660839035680489320481913809365710729134595814194875249588821498431951046255734436004394891095393283833013721724290766529704025382520208943846996216271599378745061199204899
96 8 -0.0029537084011211669832931055618656273468678495611089765870267928856851346680993772680216510132474558561674880937775210828598298388070404098085958416493258793296895186753815259859326708840381745069098680657256110330096080739685579882870603412939225220878126153842391029955700702254061695177144
96 9 0.021815689792439845530656622440022094533987893948289482956192637758901394181146958321064771106692907068687894437015147721947536739661417888878288613912678560921797926483612975126545962124835112316445389876262407160767405875507174210791960878548534784509111894195962950031299500049914932015062
96 10 0.017955892075952442423538136155190979938201518434082249657530484984276235069535336141293132571459038664479621578800648870271356709637339823871110059649720060505754159037515891912689735010848710525890847737708166938097995318481154483368736710398749445969440936217805084044150429327291350843437
97 1 -0.0031102966624404945492242781447142846714583646401581173973076370705843223448586550752309957743660856201088667637963419384213018136575581519521461245035934924486511866354886179392516014887602371845891482632691520159310368755923924525994561793614510117455641790772665264171804250849867728289412
97 2 -9.9530021373051141384220803623466402660601899042945589840141815546106996635819067726409966065754813318176684399985519560758856140262903210351855273481138526600232818725909040639257213334208022015089472449338256708483705883306656342635920364149854116903926671354546693977385723105530650296256e-05
97 3 -0.01678556936824057685841955695702022108254658624126693366561178924714244850716993467058825786305623224859393537340464581777489800800507004444737848729924225621644443494901987691982227423068996326278574752258851655812916428152142330932604352932319174506495337014034307454669546699579259428814
97 4 -0.009891092179293767159083340561471589500222907920878230533373294242284501974053248451697485939848795144469136040316788760530720335060550454529013263686072067033362185102047790947671338661737265029248388136701193208916195269582982412966663282433987779903170268284982838299160624323322351545922
97 5 -0.0018328245359833642574523777504424008952722237458942822902500258940964958648902027049705630021221417578867747743140405732853561948790809204428381136022605447107438062397784733096214096092803652974391629538689725657647274228273438636101495291918565636328499538563443679309634681545616429159873
97 6 0.015851858276047849520919693936170492320025285589580485425479951653381100341005805188879680402123436708674996944615311479630716096437415365177067743924327858655277068225450669188984958838893231939111979201275658471976845494679663212235917761008077088658317486076589398933920671330106551032965
97 7 -0.02133895756580012609108830939642107501657028162523406741215075445225271498171416964830076694538240459610052009582427529293025029201566493468990601252495629614437281826455973194638424377608399491907205134560523253679926805854245035406314205723213518553706209370017982889204685792712170021815
97 8 -0.011908012084774484123174727671801939926933418117187119818643638861327948492393290579514600707489941275522025321282425925071650553137846717750833966932051330465994926987224733537593082540834677973261129857373138805711482189405171233117496972239489902600777899187877992451021259885578991386398
97 9 0.060293601381387190363528350986081370584908081265902951536524758372931082407944045200476357541026146785349315130940737604693423142565778375078396204700972109797852834717659025158106469842302864449937179328782213660827824583523662138229077254430382760411616800444534007822791970350738966861464
97 10 0.056592678018913585567108652292010517823801706271384106082097593079774980280230066462896835587264285632579571718249096846620609357172508960323706784534426629446126832624453869858410435958400121573229783070022775221537128027622531985936155899657107395284046332582019144554749875678115872995335
98 1 -0.0064634179621570480402726353547025498114402137318519606864999983108289134089089675357102312069328914262633396340698814889325519606385566979210623125400160482396986929499455517107054457455003693467730460946820813438762811156108066451524954506828606566194893081220902898942317813317443239925553
98 2 -0.008106927127906549350894514001297380453907625939667797397401922896171796950481903889040348553210147715858469231032142427555414295883431043637325334550435084103196831589592014338522293056740568678484101316700106037159224973327915279291105652967990944355181264502244253227945681829290497950021
98 3 -0.0080916007228988360140380437453781622981683314727677892373965917437383918899006651533821340601073023453886095578860906229888798818328222033652715694881385620082383078864284819792680813684948508788996451793447088195600802173382026887430847035559336989205135730944044801860729653083640108410847
98 4 0.01071186903278105613118498780641698929408113438157454561648269778231621937422719080430964903443616823724908248677145397497257623807186530710014996485027410220059006513664295713899792670906922158836182533943253019673306778571197053496580106317778105214336383583292811253038207120212824219473
98 5 -0.0068111099539521171170667750257611884464018512471550093240765101775931718847230827600866894241568252079805947146020271624298609122708993654031149402059193171092199274539295600753968274533187667034676035446497668164874671702741623427404130254510105482025949215737343418261031238140296186711527
98 6 -0.0018436238300957393571357242524665351989313019071144045351255069361261949072130257705668844687956644243743260697350129987680504369180191669091014308874292587346952829391052039602892010101996326487929540243756405348758744647408310435569487909934835397428319495692893660043486890791264231270096
98 7 0.00053034734439670819247585875959661912735048084748562577693494514774713262467781816405761608344642549219583013950018937741946560228705064716213714490722629811934841306490994100560392400492151281942483995773312865289240004673393374128793545985659874408529434717554868970247406729711098444381698
98 8 0.0043811680130877933092828964447451786087942290799095662266932862496875678740979400271288391819747328432303800366435387275460511526580123878047978692282221044234550333817587936742299030955576321222107547193073864774639910641395899508366444003581443225468121395830484908296246439287893472171453
98 9 0.0013545183411951171166785459952731167767954057584398043363059059226162876073709470214551457716097976482163409473793520195648745920050302635579435383122330799103531236906487952636715354009005640840248271986355063385071357220416043154646373378157956721704035013290564659948673387827371634399683
98 10 -0.0082946841526302044158866121375114886352540007169085523607718321326618313154350759010544039180814199345121753949976333477738078558653640311115454316861246196944052705682623355127525495265569310835145691494723103854845511285346113845494979739935415373070552741518779773325178205978077446810383
99 1 0.0039559350847183007134884187076782199965069654428200389003815898421175744384099580973243634422587713719545082137346681652588589958790905168878778351125695425609892626364359264429479042334396613602618439659427037665223156605344180972377061119076220803079419885656260291985458508858139019243951
99 2 0.0054155988612961831632608143827706615133115641545413430521442614115448878992148735948315056952235579091511358500456822377696615664235810573000035444563740320350560404388179585120971386950978198926293847354747960122309003645361507529762128865897059017207666155404428628963543057786119841096315
99 3 0.0066204384925235278148525045042763073221494179802244965037329537917903455294267598585726040513561999034125897818157730992337983127888802293146282339275992172023998742907481628834676884135211687571026127247825404195603035706618419946012306264921844747085199989484291244333344133820099950101576
99 4 -0.0062353130638370932746149444576230658322210518357640873029949419601406759218515674805306848461334534017850186476325433645188680815594278023376034791154002498262232065203559019845256509162067117900615448470193249046689988936903704185477511654202790959632789361718199371989617112252304698894288
99 5 0.0046871808059183098533424384106556003649255267194478664501213102735695176148082220140878443711913885383788019629903654692608231064352501596304318210223392056863117337134934717476020299924100341027535399909324858149117878858683578951441151921615392967575165079017735959637199076721893473593647
99 6 0.0016071866309338128592603664887929915372787169920988306739169175584896038008701160367458081966590264765286142336185949553370407106594887233750900804928937693763995134692610915138981199840265967784919076222177405753399886656139786584952910982905445251849831826250871332311393851766774146111146
99 7 3.7973045663935448551559429552831232745657612997458902967621479690278119034869960741323232710498225625427986291956313139807224985002085653733436461750853877363570196325318328497405525212980953713144549366627491036278780961109231107810877239923108796317323399354745728982965002159088653288409e-06
99 8 -0.0023436094451848653987433646794372573922036395267698225739775950959529969215918108539444279103306972349472240329565147196424345449750251646918781286397717050910378857911692146221605271168162286711882914650069064338600630122414180546917069931796733001454678566448249757434363628680938862374928
99 9 -0.0048149499235764218168720408561038633244872906273515423441229025406303595885724752670382948964961482512890895342576880748157100804394719733273921808394202529359899020319831706809295038956029090790785139312099045433300592115965312802802758526176826212952815492518773927652237028675316912733183
99 10 0.002690944445009468822579142906059474613035265267763456817792114056796473307064582458515902659028245369674576016806266899892881220414962465569112692358755288416662438740023584069978355913004383576813679426918144939096275347741468293343690318876808496418867880614071321804346446474309677870973
100 1 -0.0084400557621789417420531070344218170952276172281631572482727598360602579308175332210315011411375015820069020435001510528538833442419192731441504951846161405317925848848287908544437728855442705928119769161883487805723428436612158951251090886328241624704722560844851918930104612056564356539637
100 2 -0.0083195961748587704379561520327789372025391280680916911946957510631229488614907724646299546165099411410486197088697396395420502881623117187034362126274532732898775410731735994141140576737522732532288887289659299268212597103622669695954062654883886334837600025515266808524400644184117192608109
100 3 -0.029403530007541460140551256797948354363703812007657439111907837253565969958136592302591921889820307929005370424996431046997851424032103040779096075939863950140849318818687831386657391541201518359447966945354464247366078209317565820782799596403284137597029420201162399296457947713630193881542
100 4 -0.0038856165195899785835485247498602872154884788361220916328073109990072702454452642935698344736753180607062359187879312314493379481456421732386486356414772182857753537956332308651928235401117718463986761274402341437330791167998780667507283522341899644012602334318656847938121805873134131219166
100 5 -0.0085326805722152399539664200376363772463233605738427309182309038235607654487247408784927250945937721112596800734795220739223048966913585634520427894353773463444572724782459634938949781271832073693840538728908940731500647827148056630822489600318208007688143020855864115105141506369712421600473
100 6 0.017863347017627839786557564418709644761192867806988000429008715927898820613243711584368490864361132130587385399024309281487870010985616010773778165646781615640147341212330254350400868634327014079937411249626531591582504985170014392104160482794037333814667786650774894935127008896341988338042
100 7 -0.026564666390279805641256409729674886408068144749320483341567450399448684361097228666099817621118837954891478900001438687831361675629500989129484353628907529391202913421846383996395917490969953029281937523587765048483549915173417217297774954439183235374039901519229615906621893219594014954782
100 8 -0.011892133317570417778945829007368980281233186300882407234828418958963537820620429216925580830861625124424875226311928096141643106322427441818508266066428038245246816018201534827120833071583866792935410449422813100489606933226565820090989742567675519864398174167823571109712598491860498142595
100 9 0.080953632728822891763137094486257428609430153624410827616669013877568556605604994245611476011657745142110861597535841405854730215998005003319929172927331581564454018921198673259820457867471854149229347068685282102601044899302245635652944653848899823026001100403920421645983242742839159104059
100 10 0.06692542587367009918470002443268423778902054427266122557865581898054291986416802996613245847848110132165826764555209255911669565466948378193328613431937071184242512419744696033575643027405550115897580678154509506952841342170870537827643311379458807331652242922495416830919889944619745692833
