100 10 1000
1 1 0.004772339249466723870281095383030302532436876722429170155929874434880882246985833034538769515594148878340995274381719512960230912500554376354271761909971324103139266007690131683730071229245263331524310714530506474602839427042255989952729410642959272116144804348585498172642009777195638298913
1 2 0.013034349811121196151951848053961979142721013181873258907402797177443982134402564381073709428472403777136651041600202964991674923842954945668457520889051905861095758111068785556102641217356059546759783571366709791815208792236625659201179829083049154339012888736569928330524090569428384625062
1 3 0.013999528175265972452933506465983861381772425202241124779467002481817939246690874415024938072678580666273471576306404480622567791850417321012609426224676609068381783832828891192855335845237722799338579024889876379609455925576656630808542436008667248551800875808614036931621223324583098130339
1 4 -0.0094416949221816034276961305158252957834992376158023814525623220053489029878560345514492924593431259843965133811512272672166311167529783251155170112850920223730086616345739163541853278981473460240696662414613860718880163839786924030349074804784739363772616991251276895644034976433575181360802
1 5 0.0087187374831082306082908690958693459921292799631936021964819839367691055900876136090927528183954459583076473791508869697554674093319957004942280860416301016020144274260407037113609268374945532070760443986858063265537050951305739041463756972450001941801485997508746726390107693103845493101771
1 6 0.00022419554002499858596023551907957269392944522903397750821364923531730011858156467101223022175313663194661232020570310702558434912485841147925392240063145032908279584578338361008987976804414479267417147172449808773130487372361054748154177007656898049777735305656480360789591564751163174673194
1 7 0.0030258400867558196731336868648697881325325412207197278916246424298022310484361985022841548078116636596872705217629116678547325650180562330043211111059950666621569516115433927177866277812353511656923816138611517264596820922072965747198990032962956153048350352021949336757582065676421766951667
1 8 -0.0015031642892282970126133136185245698848357466925468008515996093449785867628557514093587206950477329854808221119712251295972413296048623172865591043476757706098867790966284557733636293939207109813476018222429705880191704358638034538302025831620062038013406440757554179456839533929872570873364
1 9 -0.018137549397171281596028690485789196668384278322517784538319119678215403871301106100457227828192514209785377042547799544613043148357131989040579201539476349600026300425591920600891871797649294834096985551220606482651934849964311144563736411923168690482242005109781958347654536153512193583199
1 10 -0.0052471640394841025756619532940966202625621558323636631339448360505807550832745218227471493206970355247148822202939458957358133371506448764677226855317383783122737081111152897879220845418781292727787596245406660721095926667674861214443458037245154881548751232731216648355569453547722856383758
2 1 -0.0095700674864343747757768878986330984458672478243632684917786982177107025953255613654583003201616285652115334513259364252267770923304135751060435523537121535333934026322402640470135462591961531451141389244128515521593539308530961911602426066054859082358898154664201514967788312133584655645262
2 2 -0.012276992003562280892987986977841375733307666412147050839353466416874531013711421618380618585320276728478352534330990799605782050337499147117911237762510457489393142626990767130508501100974246578877808159297772537445803930198306173000752107601441028072360663682096795494876839161543126043441
2 3 -0.039677191759280887564923986475476610067512807871598211006047814024127993603370491339916145959480200652991996793985466661469891226917907422422189846122483737302430035389799862173957067673100560892630041154417611594929257337877412038122950553622585982460694382740577352240861779264026786832248
2 4 -0.0062237480130957507564613473386705964634646153359867172779071045943610225779219751458331228542039346269964401370676957059254006440402308871162630418709731402278425098569387199903534891321736821292908752456163574969443879832124684266096906249027723957742923838966190594566285597405315892440229
2 5 -0.011400592623163792594447031291285134953654672031034740079212221116743780440724927233327312861657496061895646431649349340302992385109169476569912365077990960907202145055836018777349114583826384658580701743761600061860684558380066903521483349788913738763825292205411731422156755772026945511929
2 6 0.023472998931226773751929480173863572253780130652138240209855237970283922594260962589921912991568145870250446496586726602966627037230741701919801129096335338526711314572416919877828827195309648832520432330317148206120027700016513823301740140672575208349320094895149031258580598971619455218637
2 7 -0.03550133257352491478096288804990689757698111575987973465298091529687596179997891909798599520053517467373606397597749143684394918039006509857192845288782668591389477276737815399292918279410997543380171572585278768094623265283617683929320376265562107394681942475562205576655307203508904660597
2 8 -0.016750776870118448754765181794789460741754558165976771858186297030780767022564076711431455074845139998516038517467237916738715643390017644836514482128616753889745439121775417236929686790918468396107951085758660309147059635485048701342957225930111898288459384870746139569277749878905168822798
2 9 0.11068861798310452255390735282043495084155045029814316096922119221539647720618819978680385716197231207823629169130169050597088162715380110021106157494256561549737732307846939016410169209103747757581191706937884869442930168058569491356994349798629079634628800323319132354481884993244287908238
2 10 0.091885394263982792540119171014103249284758894659792066997353999833222986590492112460465514140804643447753138068860985745849809319915270280130855466938457476509146748528697303281004508481570003397137940648803364140978910338547567217581445168499348295476647084668880704276589212850007318911996
3 1 0.0077029591810305764794367160928521591265815918505855807201716893618198077102318434431911492872109242625074769607647046202252070206429155496488872617804355229278411908521075738670964028843837891969581072209846125335413274587126011338835477275342374965102930184950167827175038300750520822314465
3 2 0.012490762405506387074913462748057816805453071800985165569495144090510656241406325886245287180096494112689333630327383296891701697582512096933208473045391660648562209844001980585059912823484389468851603023825649787251054708342239868883190575426263004067569645796124207355766067601497628307576
3 3 0.035384153869718445202880673811309927494381223890426227266922773814764986001276065083817024283834864931260434077210353106982520701973915965128807871140683694565616973233138760767459928241483571490541524288014041973191756730355836875639330644876251008229716650931324241204337196493865547813374
3 4 0.0047999699416184087711320284738499445648442805377774009831204920221306494446015557192799737957279058261965614617384207890458749950123422617388215266781274668479496515657678274335036933524154507006410391084863129669544644433175376291661811824742931318239148476608697554549560007357674006463269
3 5 0.010565515604070283143457358581698616033395283923553760717436363360173996914172206012550344370838849931949089563795349960780580052402901385480283297285370716200816068883746486168532141423028155063228436972445794308073733270974138996933558566047688259649873003357443014957318144261071302019164
3 6 -0.019680602085044678915442257009242859597709974943121882739591736085694631053679768098751712887338746966925566407695538485507980777662706922926294230880465954681711013164873578074109367391745780924281375320071642976668267404600753832953683486790751551655266534054821843889174510920842817363306
3 7 0.030381502694956962629847012900687144695402798357713169761238966958235108616211079988290673156130837342497071345758028492015108608320085352224673735985263538119679603663404543128559800538581013048056351340954585099851457335784346074714600615146641726730308799618509888722436641390972574527721
3 8 0.014480845365931902726627967822618866449847678775920559363080086434737315926125053282632404074158968933691547532683420811378768643978974329310771219994004251613442603790443270198384970347542626849826213086153915618427982023017591369820886704836545369461965132798772964637576675841031508430083
3 9 -0.097228696800491941636587096660218873170085139101054061504364111588870528905899358745854396781497621718974818784874657617931708340883448132977864586279169852634684282707347384364927514576915448159901573463758658215341229966280616389695698457076292375423335292428092164354704149867296852325159
3 10 -0.079822665160686249805709919874581667932721709597717601197629506922594700925397154244408351123356778917694700835186945846394056017700589989657645450051347910837185719609552469758193322487209462643991066522907777512462217511387634522464516478040032971972425337337332121247239823830568238798059
4 1 0.00059004964637474189180543192640762862984542355704683203799439801882603584910537269316053983050972464403993784540106889256004288587707261747759890888899884753728965695611854647601740456914309750719631823548255451930985902627529002445841244711584461813833728463779660728361755095910746987932439
4 2 0.0090519414842904966834091253640791062215859000726271597318790873217122242948334151049309892360479272325244426019905368563996948874538710411185735480076290338386857768853852754225367941603155295621147955566728458655917604171031395914169241876317895751912280136227189455589964231790434558462053
4 3 0.0078637122919112657111964190591984354446825971334491944967672338776445344916173874753562968814326896228850051632582828170658590108178258987353297519322315232370492189897161232643112677444410679038353600655056830916479617763862881868753068109713601582374844528261898134019240629723758063289856
4 4 -0.0046638586355106359781565258305952738214606271581316548294111522277010863195158798541819611682965325285512212167694594997288414497784514830782621552291050813093791879943712129902833505342562863087791500812126265323508148643923273918340438290111739642502274745548713398868384239598521232934857
4 5 0.0048610038574636139995067286618587528137735842003421106331115316580632692019147920277421625362038348455803251458531425350481378994742586968649464588904585746063731418225765893321973734060025963677371065723052523417141518373849744248469773734682723598155817987376506060072377974653988759944364
4 6 0.00098729767364808614243953924023282594843500331993605480304590481532998024043952890552405155266783918267063384473189786655831333417626478278225882374036889614080298986602524758592678351094437394054834893972033185575183496709270527429940524893202052493787798535944656754353356811720322963390537
4 7 0.00094938347911535642650435527565874170380599499345578833324483898132438674799437759164716125202964740466167213067832191193585629617655964000029652332042185971596706337973008131927177280502873490522995863075462281378163422795709598265231986444124206734307962942735564195736829105335223339047385
4 8 -0.00031029691440748579530513279451646968712791979140388047020413315766211543328981451450525052169135193331099974184769886132117391677036977428594061627483067208182867749300143941065500286915851759822449726174396034814861067733930211162141622303752835284327821141820454001199478807519276252023476
4 9 -0.011149176979796893505572929253456361295020900507837636786164106744157253332194105651879733736049488150954058605368904460952656733929980496545631975156127240435311362946740931348274247775219721543242920374274622524420095915966905129176009667126356947076239993421535928249440079632178136356591
4 10 -0.0038858352201466411550599385958085480572043915153419199459654634783216822916883370095802213681032851488498358682530347002383381285495784229897592202675785111890872700519655210182507199084001717729765714064867619315615501406302222301738900783099834017329313915247479148055394036487333039148866
5 1 -0.0023659025340730609141542431284384651923276119661172174231853534897264280828008610374472335739975330923037031785730092625984298521540229031218545746549174058255296728433337949853071626759805684496294461344460225346167136702722868898968866484126810956773391271021728152840696970262005453688688
5 2 0.0025012295793360134990936975694328181806148083614916390874489857603077743196150222014435343876043541763073834503102944869832118643771435912525873470839152225338120280040399440599893398681000787301360614591900158597501027444792234255045255404289669190548662419673004366410292877721753906659315
5 3 0.0019301877620484375415863903339607289918134863442050790211642607517500681670475732156781130032992784732625364152125488277286773759663973279403600940190920844507615095699648008009527562581083238395406667271774865304009669461012593716309569695965732074267655379560145159393298184262647048240597
5 4 0.0018203178518674670417139815286410976925227201392618356835608062081273128819079206840040702060666128666372169718776216515883251739797014625765535933402684247660481870002663222375358294534221151553876363601931754266227508550948931362028772328900519488471071100290703918072854422725912727922255
5 5 0.00024476666193062935480877371865714751653207535338857288033961184247128817907815854929287685067786382351040724608332210117074123140585109825970284655221865390122188545250195019022641429956861674959028378729525324178789810767214507509117194770205505021226622512302213076302436278927859477083071
5 6 -0.00087880128380793717539389084576005432065522394800972645887503753290775434692622757894758183952042249084444895830230965011050274463991328721601226315097984595252826396293043847920110893043856769186458415819512755306510031285901200205040135714880560144819494232227642930556824988128777048804464
5 7 0.0016007021432049356033131425485867861674901518916804602639684061036983158764988722818197170594831121609803692023295272560423425293398920091700988983721731153001535055006200448734651656185405091468042370311942121799342862892666887338650011144765179834375576302026287212294838890031915979524733
5 8 0.0020858757180620647529692093475314025323568481216975864718088924654265876018162160074389015236196591047279203846728438065058235185707158624397543833024442960174590506847423283172953701330157068397904028684013285511608829286825977308951552505658861317024222626022330386986801459627355299959498
5 9 -0.0080772648432535967917423656874526667652033390916206589819938755604912517236663862957980112656923857749631483867747327560444703412023909730443519001988635451938659450523754959970923343127169959159360330447864946153121184665617145651935755713270381003177977129341279926227065920100405749066537
5 10 -0.0077381483523585640163413017172416692264248101630721963120149413000567797657394105332701796956722983865637036226670922642888699896489497085775952182137258332977309577170659406690510597117377837173814932578628356086011922405939514857386071551107555208024251601405976793760253317272187382164404
6 1 -0.004017231689419396375550929082533834706353563597061921305229277389333100797773321229826148377583341238006651869925187000681322410093766093483073374686864382012294219799500686794931288051086265488766858565309397672317746820119209282056263566516259617123252418323263832715967004898155024074196
6 2 -0.0024853257566134431131349983231247396272046703018617094833482415106244613071240592252476866694379234192486608720913715779914539012707677411254600586698390093375378588824389331247681592563431180317351645295751213679503196851086046268893117871805036467130737589167311677898584616051919410211284
6 3 -0.010309887858307378300356067838090228388829939588100328562754244070817418307058408248808637579380457139806754182931805695434494542698854103288187907126760407584193122999901379034258583955343704902373322677110851224432928224626818479908850167411441666036690658292768945754238193885024573855126
6 4 -0.00046019867343522525371784065666544883963099823150811949982689185510598077741368632537143235648863457280280485515204452432345260494026448546263960442249897070315220300106706970379678246642371615012945458957061125678830886101843171501095721312480461461420461737481244510317197504932223553913146
6 5 -0.0032666419719930426406180343664297570363218399652395087277374409231324991532520861008736842980684078730547518677558954562911617407181526808181001339353405460370877961648320957558955550226865713011408330695425813266035729626099608027134972180734296400848616150522843737292667399212345607535001
6 6 0.0060315976067286259333073532136478997538728623372595599381223277327380857823790287009014611347231681624728390082489476857852276338649656398785142285522852122671819844160988995004098478399120284477314848016255459573263806285976333027502370443105397828917312169303736405990795547296158539841493
6 7 -0.0090373535575197720093924757093691578925172996539188589161537842466808828821776875194664038855838225628111365070553162067747549583066214159401019239322707112078423819508220178260541994648634457432227600433606726177491089430947096467406442099881067675676295842235259432753583472334518928588437
6 8 -0.0034737745138639764872477519230539118161477424108809668506506941663372994568172906238811083248089879224055377082770663722834809849403745088474384110986552168117077199963371694089447859333465360008528860211641882568046082462591559805694135151900534817928080350485779686392374908634719278899851
6 9 0.026743506388808241520994166004882108486597453398174154344602581553076476029672957792648179388418713027721990758931139815090516154820629493961105494690531204738830697422452584102156719853110961867536254729349181240672165315652988389601670006581385185089378570909919377324035328163499232145901
6 10 0.021392244273448366875438159669853621540499376076722948093617470136670943373035579786937202777894549654950185533423124620359160699174736519972822740288464623858879114269383327009905059766104925730914688838553932299822621898269538142963228603175586545558748356443651795397919784350697737533985
7 1 -0.014352018580571692806415486830634607807003031150151616606197994582683540069769425649855587023870328662736155138455062555831978493327118117090744332317611624101994308169924272026253042254464831653630146789431454493297232174509041485410072594830459044349014464959252288041197689613624742952763
7 2 -0.017327210300020281270978102347689319594518511146967550074080140776981743290682555847201451370405745267453439746685813136367197876557904469063066527184022398290907669803929377549845966592028482136588033264721237227282364902731148851661998019423469844775108149406860854648291177861540252055627
7 3 -0.041989173759166863542152423220569818511720264772559844245030671782839756338126050893163361814644319406457626646212612741970193152500025163938470073444868184138089029792870624870489239974618455576600513089446559349441081760230470221233735855970760153670476537336456445641552925192714405856736
7 4 0.0038906025422546397613536953395422175461078271684905344674568785062929361986910629125668576522889452101995406110799989731262416107639215451024601661821219543007025897267520957180920542604245498346129614655621407528829074109893757103747700696084416164627507726803983824605116006387403982867814
7 5 -0.015982629497354708301849554464641858379440931154210403138408901810492900780929443158131489257740974616919452776271645473461657833339139164103812442060724289255186283180119118704570381346819685695020396213259442579233979708465888046391276382884178071453668325434645054332663388768675077142992
7 6 0.018445094660877618010249920738078013284477462540814680295909708606701293339433083436131916885438842959379352091241138103704553119817283702980112021896860180036551432261862886600153767437773267549668242434623546358214534523210046832353214493170197425753830406164598914754765174951736027338374
7 7 -0.030361843258397384896989401427819774816201477791744518665869247250114224461779654638129918678865059529055906418551056827764467121591939407666200287927636622750521767890617871286786246144845723386638591522313755267820158621021935875462284064353110313958793069124216916008325086212203441045547
7 8 -0.010631063123454754499586017262780598654993890701419291749291895351009911174095338940159125059386926598066461956852894338281562830736196961075758514937215685230832408785238393766351522674014533080824033948989610610598135255559332822424225261233813962421667059461847422598715048758694553054378
7 9 0.09818473699234025425268251094304015900661001356736671277870468475694206672651834639174350710921007078422140922652705989302620952833052586093645932083610104860864020935919489287759904722207248734995610130355529635192868607215052212397326450787286339254937633153023417944817185293058098593892
7 10 0.072764291971633253480902538508541202270296885763583152068467087314605046668768908813706406108601635668626651905129823029938464293187889874053429651133405842247213475551407481723419366641360553962643087014316287510027883676071314960706174759904442050953723895779785184915188719491814160853801
8 1 0.0062146639981673453198086457438223736771926578014763818020553775699890316326912130608724207427297167794674823185994435271578473313948498106844785514137765869079813680070502614964281068277968601518890139486656906186780959452464228386128533962791610267740896379116539999348326093115558864820188
8 2 0.011252531178106087491815787841203154427980318281544568234628273099875430779203872363696415247425180155724479804729374043910951361657322416220598140714399288770551119444695362798520203515584091084503481536824832405090199682976878383807159817743040885834301371935350273703865849761911270317161
8 3 0.020305555172901504172413929705701728796838224509862379076918010124379125930557306812567246570027875537602895855536158201420982196139331803777782019845345854528829777246574433823019511745478815919204574829005640715203861757393442109383570893579560895850315077184712172200804851012163883196634
8 4 -0.0043185214456570520712168815413187019204741003637213785072986514754920321078434276577341967518688911642383399873127967284164953398828353056866932698789923481759454189238478966620061123495517701487142364063935302101892535627512284112321640148691993257196378765182765212869233539472578969485531
8 5 0.0088321158914841235526382600763308143899053699738888830878216517656873232325486070378705502792603261471855656570894992366301964712697965302895934030356640927694646618129493232582877569933775875807906047113185649193903862737163776909304059494226611305072162509891271643388296690176481238340717
8 6 -0.0062710883610474631447089027421903264485779567420118689976777357325731179850460462274945795843503788731710762436295496265827563203432562560985744837730203929191175556072970177754200405972250295493673044174521337531355701781617063531853934018259823956424331537900014993141747367454019359917674
8 7 0.011904303010287168930118303065492056068676055669639508204806573814099087424661849423288856260932139152522486748464130740102535953682086469935593717456607780090197020607395600849215654250757701713425084250392204193805172828469366795694278228592407132864795418146263874524864250221119921130285
8 8 0.00358857628381234367004479709198086314660634911533074527319372644999626614470758894066857061500550453755470617417343400700900322479511731789966856095229951795636667518850677735081278904948182575026212770913134283661547601607572084323787279072405469841703099563015801654243161507497103167343
8 9 -0.042898093619269641537556538226141240139132430293685431233779903577161017159007842240768791322537223726788035724680426142732807081021600568302628206452093573327150379897784609746296769414065288580307112870466289460805559031504700731768819708055741124409186875640262985878299263526516362392294
8 10 -0.028988918016191017603864692473749479389966885070578863636656719209175238144205956107959525630386528584306909486103717170267849735618363883442811835615704422280908391371696591768466284193194341071929057125616017247172732194239319339046844845421255774392402017311774375790982913232968048078896
9 1 -0.0015139670621602431473501123844340883452207730658730753702863212965010552266487174826730577357328636397749602196787762755042764020693727971091488643792515856101766236580098897715787590503485678963658725262999728699292814245272120626511130332090449497037988455284501544664435383281586671581987
9 2 -0.0032222369003834488369633307777542082706238207880547240854972232801064950759767142959749979316019992598232317013020310883633885951206847351747550151745178068751103547756576369736753490534840668837610046512956341932361424309459406601190105816705907329361632470342423482415319310753090948047135
9 3 -0.010951940476385733550685995197583769045580485754311489720434161159408833328677324373785850035525116089515025601081482509973348523391331000833738558657642076495345798618806349616900839662401131712928825207346316419228128350613334824223059970591068191931075279835331443733134952673029256197174
9 4 -0.0033666701789289802426045627601057233376686458241542845333634293002759929079953033946710343598595525079030099836215349453076184814666477696464520907464996519237638440893763794552284676698744262900700421623977717810675219825967993280640201950492135162223399596585417725604496978227065216329634
9 5 -0.00257919854428818814228962380343180001071551891096652020194737470911835527490928238892050478190729849437690100894733687252320068793485769611631072468284368468873431561340873531332192337297330076743500405882785473376445011782638402149493806640035747651498404013906296238286972604752770384862
9 6 0.0072199545126453986754535784258409684576109829563044566856433806060149276594017833966294461832544609158634549087577678186357528980778649186449841873847100204228571609399138979083273917307870637673112514569094256079955040355016476423803096235406618360801431461959695673435439571274090827919024
9 7 -0.010670250849226596883121203099453901979678394654632783147557857968178452243912846326765231795811327561361522522270788145586652278494283026306671207863097904648262401767550069869609038206011947727186837256749192534257566842309584803466906328702430941851731559879613039094110906818046135995513
9 8 -0.0057815602775622086208096599272960363937078091457378501454782725795645932148741334644731819848060027651275905573043635274129523977560588708593450174122970406545188615143757647703152623313131517675182948399774036648843398708907129655098750556130866944654009857747347523307735789418940397184973
9 9 0.033504908059523786171936524386065934496250072265182011051123146400796187933722414516371284011614130654879651970145262189755950167914875731458724886236043536711098309774005208053318886573235703474053522903612925486467757207364315387806116398633505340251254599572346134110750916650831264221523
9 10 0.029126416313187758776110690087262289291269996256758688183398350498225780515617980016503406575022814100979610343574026085283343391874074431496694618149276550989062235000798737065752470562789470610865969568221862220847460620814577175581017230580692795723179881937802248036811326275427276940495
10 1 0.023611383504559842698271722816451575993890717971346196971073222426280268021884002762521877283284594758339573128478558860920800599166342111312253546703797497848160157970300144935582994410978208062992910619387793299913811311517636913391169871578654079219057604766135249797769563050967524448175
10 2 0.028159938634771580378073055187585826755101678825966244478804828176639101314522973744798831039657408051179838347677996270916328098420108133404978396355349841412462394062983283799123432014136317585100662902125781211932422054712184051214890402892498987094410032413544597005218660665817160098764
10 3 0.080526994823726543858499192947702958303750533782852916233703320726496149599071422965043893021127365923249782689766295664814959183692390167449163137214109663339125627155876843790236796661407867281759754370424695299147735929663847915959728044130074670354742443784556592927928479143959051863315
10 4 0.003553387093939982011018640806395086267985829222918776400523301296257271950685445145533524399762307681872190745196309053832982967635748331742711944202462156395587882147337854289216908558306214770614945386286066449007848478337258466209242564709204390732683814362083316035365927831119047276428
10 5 0.026456677220356028605550942733539185676027480660047593922676250472764168612289508989978974777593097856887603044427686982090181446335785955312020101894101879875163370917573480684246961441552582378410210586161176536121277372919765922616820214435007093735469163803763702260998519152850600104008
10 6 -0.042626287976806240961081988776661533204239416952110931855578108469845170943964389339376525474165915074093760109407390263176416013236188440483167832699909559405470027659842691136822104791840957296452426565161073228112225902212709544526343289155566304243375174348671345749231006860746490635424
10 7 0.066259846980243356718212454756749915901980256696286539428691090930640818134451779714366932588227135554656116377900714098084494133786461355593801520050681616965280157869946215052625185936246138943848012823400127190177828982969385324750708002202439249736120174262368786372148875135565041143234
10 8 0.027867679420304600768617386786916517848026248568303476626672670745791127278583019140612204090546259970757634510895920825860290115721584374918860212839205287458430362676665062432544142717928726971093533335850666872188283905227531965718779095103047682200613227007140948590728767455690470744548
10 9 -0.2083841732146908031865109840240680582735315308695713311166128284368750255874598194099808702425789983046071241760016601174998807597218047561591905024449064243213546847843733202117475735616937808707579624175442839235608220614499118714026152711122717702231481286076630181942957891239946991118
10 10 -0.16563532795217459643514979932818988678648494196800432230283767694213976907950024487353378984382757746715600971623901451809882409500032331433051866751398674959994159324494444253732447203913458958063697722166708686648969315345546080304401633327456357453558046838915688009462789625289114959286
11 1 0.0038676462543108813639281227175445249690082400522202121900114779930057337648680131979744079496102001766261195730621894733666904895698615786416203790829103891706772322820640804737418778752221989216332712939041035425250985112308454097723701076638575076415284672602921970058288058252823647213704
11 2 -5.063055294958354640580572560988663293027091505459274264059070989444167240102932648412939348021907671822715607086462348265361294778126085871996035368399585199477675184313857760184384424414585093800439054933098029539346108305872136247726929126066411574705247016641402793122394978887965134687e-05
11 3 0.018841867476821521038018980190932527617875198356501139426206555797672777595171663532740089083556720770739100633784579831837689535380868160009349057580768236167573183920703542220254966600742584785604952860598327004866882044865786619220791902512808587164831473894607023005197818674972687087621
11 4 0.010500478092842400711232743634754065567896306683177645001840774061941903306168107607422299757438425124592834940255333268156619450264597427722635623980274520747895369148882136091603989852466226042138968447048999133338944853672303774397234912148513348214328727770055890319795448426490830920391
11 5 0.0023583580685364058409663076252095770823173967420996218170979133532486120393280397551073549194364330631801924971631470931483591105537223406712702722822643812947789482037880975690449255008826818737970188377147512554599054715899202917440097650199110198255536200683841885711393759139736006334958
11 6 -0.016840514981823950931834992223634568831658512557854512864220861157046901761711446903514080032874433300754385422543308474747530334053574899709158680145681422248097645651032212635669167792826609501180961130264454906395643813963865411762488232240131698827212724962949695508484447734487261607985
11 7 0.023199792264348304510761294410568342126081608606241987502443616491555208302311124983538955081034439059084071946653366098799964521343587231163488604637986491984993774501999229766107328313229164747904155058767691750850785921578102788209946656736090874132228157699559492304299107736381040770852
11 8 0.012763790559502782552825871433561677369947702188718608835663957089665117273174750054306032109858224911201615033706903508891004123240960815948463312034513670454642444447800923077018827949492274271074742227524080641112678140223355244678110407022087453026319137660167457264373655358461114651899
11 9 -0.066160385802840042950729593054376737798823391945503746520969635271190187752631997976483529245922661076365597077067409715014005327907693115635996540889116924962649495621205198220148495876137535649960931817107776277050857724755971909206307714900351940527309197573635103091906041055211613287062
11 10 -0.061352854727196503926810335334210919500919904122286256340112767152662800879131881046268609693866245385079434508788155557778762893633011846590380865353855058073700270378436737984004985334530556372788076797176039486106935277489518948583455764421352487831351550787974969862252064170416069340852
12 1 -0.011236550974046773711983136650739069335430113727298559872558168336022282788836137137952040974707557697217711533265183855917125089574559418396968990057834488755278042188773282667977750816531206622317895613629449334018641647839842378531458527785167747372176654673651084863490838593558320289007
12 2 -0.017783022987037449625449945451912303874384370548467667890506674342527867041736387838249502750091493334288858010315206688569708131136139062883968081075662223789382136033837169956283941274208063727517075621161080358606076081542786410364811085821920503195888487468398797847625631800064456980569
12 3 -0.039776658607003672692860221371468460713698518255639961901380359028597386381358389715695440935129423305249805835955919070942861296736409455688060795509861426998375461004030369393279011110015000040805940404438071518553450578624182720688523883786592651754695356026710957041250485517962317604818
12 4 0.0021192441299462714266975577869370440894122205181089244377707618859681361102146941991742160913815648608671336807996735783033586983529283204620941941176188942062575685091495948813589511644237172881472948742454803755493737419619840632450756800218102276053688078889665731146811261993625406614479
12 5 -0.014695481162087576797302058405487307343046766004960079713804748823335373766720275134374895443065799227694619035128317948095913880756431645840294917770782346715186801595611711974317625218770703959632052779595836031383531452829124419049863515243852222893963410039691964496467811774778888373305
12 6 0.01763313346859582172840349401306745345322840085713076154569965414804299014063401166368313840960264421060444419506706539566334336109415446429328542437657137652098057283749222495474644775075051581596725015870964625490868916376591474916711846988636600436758077134725795560957470233178071512596
12 7 -0.028961706361678291606766702951271147566458078259791216807595594242563541526622695637231482739343927329888358032953724105299326307979753188718453679437681973629944168783775206250286072640953710857372010398293786401430242269151865591474456554307015574185133925301376024335338700528419401706993
12 8 -0.01133301496070494304449860345501891799204172340240445894792125958366857154704113990108702954844767629743825408270937642435009689054456458699454922740165316128956248829920910041232857654642445935172330781613395823154251651852621122818685821179664328286912951395350994145407542840571381248405
12 9 0.09588895819367189588403049423600486497942013631945362321440702411048436588654186605769900553825763935043518247398122271652091678501008155450842504966271693628910150545887247977266463179587772199408608203879921728845764811344590616022165246626432594586337619355107030479458360852479487526465
12 10 0.072508284221146178267779323257432380358743333717135352664013625123515602555778560046092089577792345557955795426831120860303832698392456955509335526442509913616491493853274797700473292104274750680092960649664432771604382274543005315307831894214234462597589030440647943897699604940442209395339
13 1 -0.0021474969435439000963819604332189196595951238253990394320625369836623472361505350827368881849012996749686368397185124069353120137616395695576431575334144633190019425764505288859037191213767998735120550678918576522229704338174876983662675007710986470777373438250666629693618242981312593725918
13 2 0.0015942214888151683298425876634121095571237657982010655049164630624419953112332096732290148957048276317089777789547546844450311598167683928661444049505727033443162525225966427008966227703904715807062784639776061121047877225617041814166425179973490167651950171980005442721243623526419728865369
13 3 -0.012745482902081056755762405521495873574607454601402840725127088084575243587279224016773613340054758122349364469385508451048717086311811378564911118588729898832803970259750335192484365836860630961271026513820765926526640499135414901560522478689277515712740637113550668138401012065379751149492
13 4 -0.0094203420545419635679563289867844329074068559104441174665081422162899657943575815664577925691073658505623334134053047473354193611529749407108073375706307049813393063901754928735450979823012290229691992870619521015573740016041620182649859981112572528479715170461726953215325706473458024604572
13 5 -0.00068201637090681756398217184427413411667367462768660164026572949555753779947902399917261455520763798067509533819173945322153265513632172776638126335695507893570669468597686750937341654828477124377283833847601873781455978322698219079068193758189613001716159920990750261618822077896161706123845
13 6 0.012854379079862452371614375386256850406324532980855456914983248196610538089361527048330826050254669001269881118406930475831213921036764295998474974699820320485217864272508036703621477859111788980077653559722289184911866512070068668303717806044494929464342794906309544225484413309622725588611
13 7 -0.017381839669427893321234068952359959210343065769985306696722884269508869826948006136756392681940439418529302391215917284727439728434184098455942299712292287929203461306099076123005815598507487274540251295652213254758217542575215883668918973357662992649710192799573004854661499241038500163074
13 8 -0.010085318186114014777217232952736418198772469373335984683105024693152140877329992084554112074606683418671846437254335163046029641954031449540647906699038827474425390757895427266500956573745290440004443417093226404743482551754399871243344824207928122143656607905643103580157819656884823187433
13 9 0.048841175637542040715551176452291202343746916164998813333448756254277933881013906788012820944369210225789330310561367305732265426281981764130046843940604091615158168599893084324365992434368561682768430340424663806011226989101290889951989706109503204692697531697692506870768399494146218804505
13 10 0.046733695937040137988516163652907245860311557848170489082294312521886404749477166479613811837591811023307411213649459137664943643191231713966623989062504471672475958794892060596770983706235120228910496353459260705346000755537409036814221750158407877141595057464272381051365440289313249570007
14 1 0.00020222114055259904736523161907828731477051651868054175422637683330456130209052271775747201550093689187876073785334951853651121663796875089330418584309530649931439127731604904244333200540924438848264465053140372090199982098708165737781341017231463596479181230556075694258709006523362516477797
14 2 -0.0054900507155075720345229675077422911805035787141082965720434077628952673733649818227077265788192733207500890213984617802483212417460968026079214658536222795082493625408969156939687472490195757058870475062702486129084840081202140075646077147115180125259478440782046842414290818251846382834813
14 3 -0.0030858068522933515293380003176667045868451666823872909396988552489783148281084256551972430967531665863473667840371400678418213197674722055411563502004996228723848809228060571897145165247766299829519876658259080323691479076459038848531977195150471806964697023012327976043736133193100990181851
14 4 0.0035361738811380430137449245373057083223195571149602752076006043765327201468210641286000976601424837679935223411780545663234116981117079127309234070821250406918796886793456121995589372166577207709619258633780947324226840277356714844846389250589281355798780925542712465800937092612429890561896
14 5 -0.0026788656474745320414681938644510157377441529530504618160484324690810860373355705800676391577265526463331743245861917206709032629475340901544607494748732747215528528831030165535058900959483755775777539013753232466907464151421775574626798489381607472629272161590951394733019403756214527583025
14 6 -0.0021562712847371502608432493242722928891327808376824732026093657599823965664221889042796127013348900098499199336315953336157628037544719319336928576886730666340749743064376431635409325486668474962176715897488204859243634401489358469307461391476599108771956361655160817134273703762149665848754
14 7 0.0014883126014818916375141781688784725613641689897714478686220850310818218969639570088243468775772202270498614038523058542541250696243890263786656788532856033141405142061636276235014614876045101376563293370364633426262519756455015016669861401859809754377100718290221323743871617640527042297817
14 8 0.0011970304413070478157751324218309456055926389299609353672861837817964185940657926373380636824688142301206684067878809161527872429618244427700748315020402413642813693441774523676600770635390471618031640705239699552262849946271731701684926329681053277425908505048445268966793776214413408455608
14 9 0.0011850522822619162133884449470090461494908568293368601923222765597399833244210761931158737911000413154767112778441184624726932209488463529827455803376443466457272059950820059146183589972830520453813150519617554678220079462476755814154799884107105586467396631502609094169294621988633794025343
14 10 -0.0027538021376146972277024905629287068911770075618288504350140226812779110632266048802573062818678552365096210247616857338976763623052277138901672826070577682764637447061423395982679389062887110969872286681274436781016810174607706419056936098874712679764525200247375595694741402317838169444681
15 1 -0.014441033088960020303009557296361560385443640880743288673802553417914833386008271056145551231826272858453011490013251512103459868655325521011979424847223070474730594248019587138036299451105358456093048515203171493604569472053105325239968861175092241649512252016070862292329596894602270714055
15 2 -0.013020783926522159857157383615450447897141219610170105304663267132160783819913559354616204597863322904847708614364115776208430017700427911649950323915831198415854627577428480363265346308018317531163402005183277735041127451569154522533642212129206757523425463816477503014244368452942743419919
15 3 -0.043286820108188319826001497308198228296462242683479436881518084460811472209709156638228433483733380395719521119563723869108094012203277091360417459192565939363616272320748479220411682689724243725282315796767997318535075431777422233730159556755398999929827748319935585498529448079612743147908
15 4 -0.0020059589286406560614722523936476988706053185681167415542511596506279318783136138468094574943795349170096802792515905769817460538192886197229703310575679776037446981557425181293363397898569026104811040086825563222871946891934537908240333591839395062359117537131896819702007921189199873205462
15 5 -0.014010207856246788128004540415729416331214611678962450106480306784621395086237194024391067851472661723040228052738897379822296247302181421993632663384867968822326808223506260811720823835300851977055952855035798682002168712069966502686896718074379371937282459429156859108225979775235775657355
15 6 0.023833887689404880126996211177614678875094494974789283974369376029321225601270952475152466097442430873848441456303279895816560133726756799465041760343899443607150709419844397877189942151175763400324541753160986625159618849192909497797129022373269896111692589581504303673106500241096733593749
15 7 -0.036586893561433813572091105885845103583143113868329959050074748079086023681655653892338453819332363671815022627077900037723665399463208150734335749547018943903934844149027849153030643085654172720134040212033315550347088339331810377604130232179180725489109339957049071702193057954048557386114
15 8 -0.014832658119319672284274374426143180960601243450719078349611913123358354772145353921708940719560579502743402924809490318485978426970568438556966043629948661984838276312029733799780269118930801019377869136835406820153444472316969493768134528491522461153678353664742932011768688899280738997751
15 9 0.11216377303537792287313342651263830382543206086264809752117512413091124403353178098327932958425745234013725906368023872181773692225128044469900747226215343505020106777772833036878605894333158934287951452515939950798787048633974324704889037015259370992472921289009050817100573096649136108767
15 10 0.089373901002331856015290770821864983479965004395318708141540414248417962816067752057976373436240505546048399144767055423101237368165877328468019867641165507562882885910806543724348992069344694478623467948470232697702744098405413315479016575519505169954717800545766447759543885136433564872886
16 1 0.0049226017246439816053602615453623511809901405884125660220061603688783526803590340088231918367723484453224272312552869890588740566285317664082934669745098967413683612508112985440233950318113351360104568095406803964361078586340696917688187436687191206126335025130734272354171857169993346787541
16 2 0.0081629473525716844934943462765166090564777927386232133232821805627772913790997219300545776634240279390156527522439748444652911213056296741484937749314099941019589323578568480221059119087137983830229543901378969878683261575558423768404006276722731825687877063137116799095605713430655722419337
16 3 0.012764820056795184612928300347774504819877474177925194473465271477524822355282429369103883117414738162251928457991761677959548626357046582547712477295817013047731410838253295616150343185709646898755946050719463992755734855960761556906808450613701720215267142368019710575803580485618335188109
16 4 -0.0051872555267171452124894132896490908497537066250703498339970693636355863842411471093096527893416175396054817924572850175503982047440776454542479619168515553481238508154734309891787801717251647283190635766537328276114133657588871920747111992073911775329750873806771623071643003019444726269877
16 5 0.0064511141140110061167173320820301967491491374820047965548084186529792844940698887539500639826986102721807943586795257431122464340180387028022526538953735313979358543556639439563182793328265060336172218740077355899326771265532605842803195377091380060478230503894736957649984099518434566898682
16 6 -0.0026939759677942100349028037273430074761297210321661370629954946262505028406545288052076216096149620739552909962816696013212143178534317581009069052000054054355700996956850147489699184712863743833863774607333286614289245792854110895648108804481874261016635320283036677908665831843394618377246
16 7 0.0059636449474489589912417883912772702485058771389952797438380732423637386272458851783149826272309126315789594389235106001302045438352340002494195390177771521277332253917206191497166461674041452109377070745925818142281368156481577887814706302357892206072162262797722229076582080444004272804113
16 8 0.00065436405005609987244838906820275321261409936574409012085507182018982458277834206950183014531056952570127028505621374291757393094491269730794742481612836592940870817918609983708805620843018727090389159439829890958377203337195335456982482087557076681324954675486638973198254101408436571330514
16 9 -0.022641774109185763028219880270246456298640911064789839131899844571076607188493845844858839490731953686880226141464919854417111737233647354460437539958039311909563924831899501527877798876336050051551215698802494267227020759455492586583137529844091101825604973648810229558610265973891625528385
16 10 -0.012742669176566252725645367957670447801711751789287747054078584824831235840456314802774439385414798844918549604761838479127595499806735881614786773159845224805565639940354749621703413609386987471531852807749409566650639371861213452667544352144939285197860629473335351479049168229226306470856
17 1 0.0097285693836846350358903953020412273329518423757479625031836146439634964807251624770898305465290865500175762062462490261006258741400047106630503164177365865694822579945759804040182333536678173783808355783845032754627413975970624366884700825583673529788110945038823832015980426302871533631905
17 2 0.015053084436037445964088598899086240984780593814459716471228908354580910542807426578401051995150525378503036912821423337748498409528787499671785571754976804923392077864606358859884608150485473528015556693575426866033490685564134169501743595327459232003192541496130784301004425488397856832175
17 3 0.032464400123638761862656665755385092930264225500130228031730720775193578310811062748177425610215094003725453457096660112156232118352928158909357482837553180099979969334908393205369900131934699269843631449168133450591168694163665325984255852005405609090093046478386628002675891965919249159137
17 4 -0.0031248706165336253887330104930622908046055324465883662828759829343660646098078561064305418046762917387119769837090367376815576351621851552530310613163342772247831955040427619405707851932107590444328299768338275932697972289888747428044487653437728320791060442829269686619250202678127123248323
17 5 0.012544761249375011704604025321584242537487799546733514022882178332752070855209572447646337261109552063786097941732688973759310664972656650378614792845954247720700096236087207051019605751326973565132479872045258959433543134095277119492346314611435781662720630942082229718305099622549710201115
17 6 -0.013420593964048749134718689357736898292107441571591040442530261701800842163119368023975524059412409596186128269910858404240685088981870920452099375947373689470200681722236662676094021677294164316210885378169989627439002879187319712318527097339780434928268594044462635204101598851555737032349
17 7 0.02261596765418440018112095679589254754361924679459720664009916909704350213427499723893091695455497701668927011424044764956691964113484961696062039367801179592907631379945314657803663498132284562515025309651311820220170326176136370825383955721797621841332972791967460290130838829251856199413
17 8 0.0082799190250402454255020446671097497708381429100949273162186321381546630372322678058868542644706212725255992752694660067499633831798648393301035522259112394052284727089118318812166479278039339738093293151814455807421209312671017014211417546520587068457973829979980754346719206179798997865508
17 9 -0.075661037705126431255553265662224198398023604344421525441648093934607931387941991751408268918412341096944189639698196512846870592636853501479588757517264147538191677590794838261656566773336617265926540571458198099900062513285761319166745071375859783443207135899348282120325516922763554980026
17 10 -0.055785809248790225354617186458932229943292715601467372712082882388140967412259954545478748892229281859207877054215732741618817550341504637573432461900559810198242894157980534877786737554453850569345852612397792784234154110410260616280507094690999122760411899145513647303751525856845790559033
18 1 0.0018170573608372897793979156193947392560257128439149215125776761565433828125770306952326649715898756279627302218117252460447776876380058195521854693367540896625468464294471414899576971541182896526808047465539776112680172949713666238971450280848579427102116268950890159708221945703036752966327
18 2 -0.00049796578925765014629099432613128305288153315917557380466315855285399222446950539052800740950494660014264412824994833256007955963469765878845969354652615433471815521385614826745845457344143537073436796452246566239075166592003316348007472794719791699480796428863278215586067125809078411569311
18 3 0.0022373222652783600491812597889382018655670112226461669158059299349080127393687802494643792525578882292300364947251938360717398484465574776680898005240122053585482722389038471571141510131088082889668737035350535591753481770578292683866015323745283283264834462003027291164901750801202558307074
18 4 0.00018542703528437637615625381854884130472552127806139446052623505498919927233101869781354229872499885134227136606646620978635587309492726327927016611674703504766295605537315512051356505473135667121481212386189591912061906554811908844628067273803985807006324747265197112945452536977084894887332
18 5 0.00055408619813773167876121397244106186544192625039143893791616961557237634285096628425142044171436241146786296593805917800451076239007016503178458848540249267079044614690943843155788180078177715118637608262862286619983756780247033902550881424716229763204359986467015733472125732728953525425376
18 6 -0.00220358841335812019149732541012454666155509935289474958428025084457087498738571610529500448753113428605800416800390528747690033537425922667316757905048384805851656404602366368210556462375611681827798138909256570747952689819111159078388570191008027240094560500364710898408182166966816962333
18 7 0.0027771606787343543685962290789763832204804442799574813936054473094262308424380041910274828982458897664958152449814797449432999350787347484726070639349003679171072340031332886655663667242954241211348290916593037781936144875262401426454576554770754745278088442121251675680557023257638339223403
18 8 0.00081158452360448991974028838112081070307772786893079843562076239202724974299428750623149980530402027437932409424633342584967388762193563674634723283990872660526962009199250361361645680791416727392952357439188510817278767306559750310743678986973869951828785604200835604955093929791965364742961
18 9 -0.0061720758694844379506899846849639378823152297049411276719666835576810757742213449712164279303548406163346810104356641393168977973886089178327801581202233751971744767967027637257676034624617476959358589993386894856339665155289466255755027386058274810090313279732278599785600961997778630163349
18 10 -0.0053480565460019142055580417670712230971941847523863176328742203800663902022718704214669949834635514464447239629601582163462414582391317361998216209516286755890993526410896558748845897366801341066735487510175456138447249057161888224747644035342090004998953072928863692955759266227689781612697
19 1 0.0095691774855273919618508719641289119835357781419012994598028384557682493623366314541451303066839714287231550709000724854457078087492220659451827905787829490981668727220178682349675730302699758760527278051312531838265991495748168840311165033955701829965268237510590830754281615585908841595166
19 2 0.015101789247562277662989354709629546763996842595152830749251303486985743611224777385025009460319949850552071740665563704061806525934337590605427567482103803614816174252779381615859637537362012708106343432145553634094602995238308780924435730757689479372469323462578666161675655347634805784219
19 3 0.031794704091357351851418176035123019624452794807539827556830300197516062084000595953384991817703791922131103969207771427627413065490225297814831682257811632917205764853807771190612088621167388519609033188536692871064609832556713333892069475051687748702569281189634305303390332776033564694306
19 4 -0.0035522528477310300696174915939131822532059621783278967887389567454303573434561149154930237969717822967090883018757648754983055337352105196946268334100392986557877446207533959840844541484596323438295436460381400520117124863411658900033451283664106758912993475307523855083836427829472388514092
19 5 0.012457813842004087575590588693697766503709022794697917817895923750776876653677070056179979877507377629296612488724853585257357297521590232940202571800206206395829353452325193894526491559062632687866282115137659075266876267564033835405947373788876490929095127313594013397836943791536838431271
19 6 -0.012661821748395947971314281176415832933985212399343888600516758791468030355805789944253455597932838391672906085259149267673417784614773933223847676328519960093477829098922806803826940499876292539815347192764785446168065862006832393815921162443644695653619368179522388514392519946730976054152
19 7 0.021617061794776874724389069363468817070169642426471286617916218623214027914763917199887511499270314937443609084251930590491765635918447183708237221551086727209592461398735925499130471315403312085817514011921885115155726376744257928606526612321857797707852734703788727883414406990268109605429
19 8 0.0077439594270014497061926142139493782211979012874778904438686878236296343290371070171980560889982414899252128486108030052993577263032421052544794470117185046805778025657129961899167546830966796652785391058020113508642004866558276380794100930148757865569393106467017751710346056111503350365672
19 9 -0.073177029193872135001482475055172055905896404555080197852831336754550182702455700736843032423389097835319550458127039591161179166510569761814252534447126310990168402120546101262523027770469793294628873677559613120611443016752151435737149251449010004829812453528335417736394473376362316435583
19 10 -0.053353894456795221939129806489658113423335842711462832031580149927582235886292622081679667389037667233734345449881238667166087864671038084653282039632620713313141570754570441947224310207476194602447293724760195311812865914101044333779899772361422516146410709151424045568562517308382285107049
20 1 -0.013474590878318230359782161815798740774664061973858535037138407249628844225347379974699405518375247626854859640739595381214707001885575567189164008553718806374462979922849512658720442338598247280196960751557386866539992979918572259652298400761342278507254078588960583473254847596904861964535
20 2 -0.024111424996472190376453856430292494463266202874400219517752715958462227033531416469240733760199598306332540659419212333993621544443143822277292653307558715970087894619088186824205360764094426404274544822544833102104022751217328332234562445838754568969119927361239188823572875883018296798915
20 3 -0.044534049691014860434149312135249167577393499252335373030477189769725763983878609061108131464097868837336658717916756886132751509552059779569578004022478227637129512589284881262787994977032484669797565445830447078359053805151350156698500211995143815145309031180190900822133491767863658102948
20 4 0.0082670312875741649615740596548956747590459791840213629562581928024381442276978096781025955700116344860167538840476440073499343369315354054210970089220355572205760010826632987076760283414721518184321959409656487375996150169115745655669989870891207009535821093699669263862332711413289634784944
20 5 -0.018836031306669776944524106389607830044096643363997211904177649899427787961198394142555665142151495434323083219993657340691519259488612657726542296961316162455259365373104543450243382736835411609068177214906275142966221792122956395791309508873426796210955641504391670483877309381452847271709
20 6 0.0155379303358985483720096790652352738514789009001045233692443108284328035734627658967905771719990135426480198630099716141419143609674997273895727880436272006873196188158560221087585617929297206117068962809321660536133522381263772148075900764370686753206846647822489492199469512256195857922
20 7 -0.027745554178385068130330248398064726889664653441895155591700085114627381577376771426327394889308078396770935747070525221005226064818845597199560826464292916393276884007257815869313776351335607200079634807708611664917333460356381466175571133496820324298241824558516307063681663442984891406632
20 8 -0.0089297664941845632320225318446607874923958452724214492619326873026223339634656667573248182032922683148382684189145656224853337244662906039740235094222391028052383323382817063638199908501216383601996232441135099066131256196317982583487671439207785605485336239141250373733882836239820026243481
20 9 0.096775238239989578381831595683902908828799193806827105282216199184393796233269457328070668902428437001417901363390744364358492038476313638146057100591112831577234409679386232873376926411423877322917088397202200131864911607937677393163416015542561612331360636822998537499700644437228287388787
20 10 0.067461849530684551236374709813787385840762748415891126671172542146762367438116317522806111883894990128512206730805054847163339398726290742879530055079548149224690492053674756524336271490099826124099647082573610351054686175434651525754811266148696683464365102668815928934082167518543728523537
21 1 -0.0040583013336378937527531063688114762385596802722406063750241695941033751855910889260033495557788384170272542727462966116752063787075601755385575871978178008759484652976676613275850927392755469677141425192903293940913808241642289215134060312078749505253327107167622090251431475877724497984906
21 2 -0.00041025641056209726327947599770729020396561613364772884778818103561525227890653447574633411667034852373711588951488395744841218681606714464060770500126825891822800394773095083448641777901310089224629945424189934191601957769093868575664662227817838213166389137375357590312435285612507543406006
21 3 -0.010151427309901142748784905336787332014666729055157677730020098971805253558966825155463538758352514868438676330840014978570219441227483722791466909975490041509384749745253710670000244505603541894450095007725124931952154874810251451911173334026538326286577217068966868905222154693630245463958
21 4 -0.0027053335260621706387727042894259998622351715947688589406999552381087546809224439558942981604340260607096828335776249080485047182557630193208038719546845204869831293233202210557262772022704956234325304579579509360384655008342291021237044244157479437313762949796245789288096325471275669440134
21 5 -0.0023032118544986172460141714169492029435016825102983384648124425623369977844323403160394030522168906185621215658879529696114484245204481100043807543681377474374158984947021544966130506359699647722766191052527432010152202777948263951587673346561531955493514068644490801040542847420509247457609
21 6 0.0080106344297509097528392509814214427129700382638819839077755435468412853337773180445339098230915114171208525242447418110235326569420634563124434999493253430298111214306812983984093878575323913585685358409773923249285254878516479244883342057718658278276567658079358815597659985156703174453043
21 7 -0.011157206508632399407503404395931406335724682080799375281808122482613999382591908726103366713025699101866237726478544637752282829787524896945997367170700587168058243175689987845831222294167113524172989318753640194832795318477729521761117048010401254746139170312130768141464140647212361358916
21 8 -0.004914834991839283201242262532846508879089304165018581406691260749327947578088087999956422909388276265893277799144835218471371415839264052107502907835883049395973393619281651522789385437934799242005950702483644540843525232328804767278967732276926745477011935145003170393845472614542333591445
21 9 0.030499778518730737452380177216551909728269057430153203334878982899614821229911210365434199814144590385112040454193181423677180053776168789079640958734991465962419905417238176836220555447714783661834738405154387835840858302307296377071357225810075756207080440473589088223124461142525234727042
21 10 0.026645730603399941836500396825239221997443517762705906411497127067175357513915317609316439402257934111672860647947654599904829210536201501473759906085651574504586136263316294935116846119092726643690852711919985747868048607992734345876777169076138933320628650756337527999373212931219009761632
22 1 0.01387515127040862442999006850332849003761399822924662511786898314584241341719092455145653294580513208999013907355623321447841355152896225420011918666631258438829346106442881741853528988708348713797534400490495631082866443729886887670226391520381265949591876025267379608349186591706631766677
22 2 0.018318417734062797262235982698541254803179861129903981411926451328164138167335573048943042094503698281658663263228095503435489618578342758948902114401411199285731190748227786709166293978850135664441258085287297838107748087977112881083852675660688002818920289642808834774920141660541802358824
22 3 0.051270111091293083516431002221862172317991387056338303257256397099793801122400197081543019616859440132085494279928364028570163274221900564459805913979402122327277580368448976283302412648508744453537364470375354981562211503560693652745706892765935183475759202121978344808274926815831450866198
22 4 0.00332300085668330456755873248946429334313048279922633171241153602208040969601398598970004229974395740264755693515612292829989912837832651692421545302883091170840975432619025572644128924080040689907604179323903520151930704553500930688156842829984809998544076258981215426316428248859149761916
22 5 0.01651599822702668966932816050741215641494238500965521797233406167148150470930379679617443254721217335688660821922604273863381660206522212051396323862554084056865301502070869181489883336773626510051576736330282496487521039555856606287607397958291512242671914251909030297710452586147570918063
22 6 -0.027388077682738784378928811866608056566013038203828447762804277497303914860270427751236371773346803056241193318212595065901070182149395788748213559496975866374876742043689248307636583240356348467415475731321321664172702551600610497883835071881415454172760665950726999989349355528107808363393
22 7 0.042505942322366439543446797395173334710289791281280202931844617059792946667544624387047070785391897483531079098540534409823041575791299678168032094540022527038349292023550210003189682882914345669372932825004169949649153225577579935275190307947478204797318294141668089597252714314184175249683
22 8 0.018528981440281448701337626728802199222130320799569834998333815277760933026936626025880534693382422836831936559982879552499913494414505715059126510160976214024140476287498625702103064502307859074252407766079271553993332503719659797020430686278941058846815985194982873408378168004351831053169
22 9 -0.1345709671210575024599412075753982527582615918138169713015448018220333703202723034717339298613719149909634190446841072453007378566234627794989015842923003973838544510452071811007124994063611671363019088411977164301294189816389639879596268176809460137998723241561698399940548855327616142614
22 10 -0.10782610263325449952960138792776931144852634132769362923416462686236566223385915286395675701142295723330781170530383357195832056795567432080263911680055633859628307927362539569342727293016966002772191431106975550677482885407171314408221279566656072792472171468672120526736733992199871935539
23 1 -0.0096699298632580906372250653613639269582503220830283327954183016459265387695515613361759716881240681952210326195110350151353499326791064160543082122380513898527495540390575849486358623148803844715567966421445300195677843861009102903712243745101581444213329613945987520409222625646992582241094
23 2 -0.011559433479696374887427283077479881001813638450916489345046161148276872206562298335746477574925405971977905504572592751788483442627078507929452797965855046540614485828255305841249277424717671460532688069034664300902064702412767483244985893710138935294266149455962357282223021447159701362038
23 3 -0.036555639464968426284404829883077968579338171794118748246883388051909093982633917155766070529076641298856627554727847673918758269481704863752691191717740759180239132750291756442702569767554749128615887424179577998314079859480731533863117216405665760120213361721675069952633721739775870387785
23 4 -0.0044287639684534405748792485699140728497418873164486543248072289601629620898732753326566934793462388567460807953922161898809835142268613899368556191458100245627257399277718850617571580085697206520501609508181057884567078011740279289285254187300059429268416653896647496708343937817895394242378
23 5 -0.010956620612219472278801075673585236076526511904462648378062080278248530726861946750673521965273867691476584346791644302891541915214397796388351939327292468473085534641296060064673366195925177822792234968849277045066556057600188804865415225858949553148972954415643959876340747803491125965034
23 6 0.021241973437748717246802800485365640067726769630890856147500149521319241068205821628587418202802247328830538808358913737576352290275629109123800412349736223097113995287938259799536193284369817560491836731131668138676577862165288000652485062158500520715021220953049398617838123053658996697858
23 7 -0.032171874693501559310929306370833240009304012616994145702284244596694421518967241042132073301023250690221476215858374449373707793233377601225893654503826973618176218980774629155391173379357134345275539842716069551619121920568740585319341300776544959133057733167331836179204012702527164852945
23 8 -0.014596849275112958354607174071553752698465441022522943649668997904808457033121030395410476515183455377266606872152442600187382589323520320123311178002548950452501682426486632969193496063183685671202554168064061849490361308372902359150135123292132883359782325548928411556895195582297977546278
23 9 0.099754291520672654208388209985315122998021591530764889376957465412115123252631494614670339470968598372289260602120931016739564789851624934010006320670009770894409725963791039127176337746534738889829131085449132134377103396642934979503538882600573579460063155199066593394967515603310154413842
23 10 0.081927527834796099454338825028318036352028989032945035866315158984698912959113923917839246857671760113786900379048791279058940518352215157518725937286000706961832087178862035244301799914054883098004799115342089812893215576960345936997168014906498714960354516386588693937895018580180467277021
24 1 0.002905460098256078452408213796565305807186969471353222804702567521775361004550792783215572235088256027921490083840769032745654204422385654448232070726045949697384187595455505407442625753596373907189145212615531602687656847254603511820246685719128202450123761987344583214619674775114759114974
24 2 0.0062151033821660815586387231595676671410737324899459475097336666190411756317089617190781920781076770543320210727573978093232454577165738429293403375622373904085348540582606975539525930314827359955938421907174834219100066321091124825856931478359559059302039880313262156160499785283003791380925
24 3 0.0066173218126075516376381336408904563308166277778439051169185446938798695307492551096728859514501007689504687312188493093320751164356642677936755122190867381042499291910512493641133041864968463901212124801612164962948155647707882079929731563112486253327984624971782355584963830165753499541458
24 4 -0.0054472654528196818367066888509834973881099932910333640389153807662563883493567180397468378579546976985908528567134034330149521207405134904513553075400472032824037476867834098004949229348660063006511598974713680106961080522711010779549338705563547341518032428831944456088848504649981497872211
24 5 0.0044367775017727822473837510872910478518033379139478945159028258460315568065352733058298149722395052265842120839882809644878110212498711814329354116669225423273998906291025972247012815606367922704352997248762172150146453696704473251709651005441449519646291074102123191339011556186900175937489
24 6 0.0007441900792929475225464597869492005092571167633487298261987657559728323956371621358606791508280298467121381697866531137753794879685366513939947802371567282295841457937679235257441633918247009860893433638755545207428340366901726666868455472561534692077430814943727202831987161734775594748892
24 7 0.00072432209289629508809858406169766728114492709845446639469676804038258453465305041137590088503600467847954891264944476231998956154160587364348069491514070128877412384296801012682158270877896707509373967532937970010285830173186442798477817803806817116155435061889706627531457920367829689350645
24 8 -0.0014781576817641490523149976051317570727451182202201201335856364217475085815885680158504835354294956102645941349641247327337979256530811503592641968081669356789226784504151200590692607951623853086419192228552123974761864037418496528589411091792496155379266206955508774806577331558521013250453
24 9 -0.0066986163570728109872380130546439765858555035044734742924971838743666165535463354506167843455775566416046648403616573555639963241904627864450134093932141565855784025957182419060688445502742320211785167415880222962515194015369090062726033404674442188700536224066760980572180968123428867690488
24 10 6.3015291829944940373331603434865619252886736958216529683489013349834068190422810302597199948369988452626849225396189141234800079432329180714885724933584378364676366621685614419456826819592261776339305093148203834041150267603350355680516943657047652800453761249002227059765203703218464947045e-06
25 1 0.0095385197100268798893992738221263699999007888401595861142442218743511714607602003943718285953236305729700729472854913847802324980110626722299959012481723232363127189658471687106057561429923156700781869215942864004036390385470357483388463694582186438175343214474094806034298053539787837211877
25 2 0.015056445991076095069823522306979091910573439008212228152652730298772505390500187738632748385658887436938869933550698919607251907903708210543875651113456475280479095757965642653922072616628543546173394061015178001777560919406849385134329301522408351679309550641692922159804166408522130474509
25 3 0.029844750035054734214163127963355918737946175242699380263851287621262088566200525246737802470250292544825524718596730965058624557874614345835848548834305994234614232310106216999546902539189754199976756075391360265976924338365744269052454275571683968311171936032550745588261660852757087339602
25 4 -0.0049956022136799102852915276488572197437872713924177861548793514323028349130352928456076859607862350739936427840947296476559397333840773787531363811243570505549122916370221175335420521268719036987838439184942167105811409531492256209132611790349400658477215066304155408467497317892001718804946
25 5 0.012373193078561099084733111743778771509120422920352042156121469815832135353047450631739614766021127025305414546600299752854665177943233366504842499755483803476149821185879434350078575192514107331277359804843889671190621310489611051766258237922308760509669637680705616091775389844094669767649
25 6 -0.011018998769203264964294724500447106534520782319905338611779179956056469876522802081335247950468717182544169283477045059089874184786617019022184799460939760993307793862069363415972780306592793981587799643790405656546107512157096053680626104979603580389600763475119234446919616145037302210895
25 7 0.01930574297166936352946143781874656026707675146534338584294503422302635585504792753177728568274755504502895114400516128788078765033787467203617686745461458911186882761035911669480203477239338255605760854459922398174244667930366680767130382730209914915477003101535224121997140739116040015345
25 8 0.0062540204642529296101086448216608109769004236718045088047321856117571282119734282207877299254100399318059777681230188559115193970151490876403104894817972663502731885010073317444142717427069792252151966374333529079185351658480994398414830991215871457083011363448542980902009866556185390880529
25 9 -0.065776374007118821252449875691911458731148290724629080074568510760480629481413486007610108320625799692813160877869351974229491054528854244318675869355670979611652553983127194200982276511316443942345769847518678341525256554592370090646248446851644744462206441812208369648058959991963391720854
25 10 -0.046442585656821883099040535283117797303492007000517241006579431736000105179699429961682275907850520619620389924121789357529607022945006374858320223109977798953043324649625637789649540097618405828100112041822396464967075390807918764130847982380565432803587724150851758674231310132503932666387
26 1 0.0081103102747232350088703399942703374972817470167083979494973447185251178157554207422580152583039498510384393155233165897528308471865451075457475837681577022769473004972671131031921980579168425191960081482468660127064938791424870705027610299469682837728610672279249941708100181661373019601495
26 2 0.0097081650240709640163873811464144716084399794883711321016250370540511018220441955582159777803227827959378289077268007007121190065193218873042416399715489207687648298413352025103217414696236686194054769549485009628793760313967571212236741484338011879771060759155250197058787522581212850727785
26 3 0.034415032047273678703543107218383514396835818882741418922659492431572770702906214964288034609735579781052866849443058873045460300964159315818201200283133448622056432915571142725622992598523480280121596061959242763026870048260845386193921206031216818511141289629124833346408958899140730976167
26 4 0.0066269798601061233335527315169864924800713895477739290169963614249565252852117386932015514194945939628204398424674751498731228896583456958932649037626590962021273046193230304860989285627909675218645788793650569536740299754674337828239863481288076168305171158380908733821653926511433216789243
26 5 0.0093770684150276078114722271421997508304503115414603015783627733131875950412295380613830309743114981454291593960429216747140809249034078243835914331046061654831013685263027018222768698963815446992594820939564242615341498802653866723193279761218502426931658981697317498568708393146142279764951
26 6 -0.02104305881289486065091619970984451399499746679366286726562179739966224815399665579783685691294916654874953735524397355019247630415301846776761922840010993244230514253244821986474143475315250000509432135848423784184225176687904895640503103729672478898104395743924784881542926349829953710874
26 7 0.031597875926110680523565853472749238756251165162324500720866993732268627498588276932290582904828282545344578859846213538120983005463459787564243315579953464644592367716672339264947836292912764184352457127535956645907043386931273021164253185554786816488274139385094544541951186644833223203599
26 8 0.015237263407421655229129080028093231873577263047364932998323556317679054572455823227734056912082045066966221580998669078187945643824110924244182800006720116079687938792557389846979514814045719012056570598803656446188913351789457237852841997194320120399681818582767188108874959846205687035248
26 9 -0.098103866752232330992540436303033076826403207591327585557873181519089697879073475757763435137122281742516013667192859305034522000002936221960922847232225434508415577992462613622825225359054455345735321525903821408669884874807316145857129084640997903926444211828413301883229654339236747385038
26 10 -0.08232044568447747660578251328762150593640293398396282206092583508279004085985588181894785493856143735130732136610262161016410288046603444459344642671224300898255478121944759273974934930971492789384402799130189713414277498661239098802275416639351538198295525004112659152538477255530622424976
27 1 0.0057643652687194372941569465627341772784837061380960552998304664645442509581257242477024722891477004240556538688475895855271677819044257904896101698244504433244810744567964863571479756420324313249546803109203818955127787824078302964922491768777057071987504957850454807538799777651716648756035
27 2 0.0084117214948327524468593783405286377851429693439424885974648206335069100715529470834081934989747316283907208815105783781704603082696916923045465025409572451654089395001431195509478488783812729944873364478702209557202537527242771633757878704864930982855525293232468497416397569254487226592899
27 3 0.021372955930220741221731162497316165238895831881780790223507686482250734008161410944546788914051845064185670758813310955823934349256828175165882094369393345932230262975573444824073717049519423101104447253773032295478884377377816151162980188011487075446385077527963306535034876896213356172837
27 4 0.00050612792528916806430496991023743481727125580574005865942947387846860801941150815782966922721183132914253563367477632029167758797242003392059696981882434379061396666657946274738648392766122122303669555907361098660780339807578339146479861657686703328003640390581823119312800361967400796727407
27 5 0.007255787884881149947369392965060521669301914414992100591571870519912215728917415152750313054637852550458781906566528824687241726453464878415724899253421721567272087118346487434167747293210816130049695382842395745476856492756897345578168111002866659794447986337104727172570002828689730639076
27 6 -0.010622131852873312720422212428857292788795452587578481829049939008278934335013119185477475624985883626665778861331829657207331170795365334825723947720237095048109913363601988220810882074128310474395245871087484277185663237693074885627794260924540067028228793927124690034416516862685542914957
27 7 0.016869737737407917451187181746422152606985209016293995889393683763311364335648255601522409185557639334774694059363406160649247994345233701731616117719323285164289649317258772297728515914494874649738937218726925409599529385738592640836787912047801122819583921260614922836686984063177163043503
27 8 0.007149151112375389625107194896078947973913957704393007262280885323336677837871172168716451442542037363458149477755791933182624457913382009401667263480107566839474633713913249781246157576820539090389863289787839875288529620444075524578557511395598501340771369805702083086124966212655818172831
27 9 -0.054475048890994542210107872935188163122665471537474497036317457184160974667521520455881760790055233518142669617403715907713450373529256339723177638124008691743554112156331265659377642519955125519160426314320030610240483238676487614542202751728546406687682100788682314849037841851813186872342
27 10 -0.042784929360353131707722486435137324804877598294945882734659496390007070597272710903379792775548545050414906346414731935927038381542017281862130503597902491267677554802296592637100116165585622809556046437474032759400648903806366413148825783376024146360585448355312259867917020960065425907991
28 1 0.0058207609028894417222203507742039339986968390418952025285148089237389113249240528506249672000473425572948230641173261681378520245791568546236821924580896334769142192703416402012357596957644155154357418644497229091937027152918117213926420866764941310676814600747629708069085582082205478929411
28 2 0.0025462564969072276568677587050940675745933190669046921195597363088566857124186881705850266771029594148816308921540027290311446687462212082316539436252224139260147905136641718838831548463820977623090779772527319929380073852171104786254451005387539619065869861620335684152249046385376142438447
28 3 0.027085672260935878632066816800493405585252249996782973027958590270615780319401035639281073872120546940713374714162300222090055039087021672811032490946900102158697005094465834999632596831454108163476986849514695984998819541883213374548553264134688488955790771547172910546959801607701761725079
28 4 0.011755148543315912619971145956597560804537864620615469449361548707094243163104796396802616421730852103134433455499128945618729605949274212912905561219923192267790698169655369563977883035053154542628034527992292659600994192827475359544494472015786938123143134257957592618080015616223300443197
28 5 0.0047747420424185372533608420489557452154222504081328254941496406099198822942459476633690898285360308290832963715623284501519749264012101704429378916901978200758141606811524540233366380839196697424612733281251161273782645127446572484574889094006787200765053440511359838914660396941064067885154
28 6 -0.021581048548670108589820587104059937386983422220445745464270573192466768198551944672727056252676481558390068418825159734936887097586473021635791672943189810071293271772388423918840098775728524102730543497753674568017847560429934292219907434051374241444410308598036834346156175060418888940549
28 7 0.030486444950222896693860277511360932842418494026464950620362345149993999398378240680349841340527844125213278043626419959887653294387286293794886641678397629295052431099488750225376553127690627568201455936314200047318720868642743202925071656347771079277481504204285067027462565980737350521414
28 8 0.016208977693368938811171646870655166499850731332112289446473865996149309170064015212130701588182633133472563319659491116306717001845336301432426089835266944785989322283065642499508110532826121637803061105987456440500794134764919078274235848754632131343686467369588886580232118509104112186884
28 9 -0.089037836542096314320998659724513377411865982785054459984548487115017039875806274541484003743459283054554342286626577582589006229808657084797944043904489816746202223131482099027485312363287376666579373348884678925281561006359192340542180284924597138065344565858918536941887305980953181051363
28 10 -0.080257387398415842680129079083581431797813805441656722681483750004518652945822989063337894351484302910205945931467531861704338027137799754906752809844909905248349626922354678631164668885708781918596371905627431797741658011859475001056862753822148897607422677380278500719094894967195615993284
29 1 -0.0074484812696786706479859243675050448813095344279369461447540194420662904184846858475913390567947976380332631089409562681656972859668849340382149437093195738458799629706524125971483111172199377528031581821003083733046153936057915246305162714916847008214459148176233897079225768564663406874883
29 2 -0.0179124033390395949949217005627275249639370650587837802501253138840874526676334320288292387327762056709640163595633679103963536289291065102433439546110567514071878460673254702842263144572821469973898868970629634784666623173854943287619966348734085354568345002113406258704583459192940712102
29 3 -0.018240477942430239190373030855840587082283078199815532365392215122562623067778401294992455169556812567890178769846430209533499612925228126317601094774155880523472538972889663547098589148875799869274440599756149938038983411292805098416715608576407688059054705266778259604741007946974296036141
29 4 0.015064796960246827552003623656218757514038715070496283386690135262575364410546313338801457219917110530933085876542455439300892250711754716234226318331840827557602392359144765862674829319450760616949778127464852839480299005019076936457725346755640873735462817823827374778629395488412170785057
29 5 -0.012354758176944850733411518093270519505321315797690247205940345468779773618694343366900528507874588210199475388514136997082119000000816792899983600442984512582353486838787830724016436842012767768629853787219379341800811804589022926476049908272044419562587028864652964909498125200606342510731
29 6 -0.002156032108629630210424900113406643471178483876296482257068092085182188537420830133923090945457975323324008357820334720842472890046964484049145840217568779997341217785264443408383778679672849722294390888322449318174322231390553182975817666481606094372563406378295136943624776097712929888937
29 7 -0.0018858501035323655549191950825850548960504871674097131552227482817423307035745125049445827304575299816545692404698855660290018596709753297572935193645610054159731155587246426112765674570920737032116139749057120571347349090025060459636946682669832869027914505651354288974411164995841599543959
29 8 0.0039395268104898690371177672363262098320094172730560339062673079959722063281374939352592560782362689373801194827566189389711785363106159493361501247320965246691061795948156524797730317968948373543658923044031745356719511941827682713126576566270770199992626462701552000160002781055682235513902
29 9 0.018511447400795584835782779174675641803323425020980819911174374391174974548646789913443194726657959211103687645414476514666788556035304186965225559554774315569437056671806631914334770683628062927842812511233624458424778527485111870705724629184992005771312508249022123179756718204637471429996
29 10 0.00010602801801246929037531383255287584884550198057623269426135313233109680687594860826072900863084343015860012673111883046540721242182839421577151357698853012782190726010445323542745119014208134775696966761390215839806760947466285184706074398566805387195604086422542176460989981074688173714589
30 1 -0.006964876206101019013553725353938246993304779739947206423532183440025939765990601894717930659828337759355476391222581351428396836366788619247800599267883309204736341715147085444328127447131336598951377290882256389160103018003416417866623537415510080872400723485446345556312872181599353728894
30 2 -0.012033301650499230711520555107471463035130417750270554270409175542198935739141656272887435107757158490799114779577799410357188606166811011660973498207582368999315746164973487695939459142678956951956957754122658100291025892234043708550931113960487274743346112817732656862088050343345292607017
30 3 -0.014821279453655227496050510878170589519949478218073982255978125215066305324405842729275718426274540349528182580704187348370219757280110992621654600865461368189491251074582784333789331686376370712740282306195841726112200910560031767590931049215570400043101764935961558716048847060724121692382
30 4 0.010488108207412514914480386457475671349546392677998744073577836055156866006498972259279642016652810205224056558330024538418672105686190994404104609016710299860132001928711986117945339714155747292389227243105507469166028815617271740630461556379012486394284695379954708604244095669667209941116
30 5 -0.0092311087460894237086712514880451770689750333921393627075860662100362511901996707955900173947268291802664333859738327734215235207279071816477673683747794928193340247431623926322546071114248700210973045406260623498502526974993996592462134603646734628276284721008185690599055455562905425404977
30 6 0.00034335142599320476593267319830120413599021517149268384872440030599594359129625397413942755767121811958190087709744817263590292290982417474239627776284855650752169336526610105810626040013399078050235150759631312731487295895816615913193036455766500854377838528578999389385002216703044432042472
30 7 -0.0037574306092398251229282699729492021648326348701891258854892173082062058121886103186518400108428780184287643429996717175814885204734337479922988243990139194484969035605340905296617334535122060368621668292990261525534045292110096581970628967909809878019417703713997272089463214561740400081784
30 8 0.0021168411455584566352016424954431073834807251804824744152176540474074750875606049516018842404236650384238302293093438720309531840431972736277484748247287665208323918491011357651434004144538413298519720455421179775360836169154459788536315912117028640327858395553170154076941162514452824252629
30 9 0.018326286275851160071464441566684219771152378945140360553856773413059568870850196106400369698499681811564202385523349966608088530139194229466854109035145482498869394866583791993032978025808102015865511977858442837793895590377150270659229592012486146819127231343619518748096973201934873573172
30 10 0.0045787000377311061264383717681577550239228270296918169415959287098572089446986471971574569863970096850303043816902572042133606162179299878136910965955922343026461491395746000944544001525999666983657774485901124629163213332207669409410828248659650063876235878818980970459400754920433283534654
31 1 0.0024135998170409866273855353330634597866915453029871650882935962197442648869970390090648849443621203841465404163291682452168548396465997681209581704542409869192717637883643854274387754125905454570968161980211318087875268039736143213374514346295934630305530720693775744170742727741120206720416
31 2 0.0018418264874286551342372874493574483907923281566523557727080704476300209473214049265248843983234971226688926550933390814784325927531235518280988818936172183701867335070780099743701274579694533337117956595971680408885433351860215440124128294957749658796991526991080607769506830728450376976139
31 3 -0.003440439481697804907217541185082901726021050560811327629581628137809367104958580426554143165492269516590474782102910982706461361703719537014819067788305542464779530568408171414839460284415783342992975089022210786523500911626973675873342746296386740313746370251783375310174193603584877107412
31 4 -0.0079193606172098295809743138029823431288514613187558364999082558792644736516255726860199774560145227890623460283581908943439952163730888111505607939788190910285077856395982217623829102842011647054281665885546909986404099229287446142271974691392262631492781953017300479675259125965836406287044
31 5 0.0017089349016408612531561951551898828357742885071236425266690835652487561447493387026555946381638633265269517439263254555134679040613220315541904791191121203453994329443561915544984011817747123628031212123489045062589422142594275479119224429160385038204498197560414042879468723994861407746376
31 6 0.0059495835610353283794312410768075235097161565659609731593901758593563906017836267057789824105987513253921969225904211722554566681925687731728476848807552982022126964826432580656352485694759838249414002454059918585170867012732589412787878861708530728857451695639937323108480820687428817847763
31 7 -0.0076965908795778575930137591801494879644109169270334058204162607873326305092128750377741608124588650812955708228837653877670442737814154179394014456499937934977219774160209633784227739808333536424128932968076102735160534860621259466156440471943882687020698332353656385403519156876005766581698
31 8 -0.0063397554913826279011205202944403460540569633009287445217329609649042558845499041092270237105071605643538614847080315727480100926029798315496116493201458765574670943249050157169682855666691545094196241144917869308275458529547712569438269213203222708246923182017588481487119106278992939261056
31 9 0.022678133393510077571917763739875127349129828840754696821394552969584854249446669154245526469293919620926011912400353063212230391360831769335051385061598649760792790698129729134214658077434612692297242394154693618061841278709192444354571803160839187535906266290652173239313333100870682627522
31 10 0.024645257862090028493432715821928909472772029334657846838052735164184214759366767141634723642972566159900839697586899184498653776905182940451936423885129642650814650106407558047484423849739445562910439459802530446079418861560209952750954781449835595325415507082128137926715556462805922735775
32 1 0.0041563554299074431393278236535604454726052963378879512899887330774567690154888145153734074417556413357420765210538967715847685115021783073795844875772745589671712942990871088651604201970156297185385396631981030216908734115390790755170639998494494092939644077761673814375029507233691667780554
32 2 0.0074516303876189776786065338610527963026614416342994034001152117985089938391751198767143954619695733643524597167221517610563119564046365146401231543880076210218940392781066127087745087358765934520681391123197991211374887014471455102328906692931982374176742091439525049415887854806054897440357
32 3 0.0087628292472592075356387436795857293105305217774318543971754695539668164409120036555985131332609483607688994871732214683140036937395591385179498585259234590921441407426484402293141604162157171491298949020154239688365228802024091166789914521060020344298680188183502198765912359351166592415299
32 4 -0.0066881770392471640247642089123419760415937639115264690695950823080717234279938232990409409497517326306057285846521695034442949598711754434577051363615954673175883191001427875486016785336750787908438439570287887768024525796841533492358406668160330788254292160354625002332797562270199060830188
32 5 0.0056335844194734568501893026849977938546091370241997156129058094557111043769847339498919190848900090759763551217692763895684906206184431669796397623758800365360354437685164694189028547368201895123701172817899780997189957009775714980810356954982501839460526872949340953465358685488219843361245
32 6 0.00030854304505015943010979428033906475519739734794804340187832185298140777345565655987484579397205090866004745746512635836248462187990231581559731017764973141283006804760002562839000019948202248567501025367369700351906115402948413082268565170152495775258170376681748243277030705216439352385945
32 7 0.0016715174368125459752849550280446922131964566770940997398869047604417285238163803948727715557674806493238502384296160287605510050959594332003443203625380019809099658827679249613187689210660639872354201032102453940647337705147810053034415083449376489414292368905453979737857594280762086203983
32 8 -0.0016240059794361144684222491372521363561022353318035961701199318926289086558686019992449301927905094965984680589411425745057125696747498281692824332350461835704655459745728071571403800890864376644251093536729774074781887202712522110268014401432443752634480218601920173102371302834911944067342
32 9 -0.0098809169851625821349676767678007491718209926610825324946474710175300882161414805680648343669664675610627549341506593431303762313888131580198561050341309732129001401413381485151935375273717329658537880216426435404504505279565965443006109430787166721528185339350026230134521009343128655187754
32 10 -0.0013845708377920134654535861639413932382310911510890084314883642130704992765949775935346012547088687471998347419705133530015649819142955282718935873370683701943104515078440864994388764782925180412870703667187300395528902082098426507896081197455976746435731971380288009289557107858606565398522
33 1 0.012142618872416462398080606229891166344153658677288165659498729911359282106717982894494142425708284981145848804191361498741361158270165366137448307629359527933535287758559641807609201062093402303596846014613481064433495223998782589786766695289706950497639516261398183865448096402598775895501
33 2 0.014257337041800055518331997527232328513315025326729626340946825563446390309480307039345865167930665512486456743897379658050787363662437947535165391593671431562823346999254123617160981008314116402848393752968383676784874582873629661101487123036651425215999157048195549646031608030251877148258
33 3 0.037482780430315227856029791025305154807018056036759221331595522620489238001991839994489938127586802000897682097170140621113932664270976929409715742711039087972211728038666871143199818712413040832376355544805571583470077721792463343404084159225924167936276165124556190647154952296116499501872
33 4 -0.0012829066439506462453765884087127093510503616922296422200594443167153692845114242962019278295036600415623555121552898532707173530003812262793459529193346220331751564703394341951220275747228185990625509046960486057700800873621354701813520220390910376820317368755151214087334690254794496437172
33 5 0.013424861989729366517581478249881077067834410175691811936215694562767110704146848969088034167160593269787930152444859287680261367547550382006316672825544294071855005051232390296962112560318287058902111689529694784219699119462294007526956824584736688592084406608712996235946624438414260303064
33 6 -0.017738287700849231880372869429414431757794584124470178243481646925487889275530789551804105342014570286241951138465088991894531525630128228583554783942388606591129929535614008179835089642905358822774416970869026725282687224138599534184897225156237489663673621891383233748047311665199005117464
33 7 0.028583269318792421172675645958083504883561052165581932337081176792909786513813309922420331224233041524925305342279493587811744735744093209037746670011551886839881905622033567364007500656624147010844054275739070350880560867733701445088612325335123548162113902453489834605256166393159864049156
33 8 0.010888212847847906296775177115828119103275944253010252732724397046432379330743879008702430965173256885419454641755526762203913219360908128658025701189267380122599446624329031262382929026529599206529325453640183593774686813627794564079188017092187215125289608374884126295546055962690487640061
33 9 -0.091517436669168304980010761021687194327649606142220472007227521059018129242259516405233132562511573488184455371849253330984239056729901516225286987266378841054452396741755101813816758434597569756578776957436345829647660836925500330925785030295080175793153261931594463200352678133670194678692
33 10 -0.069887580289664568064151548478749113239512434872292810297167022198625462108413574927641132341069784413918060410231743776599832222268899796165203744472825419225846820680837983281678862908816359266138765436499377314859217789323641026062332973811385086490669809171345834769494645360933583076332
34 1 0.0037575907571665463767460790961004329104917468832540821070823711947356981623772262865273729788544900119384628666212017027558115130460256983877349648540829560385246841848364601011938407580157511152824474510725089869393661304740880057047085109168257539415067393765857626419940240065075880188063
34 2 0.0046828614642869579659808092130357573061960459416918754696499106075893890850167928548718514015183983581492808404321754729635552263605928720646418117799223560276140469700916495712295839324830170869727112408516130365751080892064643159108810973380504892885786286766845027033991570902424013493656
34 3 0.010786454840996234318154914160662613646734948900271409342645914828656313033083413368515646955107238609082599128989835701998367692765541485836611190618359636195788456714708125861580302497485454925425589149932137504894261749641726256845022517705944010413856023727495586830860111223757892867026
34 4 -0.001291414101899907491089334018373010463451083956106814312402844867805547945981536478476860524205416713189819510234579346406665395286168210411249997701873108375380242564728452672722805469972859284981542571894165555623635333581630601340625914673697118862603153984097183672190428547630487979473
34 5 0.0041883837121996764947155981457620639799466356806025718993620160678359217529314473469428754263660754429669998010640465723016391421906255920910817254936117227491104728584798867914346612586676520389964105317356079637900442007073796652059845349323454373201094667260891948425671147090399876046951
34 6 -0.0046825367792531543170326670540866077464029025282707371935284622248298644014797516392962772227405067983090707682552650512708135609341827779788821888563394144702470009141823377455478315552378652801803995245189805455053097330341088855589697003521436092763440550458647046935490248888638966091281
34 7 0.0076539469930490465231956475059309740379418579419008415404392351128298481115260612057389559502280157014839251262076959552583504330519928486616043731200718422588764538014384965184049891960673368746956131805351979687837411014512259276540570330223706658753144754536445785717322910969535569786806
34 8 0.0025733279425412782858507656115543914534508216364446966612350895927045136456324922032764545333615747472950719784443974495189181657325020018152676956462570666849427665712144855307070155233240925173047456339499112632430407840612375673775485817296051837874092537151428534130267041771123951616286
34 9 -0.024793004202154179153794423199738762459158199092727778444132522442962487869006599541295100554469393404954120279214898589661845550868083023239812104188327941331392474507195291895689287351085628290605939543477982718666620784196877657673088120267965948355552136019927958127371945783660728476685
34 10 -0.018177546062744479728776219287494236019152618081226633893449029135903744086839306196926009332604100140784298525937253206694066762364455820190577863239113809996878842963982648632785407202034054804964154019417373149596134395981418247259693509936334680859088892617049392083813406763875706789495
35 1 0.0080431433850302938644466323210372593672468696056133899445416593012812182046302198219021160043196706352176444281965058018563440409744638096951386853775902723352736084654723214522354463232862805022866168042721926093881919258379497693326334061461323304462385626862833702224093455520969548156229
35 2 0.0084745039567500315414576481281665467934409879985512606899108311803265016753942789549676555701356712611582202070545382554305897465647592363064753869611574103236750194394674098190730189651518116112363811629836921417068385898539586056289172858255704279586221286247740552806426126862168964204407
35 3 0.024883121499186505721373024174098642472564404084857073193093531865914570953439096721826985678876088234742073893347234394839807777157499824374556015159518395030654387666793448513427944877910615780369494086357160810669490095342169990487818199733875313882921857509600035756924034537624366593053
35 4 0.00030195162690737583198505718003281691866836850185855147920898164439546140020886652566587875307365630086223476631127531351964746597695907677653636580094388291268954532162042518335070425562730742859233666167895082909122041260841590426976664143860204007522198602679667114209338797937650203266167
35 5 0.0084284677668462924652966858456944862675090064842258754675948623851230595393197158967043542796977273494347670604990492211420826777009953460283188996083442757437482295272489053790586657387134423868317802453876105336574121117320324567161099355405866768516123722687802570059791743654806849076767
35 6 -0.012725574218774242701882638809015839631912623922515170359512029935989256037381094030052716427271481580732858121930192140683202333595375499581785896250930887739950074215067620848192427471368261287347533547217054202498616375653451476643195629419012500829907970047908034750114562943303514162255
35 7 0.020008272480441332760525453632657235913441666551986319031652524605797833142289928309248287978224776577156612035300796987086273867676308438426345524589456328854961895323794343056667882987504501879814839036162055040631772234561443281007890133060484516232096317136072961539859897025054240497373
35 8 0.0079612556414983759776887149062254309363547704065250530159166831578141010859234548937133989088254182091806564664829656459397278441288475093229078345919879997117713467128663188708491456818175055482941223527475543763823512321871900287753971074620976602506458064259448512031102017637300985895162
35 9 -0.062845805388750317697945325900768782326853719418787755195933210739102734294888237047456197451622089488980030837972402787070046107589656420389810131252758854890277776421587047189913660363061063111207452774772196331153909203351860623341085078465183076197073092699504583100033630570274365642629
35 10 -0.049145563842192567439124974152198610898310692652164403295380440104410010017999042021400210911067743711240007714302642511788472657952731039442214651006836316269918598151026063939246539952598001654725726023317321202136919354565186743499903064335639838267390484378006477185911592896853109440553
36 1 0.0031247581694956324937715865218664955765928392838830214748691549725976273121048866536236425005580771500182819471996894499483677403311256882035203372390201324279287174039644806098072696674171179443459709569563269032473483515082327975506521274419106693746041615453228020768698958570569668466532
36 2 0.012522840427726663297584646407947953807721265191430357430916395004547820766802554834655243249604053667426077994149334218052942786143029080928539947934826417418272121634390596087854087949700687125024222664210769375622010925360995134264871398031131396802907071288280926509615909947158208833905
36 3 0.0071675800764564809716272093523095555703058325428912276284819864342296546620174933547427796996710246065489389062584023221729731408742158677055544905425634326960667827540847866842045497371555762044573273535086943081711190396489622337241890798537637259979024320568831163020225805724618356827709
36 4 -0.012550837112928904592844222619067576989589826085424040991114428254909808731084397527323786684383805559903609992817548088060130278293613498527992559888361182206201246468799061496949931098825078529233489299685320183581571356020205519077298770869166442288203473591663411038608919014803055646099
36 5 0.0075973369989092135639185019548248546043592087778233224675657372507879796218175717120929841011112031374816896598600394136897248389402462578763452418153179728584984290008853748722806899636701496573169138610440067082960716158307256431210686401393985794491238183051227957800637255320705169858451
36 6 0.0064574934327407715368140834663680604572774960607769968115954036835882403196083131169246364463348441075363649951796686425227228517551898077595155001098957178015870085746105342710673351895580901204506350997918304976186762244586385597787947993884786872448536841601589219455126306907899943788413
36 7 -0.0053406556991039447536335757822212430834829811641677765040485501991184046748043714733226245701448063932044867663210154547483919496176347611506819407470621098497744272567221363873470903829678366401378532558695345507161104506940746095498696696659600001332021696756954543159258889954205359669159
36 8 -0.0058642696341451745056922536956976352180648105827581798001733225018908113048762721536335190340968581957398732307692599253120963702916831068449943044226862501519388993576796173456745206802591068493253416497445569273986793743416143796429070171327785837742020265370166227859810197821753855904463
36 9 0.0049116262536204827911568911314480200059287733276381373087442947159102444686207317445916075179606617620738500689227533022843959313377778359735933982381579756113111720738211033153951124759946778791427877217179472864562811938043317102230189614222760729372589633480641048577298456681816297492888
36 10 0.016049848718378414722292021470230259759660596644201677460387620406630498772080037967156175851108955720150271603839347371730833349800390283939244345926897339578130550817046937101141988618595309243801236686295492733508150489777367355300901325342112124992053660699828452365027216378969512073453
37 1 0.0024330413969628323186225143311231451935542708264769661159228873978733723032755390364774311351895062767525890553564926884115068137490663869129550684828676346151715429550085852035324790093033858921379571712425114952945025684174798300829850177321425778803248091333322983991960729449666920431045
37 2 0.0042769768804038855729170182189438885086965397811015399393127824998254224967300473847117516247799763421156250418392137591958910713833752676724292376326872741880139029618948524488742233092500440260395017192375849252043400793768687093352047464340253000751067428577795844686234254449357969035159
37 3 0.0072189901047390375600475718207526991116665103573299084042381621078566704239118916838146123045571235008036642570606400578079038637891335847444555668519906370199703096187463415477410607316607368185810543001273614365602860018314548530993365055045501761985534002157093693053401422290770884488861
37 4 -0.0020428714605311444445720302592471270776189835738146199479226645864343614752755907196980315836928860066204441555703279773085588442998510658555807457567916791862714578107517224488543594222398106604204752391052140575928961045680978604674958393056044084490577571080616813555668261807210395881157
37 5 0.0033167028017595520107877879569531466034637968289212289356859692470799968982041617552285971180836751907513465613434319617879159574558712073628196664093122439559361708264621237128981823870011992781564937765323118553743214720875956984231978606114969799636340598741178146899743272396144979950543
37 6 -0.0021965447189270520435942407631943060116342286601263358304412278177251426751595783782816869002853173685025467376157626242474321845296264283200422540103553359561240805855183734912769748558071043970836742210681820160921526615849502705161764327943815086585721129110865001940918521585972369757823
37 7 0.0040900547932408185943868719951764544327131610878710891314563902372211955802852590089715412424500382696697592672675884434810691141560759733045813364617815244352382618255460335761729180747219886422474282853193896922709956800279883107920989627242112800253204153954298911613520259337693344313781
37 8 0.001016113038246073891746938351000741439908226659522295016097408290874284167809685477113295856432431597855179739755432413691398124800114535691812959328085334812106181037862276951889503420230949557556776865253155714586729218719759987665789961119144894568060767553046669309485418794967907028898
37 9 -0.014475851208064401905768373007081576336124293820162791160088088910908848777274840300216498787407428011279457927905030790330613416580751315350611465408320219460296707706972396494144595982971754340926824089046964534836870150036488244870498635748616034409766463855292392516902749114933134617663
37 10 -0.0094299847691389150801046317638803054406343841639688783226860888456242653392199176120068947222047370831172307775791498509069355024033581694529538276473122076917766292889083316596814784586968776195855735971375015655135980242129941578590806901489738883501757894149548113778387243879904022082621
38 1 -0.00059298983750102603579371740269681978511542244081173384996482647337642334185329269694672942517670219834716376949333533535912560959678408378912044356576547772020428094367023080685324986340887356249630087326723578633629910949089090893229716223847610464123377195383969846346191302555763324691124
38 2 -0.00080307350334411991839963829498438492350687522832100675611518143313285751403671337119833761287594740360678293268047096324529929082446785145804606463093032313781879875501332867490509213837113619026538411393520711444711017128861315230987657237518244406979024997423590601470020331606136344299783
38 3 -0.0015123581742416371320800040980501410550736859127971299829546306483523122110321226443887562734957617065435862953551819097971689375085675888953764926674291658246844867458968181889710229911594694598735622266078034276385991125887340967750290375671655924352271070966849413029228267974323041919121
38 4 0.00037742899317325120307896879878352251931437868209900454634992443945968733489616607725887692278738554389360796292530495828738180451168197652906367518486799378219896829684792458086548645814620236167622411140122133064610792225304452740481629379937248312369210597628647742224176279776887700453862
38 5 -0.00064560777532373720889279826120943118466014009543966167308744928254437183558350858718229895354251295101195778471477769503380045811549648883666994641217420308781395626691171334582439328782889728950666416842217910783959222498141470300054563536249221329363555134636727807056311252089059007030436
38 6 0.00065920199750346425543928300818702135045220305898672839451910765335567847612089186987853716326063649519291194269632172296875467966747962242139951302989081943489509013953655659746542503168224545861941552770178116602417516517714659089143206652705754220917983257882140319615074166949671304295681
38 7 -0.0010150011281522730109124622731763489272120322319794026393746697826297371511701745044136806340610441327496399568946112656974606340534073265928156773575155917292868735570629073970722729187603742361232101734110570472048334140800473294347303625244297023855088103602296437821027188468869442438579
38 8 -0.00026658526964443002135948001507726797342640878286253916709621524943978305350020296900083439478817845872241478245075817790752524841310490478610937226576275528074150450839254044742918097639586296457253308682100546871754322920291107602072148077145142749750990638513256115815546497822857692270063
38 9 0.0032070295558359854176257006782800706823582787904254111028075035651962893756777428245751206729355662679684030415063145504933143402892513104371323778435588918498714637476072121750103556592600264633351683953940547406663026694494548274124544421057906105288467105354190882486569351168818302344866
38 10 0.0022452904542682575276385574413862669031341837788189354662950358767015218104798487507330422093962868087520825740539127889954975454597921111459452652395753322107638251569468835431986325458162690566825386018923864669860860108962743684855484017876922868422299947666330527862539115217758728354518
39 1 0.016932718066647528718764149946868072502409721875249062803445466946610254881399835617586006611165688930409235065552777100026100985074736077251357320503967337207658243955817380646964474955518001792666803239764949588792757632347424614881524060858326012687149818829526138570715776017791155031362
39 2 0.02232805240636178339988383064422036369877775693446735452326604425135613132705610309178248808682786709212040792268206221556512372387711847560606458484172071308600135082708991702317378718871134969303850357934623752833728008272713249080228847250358531566360743267528123311555923879596962634639
39 3 0.054393083379698946134332518568252848408128506288949470793771978281402611470938006879265667509051249985033735408641691175809197074048718714106662098907022231048998929806979100189180931648244018347317820088781204109063941656348063523974235765542255251263444486818010064023200426489391753236579
39 4 -0.0026216000729809400424148173664773390524600112441775145684836237132909740631993122015739488817616432927698741641994799557165226854207199942725225198677654182386481241779531490883784512563466048742719102315475846994803586985079460213882817687054318965126477354219328195978502748751240287988955
39 5 0.019796755396807197583146631984496118130578786554797980316417196741930768401039881731549378877437332929327521719947131170486872127402491663159141997104860079143135827883714245978026621204522967176963111982845412812832995565027117820698528613034751231133699785862124589797509670512329091485841
39 6 -0.02525120901987265557422335182648836779182476964071401069892192322555506716684708682818444686893892103843704936195277559230523324376074292148308516678708082182848479740734100818847304769062961968037695853715620332421515626227357835942558637482587414158035230881721736715447598573073652474733
39 7 0.040734128388401971983668073257554816923485635551381648757996291326278626833676508265126126804543788657318932973081229436455120455231780483872678689748166686977180467386903784338687316928817509982532713671888311822046960830845654968701875373942440800093647075818991066681752145001410179327623
39 8 0.015526826554393106385488098955471653554714072758220096465219521257102728351469602071940316144494029451484998330539292890684626840769779479756059580441024132973253555832715927764031814708631953900918310506894304510243684021100452626259860120077865292964496359589179707783533246228058543245875
39 9 -0.13173092699403997118784677192037109287417064154865264329985106376857961596819647415524253502921827280227085240770000286923798367190043096577042601187808606524102750982180122600503777740345868226667754910374090514022954602831434060937384138219916263128683602450289256066555115501729566903136
39 10 -0.10011035566244278824593356181875693086708617531811920023036943825066779024325018602620688796898365757122941926263789066097517691631277897280626417303885425462291157698612862188790841779421573634050477386148034756868067679666872679729564252840533563794811009691091238764457413781340958694396
40 1 0.015798645028360423822278775620542317670265565554918567272258620654673876032838778223714966879818913195381821573154756444684570103263796373165465080004506480247896800913919701569085810204189870427610535316846631331469639498888374567747905175398978212714020054064995329307036250107633402865723
40 2 0.022763063252803129826698793121360884410400120189043544808018342589946671505197606672059991353267267835117620244370262113711322987254482089547340691683352692671196052058914528368861884475820900816682187742464846508494667078262262722448562682397338468813002474028634464521720062474800161020081
40 3 0.051419578220898711133205746761048200147327517492206408615889647849417740038330975093010662685306833230129007353711342076237311026468486563460923787886640667677787921679827083981226261858554661386633328442738302780656740028432846511167231424337125128525859176327400433060760269109694887162205
40 4 -0.0042769394891337056541153124183194382922784602155656967541463352851574403974837003225289809232503929058699888779326430248825075423743200613581183218454790552377444805692245482791466483116999995782759517459106312209634516946183608297612152568243724519739791779231112495243979330158565984640341
40 5 0.019550666829438307371656298160328866823496894794496641939474854617356174220644659116674495065964256684964063393706760647656835993407306780977128326041236412398498056196523805991943179448168968511861092707934540741692896641238560233180562961805502623968286644654418663973894885080139012422029
40 6 -0.021866891256902547389496076366063616194252861676803812408066873991950034528585922861703621434541884130914333602030764609943733895351278879870787724799712284924771218402964504113052103387551633728852593844810560968517148835838448289221935332850801700526363742706364883925719885703731613660521
40 7 0.036521625202143732018758377062009630938349052736203680477250474845723319476543847579653474296590605436701391006258513464296842721102948350950760758213317680613622291566684583086910430115265596415165083374677602064950182872053068721403643267483069573534664715824602778721934635447095679625239
40 8 0.013449673350423750630951855641280407643106297996366382932073108079500549920316384119953547829929443236014933996714226374291555003681552231668440891984451679975363940020206403890015750986240380728460485193307080762455481142535225045921806315607153049973535773487000150447167536071450496309506
40 9 -0.12099404317724059851650188484147817141993922481888605299352802565551391078847314478072354439693867346373973000778415683349383295588762294119978482659290990628800474719667993131504943384975426139708242122410429391509675223938058461880329267940462518179538512657741190859304293386056991960016
40 10 -0.089839632856686793306254197231078110195607284126519137082856145712853036222485006625475107566537287113603954358151930882034931786344363160089785703449747879515472940486513194877586433067668629184752497614874474773467056391120815996769344230638160009209062200730193071711660142636094672691138
41 1 0.017906540905609544697546308971242135589712694209949609380587956654443096199945361824829059911086549863012407883534070773426934059248091507127339194783416437729284396776068095011159565273887435123149026201504130161717584552175268159157228077758063953831942676144661376516813371075668632967464
41 2 0.024590387469548203712160826542102902885471293147726193510932727098914944354739532331286269452696858971226301468417948079915417137006586615150851596349613022333189186575131497900234386753212623393548816047549932714905035141076863416818614352327408598621606014842225913987596620632337333842228
41 3 0.057797463297205191623400665889369349664553754762518164474188537548489397017404462311579637968365953684995511381346531862737718648029610652392853452390808505820968532251051165418987796121109074504619127861232925799639356444902620542592816352421654608412895291527423683467498621128921307146045
41 4 -0.0036313359462778087203168079985805146008119234566053735265502482987662721908635501389225785635803814939274705359533670973797789514095051670987814990117083751558563655119782533238038727539869575715020935601324410714503767858198550748855145686523774815634027629345584031295751397786326772495653
41 5 0.021465226972893927234995862108850300688968503216319329911082598283683911483803221672564757785320410246101509522837059398784206640212246355604403404897310302264774143867582087762510061470546096416558416128121093827644664519261613107755301506918741176140325801804492613461344153486912022300895
41 6 -0.026221269588121687169910653767464187920453490921413328129754894471383986153704214171008517159636193838857591138022143429136473292244372359108049509273143649862091213798396489429324315597140841070859154749875870061197941147618693800963186987397672683488077346116863805605447500234712902865392
41 7 0.042656639075523744103224613200505658602659089734863199094919452343669621667385530706304629549696032951698496805804808159604965703191884813987718488604364648767102712637517964816323850158873612318949569788008197948508312697887263047643675741561459357992726612537204646429063981459201128991703
41 8 0.016053366350728822392696997874598144028499298820839664464211846685987739795569568607895704068624036860912068042969831169200327276163943264530942256762280015694821806808730921681881017932475586863258996920954266271091059024825202278707089141184046599440810683783658158287455113051384166442863
41 9 -0.13846702284775581143995775737157939588710910060452301457133670333254005745640639397894232476426697865340636630337004013819758716712762238171446660622797218778038510596628569248355635465528053140215712080966829985333058705991500261508311914067657799319039492553364329241182648118650511694387
41 10 -0.10450739159540686784200667533568657965831031773109503135810759746433157899989808203205504150702685132334843931717247452609673940075106170389036543353682888344783220326838907802696282052953021668985384019967370559642847475441350429634812111455992299889022487384111363715247947313878977853827
42 1 0.0010709538853709411865707791261064798908610872397787716132807559991119803728504463698668665366665410432023065451186558108906954904344947943373097986469035305807393475906791486867605133096581589219056512023362100349626022535201440620257879049309605518735116365237415117122857603163683932388837
42 2 0.0048875163568681485540509209257716577506561607303877192752468996958637442501660827838607506698616207394837794068911575317448999817726144229142185335416060316894166176005314583594535830814310482163289478926208529877245634893943000407278047427876328345904511279860417666806620566569141947241545
42 3 0.0064173863885513686357597349844826683113576564832601942797194339303598151062922814883203803170073371106130360907597768185502843960118863977066643914355270957343548540014155370152354503524910757293141028485272969314335876055354766505983096777234312050382378381606690129398055718918388380554821
42 4 -0.0017367821292888749050960720237684119617357289357970585324055083714391231748450173153691020920370126561236566886112202341117840765161826938826390110545381218238997410501579894871577529525436363097688335637896667432166934251556142255555467147987349093990104715823284685688895927095553139837924
42 5 0.0030489628139317818050678627866929782834509742324551490913807122966705607843248275404317016533849822348418322424079582143173001864686087483211587016121272778155306396221021052630522181816608650337858464974573668731166005819695543987374477712410879078184379562856683859770450594817811307590914
42 6 -0.0011796930531518632674522529618279263465270155548692094676304829867409682052769917069705265247041555550935752948189880351857002946545054245310153316080349310329349516641897831722374631792081444711614957896852410134026565354216425663916998297759670786890745537746459252196385514038574828778687
42 7 0.0029410519606069766973154480532191626900470740571800073183997495628449705563855199075220316496329426840201051729934152300092512622505639615282937394605899790769777856724578206460672158521248156953238393648214529447135437104845388412550133257687265604848611877356546782084686808860536796376326
42 8 0.00098888071361450202958877410876071082042527898019355093509266665173050562565985749635436020547829062383803355016553753250958649080328064771600272135572275544046592340867915483714610185690337011069863678123807480813920486535647339046510544386464365250324405898132014772904027801809727345235963
42 9 -0.012839794190692137182805537787435434064964235084827838419192573438163209698233143882684298355763157776706774309172262875662159341006634633257796822639413346350426614200579393394080770109857543266722273614235048911992774770879456773474134976727157883806544110285121940403114620657315028907627
42 10 -0.0081346508677708464522621162218916110941555664082400786241932999964231276234132037965527238942408041843251004334165665288177275679422731108583000727559692952605464019509860219156253479874405009887572139239895600702886294668008721409702171135478830903341293611805483683086636931663194984410362
43 1 -0.0039094305260203828899508672199904207491692030150495149879676954076272439997307255627884030017084113824621977691546642602313096573339160980789545804643737345801787491407781977743068357753746911637609439111689821601214431766433651675041110440080118759905239947508113495566719186384593441619689
43 2 -0.0039089720474618503443828496067211049874813171081497190442129732740995075730837039509255779499262059375822190352753081271272643868461757748184602218181800230843579185505686277828409143186171924496725497589098168554061292748715123192501199157195134622189582781456108643470633963091749019990605
43 3 -0.012198306445107682904751491144985062220569822332912299959351615926609602145404122009270540532703559898541645412439067018728019945809415381522672565097359546382213023870223571048180092920640889867540718771699951321286956584659613830601434732353052188941083923508796376315837536484044630580344
43 4 -0.00069720871290960981894654412846423302975738732119521529228893252558605635967518576744184691934410105121965505078585219042204622951265202907940297531485794445838661175555505137721243548635439684490800387639294067032011684726659830426901650120053732641758083205029213396352008618096014587631498
43 5 -0.0038897371526705229437575077676379645206992324024971140669244756823887411670273476003983605916085472829581427649103680764099015889035929652656438406822237630818694833525739422453706178910863729453337165777281399982073498191990898436692518288953759621450787951176777731282938758178047053417232
43 6 0.0072100516684744989659080793850144322613277066470560461964355049566539537740166958732595550598140028875505059763776616575919738364734042361574655647526874274766078135341642660292646543304562593755961836262031412907454650672911685005190106712584593739170936622678658622453894256828690456338193
43 7 -0.010691653420805395515951886410933195938844825691163331814067026150137292167504964644246532621464488770361469585448379741774632193014530842926645071449824984606902606278770642682272160933110900191900592200651886111321041144808805456982245969174533158361312268881980973048675352058497263803941
43 8 -0.0044352722373444150283121797425386541358210135739858091852404834248347820801985807113242704449533066882697338363995961157406544744922432396207186518406642920409839961629802552571126592201552267600192220571764357508125357211095401471606410034455753973339811093070198473167578476880757639018918
43 9 0.032128891532348089836138569424087596346195228193475968296077667352284045086534769156443428527742032187671434296891123003143806088555941721550974233721678152716960206099845201650722731175077527601432097606273731422100039417095024275162968567234004750740599933793050317688412542215636825203598
43 10 0.026046965925775716497219005090515446183490917478876485015067282980335393436442994633301396685807776502841672148150328861543519285978349754436774245602882096716780242325326478580503837281251006577555073257504402033579139142332036215882110193576965231753458739266179513198913373128724228658354
44 1 0.0064563192021697031285894051854427390979595922867995418775197238796235371038511106503977358670215956936578906406742679004255328604330443222960851207754799954115478588074113855884725181870131453190771772477350864223153278147040341559157160746258026852396237588346750367564167816510407001572108
44 2 0.0049618709389340684256159436785627288191293324141976938661767743842271059767831265297935521164004877957680271336154472341830632098511020252052429791544646563101250582105035754208985344917772684306828688366320316773331374459187520337442072011271276214438622776433908121439752376756189219875456
44 3 0.028741910996954579110391250431387586151383627935818610378231505550567511481004625691866642539437041226315873048346501776695587200119373238018519793485336689480430973570487232953192640220214545051458474655842550945116964714103091436988801900680259887872486854584050605224637426443427692251125
44 4 0.0095707880824392108939571865107489512232017140434521640875841407149940180840787087937870764475636738088864098395417526508246193988673751716241311421967031400080468290572776847884523934994280103528545412111264019361396888007365650283165613283131769721494402953894145645369647826875793349143813
44 5 0.006236470944352242289061745971347861476103171693486487700791875692581655128013255161751131301837555992730539784867045048048573238341784851394633916289551347880801288355701696320699757725053930932541510899356761181753116838154004616472921568280392074578895619390710397787936613343048550814664
44 6 -0.020773885204069587147086555151614038177597048192634755247952846487129983416939518258604698722742503322058552139238661974334704503165250020103115048062331494663400559614894533631755787663957585129737165073862022161264276613996913029447092990262926502556210410482195656162653080014795314479043
44 7 0.029957787214534458608257285294615057514187844002063090822561971144026107928648928194441324973395192455139675929383642335849836896082715623577641753026327915055414176093233606978062827717083830763229984598363717878854672238627405763528851573414106796837798204435244573640088861480192720576963
44 8 0.015363500467590156728488310527847957521110580441824275397909669065697177377098836081393035391100004665660573806974537384283306253319063235453231383577711725906707704498903398172477765254163350250437113695050569164854283692299975339167922015653508573137759683187472657893722636487623223792744
44 9 -0.089280398550943282175429392266380213843563248929504314129616748701724640637820873109850253256733752296062018927235607539279895752174464197296220265264384985085232108141148426892736566361269614709336851610511919545257629944568446692762443448665106296217707242832531062076608823993267508477305
44 10 -0.078410368144619634698532929858277325298306930204576992871425113215647721609822601874150072362974287097776843616389090936229709303714847997926128477199598341612576449091960779881936832822234068775470414047266527453356930412826591189761159855105493629217257397433119269862120089846401060749991
45 1 -0.012283158750509306514910605721671623501980948942016056393554296045092931417702131091491840794072372544018776616598762480979284312558177201013392307383285941392455509271203257626706727559465530488688854646697360570978119625707085989855507896730803401816163699427170929957898720367583269137397
45 2 -0.013539812436922603631470526847991510813547050790091221511191219026657712546255120002008069423587567789211883028189948099656483808839295421220287200248589120980592759267432076746609623627178416546591151936620123790433627547899143652273603580971955394195745799166618907389988324791518356992319
45 3 -0.038086714591051928513270710962609697489847295178400616148297898781761904843880474840747702591807153503096690244657465653312759517396570310244829391343817294596316533678407334009189404735630364488995432707325817950775290586896518054154666676599864439009434843502751453445967261993354274446344
45 4 4.5181627674316761833271985170422049625506956677895782761750026851492100719801684783915896902354285931367479900501577524880421287931064867155332186570062776099436329918871354365331470733778608439856823991437774601623520329290220556370111408551406890852711252722201268696649263970962906460456e-05
45 5 -0.013136269506489315973033284847359060982042263918135944257544423474782446346840532688591851668346898649997778759282455980896588310590097886566876555121662648039415131052483627787481759854211501729343150767950178371406647189550314360064672922179358096639580466648744740980096299126977085098781
45 6 0.019308299657760460668206714669741748465085688933800986982619602963331990678951667428243682032626311011271246445204768918140431056087664547911490101839004211392235952117983394735044426105432363037550451546548886838383100765666935772966305693013965829081713360621313278065304586400957122237335
45 7 -0.030383807236866597196447488884249588725606682068371087825520101395772717316429578809925607776473466353970988172863886012894948791239261499242706845746647408161398313430948343743002909839655757228694884336893086427519063319266210877380799301361143037026352413310814244151250254226864307538479
45 8 -0.011970841789030323218359891821108230559831104383833559000341630058256232782827855681160096860794270177243950166637270089280176073887809901573643026071324016856653466008996437014009025250395300920255473419346802011958405302646270816162632280208337419761490311703244137883724730984791483699094
45 9 0.095417814139765615665854777659334262031720039123024944412953459782409250044736096334576826924535271343368607551218593342046772753785160544449902740748580592064926655123026444255939301807625414941327222463162055376579550263715744024367523581532789777811429060490075780848159502634950153517236
45 10 0.074333381825332041442022548400988139092141154768510439248525357506776628235692075545898314428712600605358631204910238117045497828195766552097778297405126331653368139109149183197349820578548677889284521994950551099262911480403512971490097218402735160771794105111639564940813166690337606736632
46 1 -0.00024348597505745014981686876943993257682424347712467768294431349782830520789188268115441462656689431119387389257262775132402221933821258590794887570061047802296447391316344094685399709872385021654445676485323363957691619335873426865414215682071932622982020160373648175230562970368926399397871
46 2 0.0051336030631729400338164642195266567271724625894879784263746156623773185197345088690290276442500185694121407236355419617533356901169192374393486916815179831842703646195330827516154981689707813146572424500620652483960390108588035003957298298801693042604050299020742762439446106681350832033138
46 3 0.0043096734943076744696846144918590088564794926301498972092591290516647896520086695804220347049600574815953289382393605727426048729127188869269867623912330008016976600923685420750810256212561351450766408722404435678499494438122564532043318327911485651409015872999308784823224147831750333179677
46 4 -0.0020335036629369596092347613619724689429861538631171990648200974645307246831553987883582648437788914677745842745450745889008795666790882033406986119630763770585467057113674804926661267190905699809498171384116668906963021447539628047545979078796058249031619049248572330173284766077870783477812
46 5 0.0025130696334702776619071520360849278694741759954953617514863458491830335411341479615916002629148140983003102058184788382228128310922784036264936002275002772765404532375633435453889280574619373740119091508619197404877138321321391572915067128721566007814748893566822966916927252297682352006118
46 6 0.00044679440917411575985147180798229228450397605897859693013874940634480660700744738979315702751944018819872137861270443552791855301955175107510505644308063901320210246331866904038069132316874574132429501620785798783043895406437378227198432593556739303252697212287243685972555057112769848701932
46 7 0.0006698237315287193616722196462968448814894646728535538733510931336735615375467534395246957763357461714708395893085879984393231828762895450680440756906794720440607666807670425549447000868493709194609095649573519948918812792176668943642119485081267205052861631310585794614252007505901900667176
46 8 0.00021278060958464460021682659035201696865278296666154987385202007422076951382994273176272516007661605523848891270233442469183029841554820976595770693215805616304327657978119132765538002812830133771529684450501059265331935964016837644406655030429976794870606384949156461753252945449410292119518
46 9 -0.0070190429882308473163575701288848354411434483456376141355963018397170071976732618234687225180904137046433772625194856573437665169323000493290385240993513196040569528674187790914715761461248876951432961702539868499850415055783953135934789241308101781982548506651610537011527578274133885098225
46 10 -0.0032613746524198307396408077147000707059356661712371640127272541561470297930716011837033074216922858389310315018146336443549966794536544905922862321351139158104137111815227812664129076431367384012958011929068486262544398731030342891856817002105889806483348367394471496710117348558880957107475
47 1 -0.0057124824903329830318974585091975153122056091442178274008963492732292047728532024459412335447566344346835290334725381358527259096680689466283158580628414998325021297030091031522953653393373961276377881654290025493961020830276326958296537424385426528761656702749986703716413297981497318466536
47 2 -0.0033430916585869425591725091763939246846700506580559846790184597021375591894218960654740917277130540786846730416455143979028375010860572256890833656741585993373543809934685907525040854718916515309458183031776419700836428007251953385680908131145721002278670851778673355284644300698653521627273
47 3 -0.014963989006561842819154321614501960211367371244913287779667912518584420313648209686446846956139783930329345048212470791168694799995051368702354538505654732270543367769353895349772116458649593620990683375886749706211811811933103507085525301322365987332473156543796471970270830070403929806494
47 4 -0.0010967711749529188113461267605567198482632590359706069488022401366373488227008470638860352498488778082743556688915267964808480752754394846685106755146537225288995819723462709702315737247103623437355541110926387235505702923537065050665616488398502877705666987858566905172117700880161647718156
47 5 -0.0046004140656664121152940433506333842356523050393441475071619873429907408978571972893196400088660297868221180463932320665685995591439452686381956599061361326870570782382543183399508942591726466142366869762663725475568903677017302410499603446344773368988651378939282827471623401884969563611299
47 6 0.0090161146041900267866625159535130386374936139084202867801707390855675648824353837245615726847299863496951303539507454698250033106681640427670985525883311576637365354119877618550973128379482945054473519284511364860837813554931324538730243950396135962692682843641531405133229828699509477331174
47 7 -0.013449162467513411297424639534984269792037311186994521819528590097558658152016333950561222183299372740739661654994013805957004981292321884062059215245931250225300483995194872311390308890673261458455910729980745590450979267734327492174421098297519294736086454167807725824984575520826969763055
47 8 -0.0053300733652375878058877210496679869725586622907044016317981064289249501655147805729305903080454320346352152951598008534008484226123141325722712616322658955544626878615374758662795442991989604115170394786262714131201914298834262260099754795139383154608724719583984187556850725233552843882814
47 9 0.03954935530592163356377030438140506562356105737087298581258944158839866514965954122581365281020646938355302085738091034579997022360185114556250397988429277781670914542321461887629214575508232985057198417889122882167139840906526452626194293579185872748217516013949814909998122177459039359638
47 10 0.032017120438381940624535190950264479172878181564610370731172166182886802758793817048492820886392457926594273991337683714948631567688373873252524880195717267430117549270345452123794794599311504526387537102754628969908792313747694439693386917809696560877915458008302339351567960260513414099864
48 1 0.004406223758389675109149854273738889744210405842724929884452519617164367109399353352855430637397356512471905001439047920709060784276014943429554386676679559456889456483960801869061212424211681169967090233841727171161668979654976871740276930704927329666033780576656306317121518389117626641677
48 2 0.0040724137671349488023886451981151933466738971137965549527251921964857926690273176147466814696956256793153635988758345796875397073270410786668000272424096836785202492812782665582529468237865094326116117021774679086576392030552173176868239038816779553506791917414726800733401600281751120913913
48 3 0.011377536013433719975602144882233872743289075294273734879195459372233326472324693039414433808311654973693491138131957466961809915234010495212563400130826539361702203067838964734366833950833048513130302472872881843685180688966693813849543752809904124455638189610876834710384980306175160774131
48 4 -0.00092443905357092691862362516459029357296601715151509433952213641494020097816311650988259776672070006061666508052324406145752826696570772955037712744278414005241209892394197806104330193832640359343978102633103670143038690267287048219114280037627781984088652914664905062183764375836468882795971
48 5 0.0042165388482754558158707284616615469104717339317863264888141562697047097062333832151224489040331966458029201204806689037846929409155422875665040975407870463154241611225499758210778925138767457399920663441450156971398386365702905743137817691034059345764090705122892386295289001513538426414955
48 6 -0.0056160190232269518011236124848058745143513584738324225431004622082980446125364468671494228959637813851255076997431068582075347637069747774478096690124166149917047531909314694248582145575725139036781153296794631710454333054274234592091011195602480964386986219505857019973049764958297813695841
48 7 0.0088016002635073899651375582129865719696817413253210932678955237603366757954758287056024768840648999769096496581646352639161857867191698516393972247742697181910243810415997750713953784508930256966026916109549656584369227783686170940179572703535219717896781545541716723579607094170345742952863
48 8 0.0029882818483359121320542277780106477072294672450544123515140192442428846781777350033529169500205223003760220919143234319571402446574287510237967019735806838924777798626262791867019133131012300193826326800798611824551346935460443969217918493584939818900581996585667704370621165555150049183341
48 9 -0.026983603172643365647048575382094582076436838105560761616343950760411494045526369325068508375463812813414038422039305569064748841458500482963899043505138271893837455872752999331121199998376566656793780833573195995970278964413150847784165442754449291523380482203787786593443841234247721180258
48 10 -0.020369563310827085366557226295939807033499623154026840986494334181068761184154999108287785323305568495715877833121597382556568007830323535913431269884702559749950369861707167848799167289694614056137307365074308428014944666807959886126186687940629119434457430122687632973588463812086159743071
49 1 0.0013483666227194415773309941489347918413313261086782000346287049276577499921152474945792080426048962650322208792343973246549788704902910516349801219932087892746818558765647112275882184210027891695394686188106456430324881788752636727054213524541053765245200479065299462008535916079741978445585
49 2 -0.0012684924174497325400218491586021697129962126368711233676747241764308815178189144735415414172414575272001265182944769528248433588484915432968596173514544198150916727199075614178336092489540766489546362434716724670537573960107219979904098787730410109730982563328541340806141179147730636502096
49 3 0.009544312934228630914878695472598850813647513286892050200702557184318693226141056442328198923988159573032416219621556165465854340213555711020879045254475902430100905462932592400044229088747094860232662361248824250258334385596048079302058014791648616789650736300931555454405207631026166795852
49 4 0.0075626688734008971453590007012946484685721610646633812115570997526460932648296528485855056037297583641131587914319799587409169680611743318449209400125606506012840750214541816885298227198135699303474824930574342482078374665673329423642182769257906101953584258594481403112639660698929991708593
49 5 0.00034908337167242533081450396771740519296478040036013317623852297094643643420440602940372057922944572911149539487387605596104698296635946367412263496506596824415206715822944448599750314251118593884897228156139512520315765642650760817132970248360095262035432681995079961619658502969171571351607
49 6 -0.010115000685517806293738120546495485368298591541589099216077764967505939197415421408643126448669945505009334839661094293292559000405775902886121174312226247885555955122121552787176267840861707259667653276150915391887437073796753305897094250807964653125659695905543843997140560901525205074763
49 7 0.013527455502313321499769075004822918523752719463642051508613250905057029437124624896029464879707153242331899195400063414997998737558926960677135917876139102485429044527168622729766793233909041348625878294588280095430272002579379472487465348300367407310059028710733520732380395415063366554443
49 8 0.0079884793194593989944105477617826211369108735776613137203735169234767947561888767642949867207466659048842871262661782306972643268125800890687869820220333676241249299593196459422158591345340246169233879764873958355529029327166151052358060893523348814387639073950662360378509045415900259241585
49 9 -0.037607798660706114123611553796012009527618254782092859817557833851950294125272335844635720755901671926492875908414249587609855121906147700554538259876109115070456398775698911958045779332095441753884769376364735213231018382963876858001514324371938836927417305705934388219540518296444072278694
49 10 -0.036435298068528009633335498580351731706137495932063742505263593843037245796279242766269395946070411873565515226231314219014196506525761553220914015308472894514298867986467867547670833769700357098046489969713940477246283732052188139289081156289731539378119567962689943925608754143266808866644
50 1 0.007676823202162017892696826454795423466723652531013389971838256941092146996937873867643672145227782508228462863658239057226235456396687557102757509427632415815975309967708888745847175811335865257129210071198555857438917014353280651801298092114804261823065003138934693368847989689509468100501
50 2 0.011122542964324073393482949475252753891030828756533547648657276143673238559872477826739755741988500398728790406619199725394915562242144035441851060914081738323114369317034257637634558094985608799907558704709420000586689185007806361416235369455262989323195482412925680538917759944467136683499
50 3 0.033876269016112896232194618855556066916783228440877201906858160988833299187186905353829655988566192559227902163492746333076414795376940063907464842035774947248765181446046570736126731549048503196018713523133221195352283952578426904485315766908972979822880437645184928008379913015550104712668
50 4 0.0051480661642126465603778872388430464636765101770462577916676882723384635362681424643661478665424634616762570960994028453660973764681498317253853765451048183108340363397096000930155340397598010723904623512958456417510964024419641756250966393558322569776731618873319835118838755140830110661281
50 5 0.0098456577958582990430863492279415553545514541717499225601497056743009677681236688069879699137832578586267946138552946311672792727103278241942701598120532675822936656770324874802581300208167099043954842483233960982198405981783246448766802335940219739686902606970102703112466965269287553779087
50 6 -0.019428343986211631930695043754281590605254446802676203946301125587126516194845288659080407038825757728034580386996833822783500503332433270651789314905608917671521564197740156932645217694314832841548448254009497253179489042067387006796955080840472702955724664814826861347713607265917973851075
50 7 0.029715754598415040608515287959304680263952799305211808284781109961978748506735935030544937374919043365599149662258823927654047963929892028425089553729092525487285115214037613253978851194814961418590805044661226279567856687908851810781237438026579704656016819660732143331699616806591199620861
50 8 0.01416816727671587409607798667362050385267415228120041743081371292651164407524135673013685171385121782981656546291451578786482122787045242118371301510982554628568289312097526963608441483131440991516060289085576997358933090869088549545182875889940317727614256582548338343281093041228589325563
50 9 -0.094084345590665348194712592169136857285004436606093435138710903316160760717633088052133552314981430075830636613069648227771589408399272688460161740130301116760518905716444968822236043438258362450100971647133513735176892612894006981584133651925931977131781541315458476724820702322557447359889
50 10 -0.07774135116486675683582916861118741845157234591938279353211618583907997355496137150624852362862901521819455343991323416065074091896397562060008235556833145295514080600061077852140891375973574248802997145172490122709530484746110614415515647510470410372195293821656475321888655396062347775612
51 1 0.0077843063242628397695074288573093824492073525094480769767072457834981395350959770885608987674518611865835845100059484898011974960704415616040695946613982500818757664674718514604676791526037902234883784679075933654016644834759729129964191814171105926788501571650703208986814313602911225801817
51 2 0.012488888031927943456129415915985279430203087902626933692402439206714031745904713012277110079150701466936029524656813934885895639781617113744162419377791686264046020342964280109481569294070768196702341206560607521610575656273676869115654800673508316180019661211983953403390747543126712327211
51 3 0.021879188633383213966451720662410034868558541417402608594628946889814821911162335447648381393049950980166976429144149041667020257722384978280270960213794350489802111067294435790815574236893819092453603259016530991442659587158499558803901077604981357564737628562057610032470559360492933073865
51 4 -0.0063307400532428227585712542384826012440458892615287581061868325947868149557691022844108997079826926248376158477911966935587244238522602586211433998705338625968154994531231034044324881367369043899059910868175525711544343116023512648458947057721329857838232881354411249350054413735158346727995
51 5 0.010073277901707423759769155370218886697386274287138237395170208812650008212031135689374537715565580404706395885673073485969347168045567612000175923654321214278352821509223093626523386775784197445715974677908052860882794604724734637179672269507988677554779451225451198367224459442002541177981
51 6 -0.0063511794290888807687207528279182730812042705018181650891154863662314245480507376587160362985427683483169103723883819165934299867283716329481132563425219772516355865053423777673117758560019234473033133594887938361132218982318758040983313073105182545287411745409933497262950288879676590129145
51 7 0.012177248792468811514919784049216709066205747789196790170792239135550174922819505448006924488289667368299784686699255803415862826134790409836792730481176529933335397131548312787926673275794124254137613095983777567498305374569276755390234654918909196724002174428117024224357739386306073618254
51 8 0.0028122247359837674773926219998371098007551521084384257954799579540848188494254285188807887963820927775193898735947108395022766736435985737981659135427394440919714966004254243242196822711228008706222417547249375910218489284938902037529082694470702841256900472324336730802735725171263971814611
51 9 -0.043428258272159332274316249674812230167138028802390563581082684250653961500657792541861210785785779530061900715879189933191970960897238507277569697080748930519882734178917320527733159462819856849114135433938915138464297880036452915874765634764213015273859307675820172787310795415614656483613
51 10 -0.027836920938320069982835249692043659310581165298192868113003120511843776686148293910416485086270228143996400251949098777386051232396270712633696050757649980772334434288034206055049512317690001144713999291175188463312561890265296819196939124480142834961969057738575237786634924384990240691227
52 1 0.004225069003364586331022018039745228887470248027315171097212894212978734363989613578860938459202472308121339465688435154349514284950086403236541907960155065519956626801844042142422573878699160847061477577728023106040336353957953736656712416497802264632322350022749773315983213699148909555323
52 2 0.0078954291484606701826805726947267260973221949859625827890671306534973625552185245902552222614284162421491693103430606542221328744369867539988142710650599676745629161301687462228718994748868937495322914190949918933845665761453736136442870835632850576358128461825209058636540188313885933983696
52 3 0.010926896758440194545085917055584843086356082868132347379968703386928324128419780371694482148353007860633012595851080302471689126005008660230376749746496778047077168468489231537997898740127809198013107774109887679918634698652253763266562616267246472748650811334881200155120440004514409341209
52 4 -0.0054824489404132047654912618981566292020651036390982327197029554970627741729422652141434990822744723872007827100595390389219601715148225727714196555153214184668201697466514407170699143300330160131126417891418353014414956481996197307396622886972736602880492425943938903048012963275338911146366
52 5 0.0059704148961832140661693170048404667812413406458185943248386229657465944836746884070071519203518221974056305573174662343149287456035789230284999377548020172996830102421759375102273695595442650861809998746973273242602060514576202969795988620941794494057564104566876554800135929688502632238592
52 6 -0.0014928362697549515221145610857283094560476374126429766364145936519239365307352752569992220801649135597343779184985351153041649247425122610616573052853010332204531225535870640395381909356449117069468606521691855236045450970759676900604679821669745611051858051684817383691574539095380388545211
52 7 0.0042178104421544395413139116982204851489519430493565158595964165118813219121099735218834383972961070868279457530729594057268073053148860852434525234475612615252597660973677546582022119852036880748804795416593247524555516808796598968520699536357670816733206240358642753325708178422948643011395
52 8 -8.0773787434198936271631909556030046988361813313982728612301739186545144583135824742295489589952389354574504709290036147728992498164650832008212825662165893731391156830364934709307080625916775688197056537246937168596327154647123201107279560202402571641359687536897403936531833634687265923159e-05
52 9 -0.017499803302171468873472971968477330614729166193485579227655613449914049562963748909526975339051603964073167498628376399842688392916331047498602176084620626913781067444615067230528497583301762772829373290284200958531597151404503262170568960633138944538539400551176334191127223001494881503227
52 10 -0.0084700126932302295423186155279522975356951725780596657303107421313833606783626672727522931578939183537988689839805331942133961920103051952476242473938817358830651356797316818509843036455280308237263932704452958981669768368582237247317677798988218589849416417536875433016942601219986525476557
53 1 -0.012439253036221939835586828950886853142733067824699961234597867977253565403773818332249564725430426706557566915930886699392688588035092498655656330149764617160833084608581713001918959001068905642920523921519692008911942932143793187687579135141074722573930495465247364081604553167017927610177
53 2 -0.01437860792389873619280535725295935481276874001882938061308550375639001116023332591486222333062109589712982973817675198393237688697847141801397731841066638591250379119784640269169900384773600865670052762604827935630988562993741529929168781809584299743082490632308343410632706897975934915647
53 3 -0.039621330960892068918940772357615917845140094596131577536043730179451263306478793917340866331590137107639034128608569200911512512701193112535157409685717900851574741731731446957581903631218312831277181702278197679590682838270251414791737357049122497637555424316222402428947711169431787414673
53 4 -0.00020544795336711484495849039463119156614698029058617997290858357051917171837368641305522905846116242441968547641321683740765974453948303991269688063578045752992667352744761049656759389843768624505081014622502184998577760653421617778036163840007909622006789526576842590660098282239571208172724
53 5 -0.013587137890307187439881390527853812448180570079265519679223683457776347130185021923962704543488556354537834127009335888652834644356119517566651097817272394625254952755291107989005863994448080318115568953206530716613786094413042643827925728970960171840240997365587669684884973719924471912165
53 6 0.020465755452129759742815400867133671905573287086632118226633352156929852450788118494545643860530940140495763222262996013455916218096881152398340869555402726427404996034549954226141189942981855473377541363549487644409423175006491224567528348355082247622384372297169626375869272539242445412728
53 7 -0.031923000297057938123392724699092407352943839536047691072807557837478483032733920120669321580487128660986622585467409737216858674573264148956793139826554210276590167458539809648770623142635756009134539721411642392836987002549110399226580229328369992971848096328890104757688924060831157156783
53 8 -0.012768898226059664178796392256868962631584075853026754044871715458828970414940899348809335334426447636915103554569401006556782109984490381530584571099769921650584678495264930544781853563491578912244818433055308299771197980049461281005293679372922595457098506374940326755582094755663784739667
53 9 0.099924411264577826625093634122891678764313241001935471724587018865902791697413780591689039974695565637463862328314849938856375492738169925616541735970126355242118711314850409788367695837058977986164847024811108428059801786286194418804017772049947730853367420286069264621830085673791843553838
53 10 0.078314328514632906471213594078033994776174498024793989077233662232961966758170193792363433569382671603339820804814587754023391513849779456798074499621926155061408731327985713313624680098255869562112317932621436764733112073924131246216372043177687747664453395334351009323508533098764075245838
54 1 -0.0018526899886510403930084429844938405010785227909793404895467540626625074493504847527131130925510569194074453405405500167158233440402759691438975222640109748993374970555420315845840434468846005945086022737431104079612405999063801281148100005149187981358021900316256283852866861859159602783314
54 2 -0.0057260743254209686460421613191662019467960923720160284739634608226039486450624169064424011576857544259009341888581810690073006595263217727201468729063370160784430091095054479993124843480916053265906391814183818125164568540426994067558513256541298894954467010533221224514967669074161552544315
54 3 -0.0010262005310814193835712329673463942463355548474566194602662610569424568689620225534494646469071226808291119821335533711551061572249050091584687461991715491290854169377684504901136552949055286936138415649580492252926177918176859250616773445915295671162036408174636245933891301294002169558523
54 4 0.0081132276729322563540062103423327385775130557176294024030995177343604555728298309616883065095120982164648016334432672557066739755544679623530562306229759355229823844598509838873656745960510129803113352981178045367616649484033339032341349014793524134387632249356855399020384845065757914042692
54 5 -0.0035573002002194204505279439820648058089541435940943715679046720005724045187267713185704925471171612560644433708494948528778524859840341424305520147976723681435741056739737725845817171903728946965889231029352274282809641220649339780156499862816985006887019928245372125315968856402447447974509
54 6 -0.0053481991108755213900637280724550414030943344083493710767545894988492803722829998568742784994223308032550406109361086424983653987651117055548960860839559927114094289106220481705086948612380876365331206317084535229341374357008915361014129948283678737148180357853891635166876286373215146420514
54 7 0.005705043129649107201099816561029000413388395752671280304440217866590680792507204286400820446849065330539544907583082518768658256946234467565299472397998175351750752868199093951650304253474306872911799429428118421514510057964277074831707580397527155293178257706647506738477803450407378481412
54 8 0.004989791325084585603545856215552092602725001742425338715989196019403098500299990484477899347908624734022671358962996483789968607154780832013984837646543989481824764017941386253248942354266257943251656634337839322061508777875732151273653501396522419160289149078662127531544388863000027824153
54 9 -0.012121488235693134281513293470656876472367611743391649987300610490691812998269612960190522254481218594838303476659932727074788817365955700990629833795922175690262890691531367773352580794154879290027142832205948145960658859213485573252846772085722104025711657695595350065102675187578485358172
54 10 -0.017146648836511834807072594944181352489075165231907243148085418643663031605542772277066000876524517063659455235876800385357705566127340153923507047886095505007944317454028229487518265881830870679257281010578310054353645856044864045656008056873350348205565563023324753096933724323193220003683
55 1 0.013660228965007334970402783342989265879743504826401671159167144423568973625341561309607882505671307872202206188604738755122479156804757232526055902501685366309321798840037040123054360805293031058026098069510961797361444563199614368800694870796978586503919449293400568158122596724920349437705
55 2 0.021407144375257728581761577567350476588610120908270718683328624368400765865384436605804998861520783614377600508127465621052737834800113243037859326592067547542325011416771206825157489405732557735683752427744653895324384761443205755155541718628149949619046153235436275645990812796045760964087
55 3 0.047699937843346425981926610822667498496470957044211871247939491103835648665023753833711592218186549568449507209750943378140872632076059394142893375879051134646899056837468483198596924693119368450087432977678454380850014538414931825661486128545021728023116491167561494862994139049116461714368
55 4 -0.0028761698189412161853613255048035958584659680844067361272530704493166193890139264662499856880628061881386971374653052111313560706102213249506781585335564581554690305446295209197469055786273354878718270262732356341147855972587328395819256315875317468798717620402516142523660835167966557190993
55 5 0.017768287130815970652535767392671168788619024025899269397816537520027852138022508591400749799009767517744222985871567836753548888375743997003249329646226228947964957132349545260826746842744221250041999502910705268009128644625923983687839771691160914293404221095192129561637014250944698818973
55 6 -0.020980458232447871345515850756076265703012788516226427382403916504306628829803299306567395144517390955789298182939516689296390832877951060057015027908938015056305742763175198544827644037031177997280936953807975236369782746756777465134985821836509857552224774258046570571026028943491379953533
55 7 0.034566751148767415858599509669455103791415756420766670134105004754364239066394274966446965592491465167831047878584085918681099497256838131112905385832538289620929077457293535432708555679031334307257821434720724552157789383966630347627869413193236541250648897425633962514474321285302244618351
55 8 0.01337657081493502591891229145768078883995722258026012119432430432039646022040923182030048772139963062159581455682557514435588793658984744680787590912431011484146619136409810448999391217790879522248503898681659659917888353790233873270015361093686804415259738239582661511502670385274861017218
55 9 -0.11438122264564307053987818284063245874781198535043634313323755634661419708551409277488156221712118257394405981347566585763440929748922864340237574878580730815499292771555924930139750224742802973515595676407523109296345329285405723389694546591503297985603593037159242857757130086288425546622
55 10 -0.086195323249058495625243539025652294021756456835061765487521035062588384921812948320751798215306584853879703623602628332274933786795032823486871281906695671899983477855887419107180330102540645217476740927918342482843480258669142376438989175210168900301711135218085579716368771666949428328289
56 1 0.012960673976699944927040053008492162076819247411441128328288154936234813480743541203305897371233858488814513343566784088159808753280724289874649200974616247686284293125805825075227398608980605144892706239332821750081911705665926408233495436967954933225209162594486609185577224783433214664993
56 2 0.021289262987017592868648539044625766577058594756912709964739326002424898226373814201248960335539250924939228734345186479422512455526703176372311104069714765111629279341934299973872438592649783470808442872764250791585777532661871414087214950949947059081589302465176500941194453790407608358416
56 3 0.038355175513666601510946962061571063097291547478315573775765016099704013201682709169793103961230865459458021332772873758050084264114718813128513719021086106123061735385962890333610141672481478340934375799062744644641613512278858353057060693509279758631600552239265213506671627307781939993919
56 4 -0.0094762463613310581459743756646084733230240481479227368621084542042969287634352795582854199546379520630934919968161214282078371782995456300810506277728233854731998731859411649674543203425865797828366490689001109913298676454860220052141334266479723964725672017762739314507738402560809078739067
56 5 0.017035755469563839273581649543830605391959939213664907861281725593016305020163166617841848101146256001163323413466706024802514999267172797897175246235537705700463937269591532554320683224262850750570212162977048952709804440809232881444178383403275736059706238275283349199136228920548255696909
56 6 -0.012208311711692364554082790077330219373723361167130435241529252157571610806403693969209300822382170083686245853716516767753769563241147413549132806678000166407283547345166863266003283695600742000250518936557180607020557500204406450240979996123833634341188038405606366310572451813160596444737
56 7 0.022503052906292535564998405092852359141271393096310627387845693868266865816105186524535025309999698143285209063378893328782774911446844897906735272397299096634722133460234545386057100434549637189518541341537127380482550797853718708125994225808825722169668192480052343084887161510853901540094
56 8 0.0060555123613287285521134807428460398043457531995311800529835939391835874141902357142083845603505907278177448364060950296005390327454307180601882072337468756890177781559475971136892131643958234270208885632867105694493050075906786636266906590864404779846611992121659330437394024647675361297707
56 9 -0.079117890042994465633369181565141818080022584965260393764157317605230987308634271188809355294075527719634054333399107859934215835435518365176038174953380811574698779650309850856269990183674161464480986333346734137165784310723814355931928197753592139966199686788387849686056706177465975784398
56 10 -0.052692670029224376788894503311189226716464585102209239040125218578843917410850274546598728331735180954480005215867062771259326223046506043722481940590938360883647744439291851944016240565759902557922001666273696348280776813069962117914436926183032318227735401240660293001489738516292464366917
57 1 0.016177225266292014320168497632516683742746314088123438614723772417167599283565488326583424092836086552161296645759590888668298661763902900129672003150390371442431534904034287564718623862521736868355516147539814014929187893689183248400859604882359997202737076619914001809767805835077372170843
57 2 0.023956142332234726092855141416976015350197235916794481016582247721415260333407436444732819777165881415906235500538047652501113520335553935678998888793217979419289583908818411432445441781735197849211897840369076555260801017943110071103572346655074704188718104543340720785173665735522974472938
57 3 0.046566541187056264616286689762298008311104415462672543583924814876653642402702095332762170102471881819144819982030279547673914338155572924573627967202099501710972639953408499339896701719665170099206239120488257573865485143395330343952525281905954802933154778210321483561035794421667950255403
57 4 -0.010002563188973339771811889145203151332805980280200029255908908325546958020662814911774048789799925123830504890392103556172983685960530028087781170775504334557287863428152369873033953105663390077105378288137545684367194922915916998729580201144818001652305209408107784794269407742512704075827
57 5 0.020055293887959643572288514274772155930914738656114615399313285630677119464005005234024709074248516060533695895204571494952205945666590131024109728684338311035961260620908170771062213082505908186794053971509547626642188915496177918742003887747825918227104985225561425821812631590286611962012
57 6 -0.016085681035159167193161032992813319940917266024806644102345666593276885376671290963342713014013292783612675055131490487844776529260718480287912082105481970518770797034107012536490446322872551824549491934492368500410344582386627915789774190753544182426981110465090513259647676738400273405443
57 7 0.028801329368832918060057643605897287258451886545595135833986845789924180832500205782908302718738599815798305463795065510764822678492280103499839882479445805334211879583190590182875242384791190053259640646324402848060964790710750407819106168576843559100007492995821482929842955225711509222689
57 8 0.0082104417738709783136284509970433157041086192347392609913842385803368024525783677170299312294578440944257123817197724122789240563372222845563714058688045269862102834318578024962029885612885630961938070445329166137003897876301574804787791973801780910253633296778472970972674287327137584062139
57 9 -0.098668357525911994824516971331939261423799502206112986260454019310222254862070492733314541109246312206012222955676216762677537172769989240024635005942451420776810872656034199400507211037565816931131420044070714973750257725056487355055959140916523547417665629703619397082313245302586185407145
57 10 -0.067377137153452701649089042841592533532517823008315764461831063324609279684798189036915891947564878303173223619093114370812114950616202319750983538298378776642569190979446247720422893658987717147137079879821936724795172072612976923095857948708413525350025795575463258633211689990039454485894
58 1 0.0065128111608997958091417858118425539107641609276123970506289061448909832140085012865990862768071665370941594607803907341248842344116790151908012684279823110452593211141721430019882391918258519671991106264682403401463900155383954335157000397289811307145295692731718436361857697630961531135399
58 2 0.0094437423663846096373697639621895867307445766707803049421119313840110157237465014859374876510591084440734083402472694277752880530471646511366174393612912140174910218563150859194266136245163219683894671986560219846650511589112319006318541791876416136862393149926659648630078656777374205402783
58 3 0.029036325871420898354963897840117333147673856436598435871889414737788211481944293487707161182301374229384443912916021968644747985132466089272770361759368123344651375481696358425579663974466661040282418240420271568063473804296210005859777896472342316368288646518865015887038019910585946289126
58 4 0.0045589258988080968949959028888170068854555662189298379287069407110533901903855106537467527185921888218014692465844270712036300402602853628771836466655814163384492768290809302158351963507516803649988620439581120602907088004375771807126263701955997849668402699643896079628568676297401938051782
58 5 0.0084054615383706576785514415737895200610121548892556983335645974475083580172909478253639613209441945754752109540986191134897133706911852625578918644485289627799293328965530977391850134654215253998069847674071094274756044067964106578412744659830167378554139476234020406814823184413790715374855
58 6 -0.016662231507634766890289195855841053686000363716806230735796308576273574827922538981423867622852620514392792691026050342796844608632486583601775444181133785687235875005338214417093546636508102688876962504685030988268719621152331584859246331079136630378474502999335751195256025030549571588992
58 7 0.025530775117129556768299774850369162437070781366236966315856928197965974704599491315895017235145813420982084188198159442441526561826982874895555807256921595278333720021201985679572870707938896513673607754216334781290132745482385701082971977403209688589794857092655279516565322586748485961002
58 8 0.012227649670660347938750724171524469889920583735524524586626405980365616946530964523587755264485231236351378843164240155429396075202745403811479903134688896637646130537568104893334670906695483220547878499158123158305565880331960950782850575190240489089716567312300185237805066397769727573185
58 9 -0.080839418201267988673620912662462210846082700538150876384620223012481920051604598509289915393503295294856338166820956649245659075460930046231053944905900371674217138651918771655634512240768778266008216561846524275270402855978556757710042498605832891450609955973840540982804135708822257970975
58 10 -0.066877249641882027186008808226704714883405090369453749012617732889445421099307613877161247277988454298256751684017488464981264771590411205662406125718406994910693524477033641419251035833823685020161763855429865098444617290875807541249921141453715782781410213455166698762453192424756468618614
59 1 -0.00020410183471880124863567533868100311789753360909645948317408798900214173621716880037809223665907696966734702779444520549883868883229090169675178900872771689616910573011456887543474180625324422398806360643482994190412439070698351844434877089346289519581515447230981686651996186973769374252764
59 2 -0.0017405774343835811711177572438429202778819704456989713003580851360978119882489306244857787976766832213690576077590564119505197259670658529211637834337141149388654713139512690599287871963078995770856510854906664630799637750146226540561524068030857036667917346100996271487409956298177202269861
59 3 -0.0014670249949827226905114769384390037901021299793201286874890299758105620243087886077191571101443603098666776490874599911286953820045113021281842159066963332836652470285556786351446300296973978373150633922473199499691160802084263699432388500440382325204358042709073730040937939292570806020123
59 4 0.0009531066939352619407219960203251320817382677976624726954421947558136502393963535345735281511387957154921735876653162461771825050070948073027827510520015749643048644587380494143677917968692986149799297415879056948916379902633579433089771562550353004566191243263922151607084441660535304114667
59 5 -0.00090081316806126120074872605313126117744383215587552604373769115759751707038342692560483416637787928428049387546294203509244647215236513011947124136846812333153884627803950218245196825613849142540211643619753563532382433212472521670658461893513982479979138921882689377343532706770425174385467
59 6 4.0857305766136478976627989689949603026764798424105978639419439906205950373330001266497702086216828000309630391841076830842666435413362017141879927081305811105228982060292417731787582973262268906521347705412827781105050690203057950014083528458789129506297069935806413813242926528024942756564e-05
59 7 -0.00030990608886063637406059170582106383588971041508265489532143722950173026849928886314734861038136083859175808220249910741707352747312806522109428106284420297425629673591773458576465591153496220687235705399657584737815863490734412946838667438732732203663089351861444096547181695959542659844737
59 8 5.1501569300485354239966221646310944065449365107007859104772200407707557561969581561217147799508603830732031145481801639082779202919870442707685614960632533146295711986408913078352383385495956727914787869475724260132392934746422524989641213751872433631734800212565474922829982585692396476418e-05
59 9 0.0020779189048429477395658434563840107685632396439409768187967612908658403759020816356758763871439383991519884586440672590967960445866669301830668082938652969196593909185825738289409106371339642140816175532265483824483192388733665102327261540574810030422770334988416153220175170221377623442449
59 10 0.00082222424950239085261742510192107566333054608793497606066357277253266174749042031535424464431970494403948185826636671040707381424593226121032780659733125499976353218376246579914666644708245168058656094173504448415026180305532202068251920964795985463969406197270259955805108537933629018931993
60 1 -0.017725495963570045524967311199983391131971577541667234580155204349834810535539930496289431034024382874817364206635222809180432521695989079627787423600376359345893808044989627531198952449994069847303871242066602043264298964498561453928608458352499850172368572124381918823797431355611232969081
60 2 -0.020681128067549727713904843677535945709487825100163235847395048229253593235482952029675280308320758835957487281342080240690540931083849576750763766580552327941798473263906064986992041596825574117193011134164647862260928198794301993125856983343933976768248113338095214748914985253405215072821
60 3 -0.057538195554655642089968426728295925089627740797532233482043866819398351293795015316909188696179805847493223126098311550759262036313942422443093048997041087377928803624751011890073116711972257568425305902028191519364732019817510898502883834599970566090346444750819948256371102736088721320462
60 4 -0.00079778607552200871862399987167448865130702599487965147078658857620995655689478954182052624226046868008385345568645345235804363758921108459704713407731466610393944792480390962174125988398315607787716271282567575440108071969449687782389280043612116381616593361246154229752205473372403884108541
60 5 -0.019531414846998216148284405707237443573423949395552437696625318689289879125544799380400671181675677439933389093128685982942435731543044210059674796385254700640027845360531285202459416816511652649564258445673181998087309413485017740242146038487810298467576298266458835734800809623516895031289
60 6 0.029517376627556367592746070138864558269101322942210116208440770833559371450438368980663131766605150592240609314378899347953480693826256357710859789551747451777466158359577740273370530714162908254787137084543351469602713847795742990748566956580726259025852381906388361180306603398194461132872
60 7 -0.046252251427102354198799209846403684251644133886213849517608607847770628598656361327829890615355341921272040859096441599936363137694764584815369547487576065512450471493559883247797486384937177890818754359715462996497047684077699751245221950018718183188149204239097747115318558114898575918676
60 8 -0.018727123479233423996398226817714797612826711922972958563698189859186204077551327742272862673989970203150377669693157621655872998821888871692961416777029066685228499339546209854412604482415988168543639109898347887862581251431240084143078492251503274287184429474760169379274612744101336129869
60 9 0.14577193397751788379777827393754762411058245250941716551043021056021758845675877908962221092256610191804162489072460757626416400586946736432373251992177580215544200441663857465617013625026948439642127801567503968223075503525632905507424576596325193688771181242980100086561643665282805018203
60 10 0.11434783544785593912986417252870680092979290900133611516404033877564130306424381599276842803023985300041690346531613268377295492815520180025902130056171572022703021068018490755718408442230849743785755002494716044892641705315472630725090589402405632569730154671437799771105455690075839049696
61 1 0.0057006279623602089373997711257621434457081579101485350592474208640024325584958174885188154640145628656646891978502254684601215697385321178746690520147838205712373023739991668578941306294869208971351184144865638064254525236077670789741630145016382829791699771000074106021084126831030834258763
61 2 0.0095139513977334411014859075697388059420468317989201001939210414599606417755353249664577295079273732127561369747073252257121344846475904276678165740727845490143564436969934263161148071266846297654893864998344845238918893097465855984137000008212411251674010031332527322807996103027936335693114
61 3 0.025798029004294936478634319746797770504452291569391506205405376220605762410252356808599901674941665194708518159563969597128992867803323662339278051185023719922298900827335861094360233130734183479536587959496842290000326023233284734700947609135159821240601845981012970830699514765169671326577
61 4 0.0031418084577826496211620330533081687673011391141113502307843946689048760796802135187103446396464404522609398164023605908519311061192538435058114404080495807324506291705288007587174038548708086696001285249798732998621949932423557827827070722932995382158919787558072987866077555245988542838963
61 5 0.007846032122793799162321599247204681607176846619491071161652819998992365435183858752731331111312077225149494964190678859836646027130891403778192164284411727249410827253317194383648416236675755055336921331406272054852301251286540810671323277061839783887606502505801167684147469202585288236613
61 6 -0.014661263907368898360537034833376293433201689312646442705498035621939961443325008366009458505905556638643865081116859289933526327222201630317545531365429240051914885192745369588989373456973441827701741251739675686069037339735688169287879077301103126084825465119303256615343256197211877037407
61 7 0.02231843650457830054146273087621572761822045906646735053290156569706486249832969623473632257789409279708137923802993221219781820025218968295366678170185781870844990870013527312081682139353245669065459613267226105303859693261275946858782866236751328640511620320376507083368477362237164978371
61 8 0.010518977348040763643641751958381906058274986786567557356040791596303275024417822779957221647128453223893348671679165642942282253085660281529038882565890617603839564883954073545021315388697228343884041506178130774820996806010276949233444874104051060954400967899816607947870947622134874627271
61 9 -0.070544967044181886340345532873966119265022741052660724977046003828924212055942915491642552872144001108018805223830440341327953001469723858358789152929044578121902808805332790375083459976062450307751769582635876275336147621380376422233230045461842208928354618310546843707446707303615074665818
61 10 -0.058018619034472258080521430577883779625079325560045750054652514445462568758519158330008474698024590882741880608736354031460340897690696933200855447660900923702025601974972245958703270689025783808378648564980618395067783334817900526544202316921182882351025107109267217974871096146575242697357
62 1 -0.010303185107692580117751739838513220385554103453837486599955646088680028188011693410776498052323169997445349626080983386508619842498729909487454817836705066588567472893528049816636864737901920752964967524176557815614585008827675681548710612361501005039936979235783239157757047301587346665478
62 2 -0.0075798971116837693180919287171389434469851302192803648926955560549891998004186720118876081510690427457411566609496334483154513946164905376900280938407696186541792101639500786367691150973413058933054921028398107942913482467311082262939329774390821122864968549615327168265646403773209462049661
62 3 -0.031026175916101309863659244629096282170356426410907723170397463358964045394874868933632317509747589092223638445264606355537383085389962991436572078347502238644465021937383202710953464769109510786441325962174997315666710001035347106501040492966836296649708682572927964846512661510583537071962
62 4 -0.0035064037216083843083609674613492410803029318540891630224191778148203915774328474645092117386513824114039345006071363032760078512978730003234335763350567217591516451749158250704240598906217373904724746695283827642812929988819122915260119503893311146735155149746823626129520985836842240419628
62 5 -0.0091969015271285603634225540770451198805055595381720276768507828469375222307551588475451659051703712313428514757679606809325918865413163573002722518015826108719432140720700563333956185188828641574012122897197019102753435107516493921590292213487066188175768179232277682219933307465293700064602
62 6 0.018768802865596734894718388069381095438110637042003874181721341309492860366918593288862912406866698884734586856792878826820914863382080215621718816534190585681654711118069520615529361024972460381737158156826127082896897865618189490965652580106712113516647248992145501488188350204073532342186
62 7 -0.028086379183044271485405708612401584741989679515533515106542600118295052401759064396522487225674162226330823350192338782761768959594547820927332990009608926238937259404942347263045086893263665056191346286962180544106541354370201773367728573752217300107244087896558034765446553223164952720598
62 8 -0.011958246751307261627196256290508359115819236847230653418592237833537421564841000847853410842952994857365936405887174402283037846543033524755776806767614654493258493155342170033077234059502430305846294249357766804271372754749911960053957204845650055210996219326197124258357494765746199029515
62 9 0.08415265680371136899897874441037108705336716281039881499483129553033310651762414872895410197998769144076962620040467114766670616623810644902674019777172450540284685842069594541304619588459650724893757632321444340477087434479526938058575885520201402397833646183997615695323863985000457840892
62 10 0.068999317140201231736653865751323339818566995320276599016423278064755575106226383168376679396487985646187428226147618005344275896067412085098499104058131141634406334663331138339889233674415059057747302881985158234649996660185259820166905187999055924031008056953300531071174904341383296925821
63 1 -0.0039691338220643990077039245136361115051312916037439511353333412028452791701494704009351483281694319046097859734360223303529748562149806236217512399292336263044672429283266493823750037300399482665228202388631383551866665193666455300946639139443230758410578144625491540003786505364776853198788
63 2 -0.005108832916018979344800952036874288986874271290397463920155635541513372620772495677669864800820324394158511594371354003309418705412967789214559893709272924116275121150600433524751562598518813767112257352027874760285741433090059005162037378973725158480644425222284881569150302085204545483476
63 3 -0.015777623543850259283456946287801525297331913067762754534035117494371956343815951364815883093410098526126897909825002942557026878768068896144987956792948480474604404908190564665985534444165091996003917857106436012065055585006984722744030559041419974815083695838471601091454879421346443922174
63 4 -0.0019572545070876614709909338101229303525197181197181620881475146390467914627128681712218431319099336031919240555314416488915970017989078658827294595553439817815019183052186224016102618821664654950886591357430081213466257485328225795838456393484802194046071521322878516125865355489203776120144
63 5 -0.004731247995752350842662561420718082654308909654943968088250822008470842514031813923481856282458215429972669539771152228109762535495533982155888169012710224431320512724654763234248021840079976417920520910569038716055983598091477434747899205502799448381096643990375784633716868885949314588064
63 6 0.0089013393878906445633432872688336978112524349562024144191384607461813959630176811932536064058740237954655819373040460350108271464059189337771202357860531180418428903101718277085906279316047263592516449218473486812050846949817189978056934001662897366182010577106075980493797398760794294992679
63 7 -0.013662343742127381337620024701346251359647524082439079157278359490309510894650580846844541534915280271692158342333604961787848560343936818726873984684095650700489577973943103055711477863951575759492893854735969270277018774877000567220066992157920346332226738928911531011294346668680079854548
63 8 -0.0062810109157547201407976719702210867646559706816462384118959700613558702843102554986397961863398821479781293515554885294755261502548580440093112741239354874679611443669827056254696139785041706619672405157064021480362763056259447581331689941647564128839594678798654151878162597576422132898868
63 9 0.043013409340456394209333378652879336480538684102762858460002257680935939283502541392443883748622787539782929801926438819129047099295281042039280922025415058461661915650609425601724408497666131287400324619953318659528196006360331719136980724958387444661984299435133679123694770199271932057696
63 10 0.03520296175250996818596647130839265824676782167774547770401162235595525652240954612909871419475101776682411561726375221140580721488538959975874463719940577264132507527640237955057608669199459675432281831652654346967078245817440577992722693644422623878283221027297594652952920629396914110901
64 1 -0.012914482470756857782947120791398895906101326793875009354400293679791937098336136228667110186774804009128037742992301893323263344312164771046032417219402703855744608834210085226372765291784190524310288421904086415937835324732172803817908739743336161531955145726501222924446853847111087731646
64 2 -0.020929541792648703008508634972287542397778990458475672056716960479512888655474282433244145481158114729408360497858081517382231046083922617992090772278385006018232754453639480037779402430763675472015552883742221721264251205754523491957441404255186994904416127768427572291060075031870459417392
64 3 -0.040434770022193588573158483760872546574656226826409028773205563797398708731756789555308165022242824532521796717327858557406423310489900895089478200837937798650593848677159610067665129386068173337818986172179262883434302438276547620812791042395290228287281743978598019153078825812964208946379
64 4 0.0072163063556491081187814674509448039113194209776339924253020407716017000902602107099704776699501925528973976966535037347802565289970755989738163952689600061810340408340567987111600017528211042566292742167505422046442250664515672773148868331337918343340200307911452541414652089376079644454402
64 5 -0.016892947969038353901932664413298916462833679240697407845379431011184019017451412834418249627210685546601875999489312394539989891407585065953202638875651165415486849527336872320226311919220676807905177937456725829524520420566971070956095377895828330843059553871429217107532270778603839629695
64 6 0.014902550550047613127866357185586791752070582416442792179200644093562758992763040752093535619716123725546282281313736633720737544146601117774803616547035425187443478208567025007720904646590882908270277815323354434854649680622459301140214858498315610723738726235859446445340685592653165904435
64 7 -0.025952829943033134965011662839574909216568096668574971137926864865599048165118133786120081756073714360920973725446541362895980373608799930721621665273811586041816922938084420016720504530366219463041559463709632587096413042855053512803940258153683115299505515036739992810381834715874369621842
64 8 -0.008279363490639045221512619367856000008885035858767348887664860761583947685162659648349717844413234965853306759035165127177905432281958814881296066647385414195628988187066621327671191157646968847836585279032862468276987697534764019415697303911907859099572083033448832456931704051641868188964
64 9 0.088520843046052156634332917468592553403206211705134359983909047164998206658821071920092116763679279849216947710813111142013657611840399316979727778273665786260828498304570604401821529096442383465180729028877951799595493021617628882011624327584337170769907143724603931938619024317366030293679
64 10 0.062255158011524889234473988156818608567591816283943420365018363079559966015941787013508582130634989942940237347077326671656793604538074338430905567280454859428389653619903909999743391736613324616112695308708521901143768075302220475022747449245751643732840451981855100090537635420732745673631
65 1 0.0055892223929468468809094617826682946306636896977100647901898894016487362379681999527548871913792173702611469825870807786703949019995006543981426993436081828521074223325609590422688669304008069443550974783926979501542818994122152783996461671061974581570632493589462820208763154395166279495189
65 2 0.0071567523717782019164364549931512851051154653764889114984192890507876238739436494079162090510426328809067555502518762341605937156893637831388020783964637757060433284582879623072895001395652862826208101644641425752515935915149060051507362132340825132039217427690191559311899740133337711116792
65 3 0.021541298221826017314583695045588961565325597656993770714567948954086826783788988504194875766195116524396626094459460548650393469683042871951887348428225652470780462995441752575990128868460403762925035295318604285703597623125568155840339861803717231601333158217097411877736270513520265699168
65 4 0.0023088006548891454034793701946812503313849478329218905337723557799899327290773874014593193962487595031973276200667885164349284313372057484680562452702784168190964393507152466367121896915828982176547404932829518364607975508118061727443827225680226237818677433362911548967316654040195291936145
65 5 0.0065986990985859586770657045471456988568960441495758709559781136570466699344060763398131489279951442879011765764825008917315839349159210130412678923712653102129181942633188324610978406334870582621743844155234979874302449859856083586505873734825529731162022905592011862727770380332954249171639
65 6 -0.012098043121243276703686796919216207159652370052307261742676133147535715055722062470094335400407313192862669657806900445182383409795169068315611371132968742437098454634545428027621710200511927880663240563993398512217782065848795850112253352662657800703886459933411281805763928697710153289999
65 7 0.018545091098216974572519169009829669228186787650812009811401082850019278339522112284853777220958356384438442679965433202616434315119761424177737611083159010216837513114689362689221415206175211477875667034959134335267060655429152117568333255684892154859727012747377659634164308121365146516385
65 8 0.0083853516754677754237719359042126269873552486205915911615306415865625521422982528500453432498793369625270311797349440860507144829525825191073526695620453268634361053737732340651484073080625148452659718370668121655016899631116929173152652348960401720477626345023357784280694179649341879868171
65 9 -0.058164522607623905735006330600600958983420707734693524841057181996564594875613523750551771666181859043131302042360632855142909161895916014505829186517784256890809477132902757607975517755790748221686863823036538493760925367485348036764463259690279363721957292926767854788719209950955342219693
65 10 -0.047410415469400366393500798495013853068100927614649245888640158725023531738708416324068955887606230656472921599396769712284843092184447975663858251434542330951646413404131769609156065466884244513112806674897745846706802574515348666106324946705871285436947023332637098517324976386266484812801
66 1 0.0056688711734651630941541858914242159425218913341148685616593556175995311123962015527034542771376668175625126092699735308535193247536309940410584401405195029199934061938388027769338796323282574583084901003375082690863113171248389004888891137235931085383419858727981090640729069116031318813202
66 2 0.0102280020436547918065412873224522839653505888239278836986994797686031367109999953645305764932896372257514521596554101379140963606834390475604499173282290598487624723815662874876465664158217551863032100119895364501680931689858496328813260694626466761093753601545042842798710244495019456272
66 3 0.018170336395126210531677393902349235905789410954071099611160710433899922576794706365886316077056931385765812844989143064724567983944824825557414066477216308886144943058064889831398945288267512146668899329289825484068026610510552323161610818151782326700252966477212896430677089382541750446751
66 4 -0.0039578706392447292960891137412202930407565658556612532597599065292586271539095058273343393211813559877885802679372000803611522898212909588460649040053869899787961311756268483436575080396824261763033595464638551303866572277127437748676830509569138939875279646022059357130778600197650794896687
66 5 0.0078997456603927915308607890343560253929251813514223445055021528759468042865388995376769451141160591491319535977516167482473142146089486471815526604177634469980236863388532794822641055079913348648170280475433680939313294890046406859361277755156128797547249597033900758593854938760717652864336
66 6 -0.006153094321425195168277279606605462001761001224262879507660484921028686154726831004984063187726325656742135407093508488264421830631081859521124639301106015294218464755387843284704446495084210627016661372354703529081115819612748307460936594094592552187730595681875600925243779151980963271058
66 7 0.011032973730835588709220107460936505514266597828737394042892592485770052719083618749127600795593206336408849055237876549566529488661143627173430280527882367481260047546701926259295369452540398900381534844431590781224507230186474456719057844225673729237670607592471292862401374726225607140123
66 8 0.0033206348298964586707135902679266519556257112673885002218092381966274832355424195807353901203998524013018901147648051348426840053742463516649430500283322272289788719726276354784074894336401540963663404669836484138759722050403970634706187035355564066412041210603457418303917096248625915909962
66 9 -0.038549851726882791638201847550638908693285057410927368958768173811983350802476338480795929260852934100876819364989166459395640480266113861155146099002785946880628800770371037360378478429393380246185710301163006388003566566235585733734454188522918741975513835046798350853962313761731800911479
66 10 -0.026396976369722266851331632508848374462760525632419444873333931819685554695251380130917756440684065122135499864658420132364112524549322467924304477759690074955100143513043256854240368767448301198976341128017629681699141629625000332583771873971534214507540111116988990697204471342320106056588
67 1 0.0063106876425736405203309112612270723936913442057194451004926743631514259595377546164693118329479677134770910052850764883242347322227235314759121884323140223726594074881469342527354637095760737511701300851055891065737503063741040500745623049960702664032255208120341253765262209101390878741501
67 2 0.0085476653430626873976553549098647823693985296039652596853305997575351519925515975506213916449660706037910093350401038721284046921081985320632310000881560751183504598287452015452780032725847069152856299275538552583753238241532458058748165248080337685439669304145556560111036357541475300140167
67 3 0.027916219297055246256999037849744211861198867759148532463996097434022605885104142200861350896390698851649247770154872715206572336118562106570555462151443978825235375417212641805098575403236369091989103632326385077598814005435476613496517372197141830695889724124548542618686208966213699016701
67 4 0.0049230463701136125914988116201745701192245413423389717679138979724594312494915456141655362121816270107638661093065726642520471813712863483589828363776277751732750788808712696364010293177304459263520991043415247124509542989776695142420533655325485511331978976168476967103144564774583768070601
67 5 0.007831191272499202752852043172076651664510348494587103023474052352108308276105678505644483098296531490371663337795157673505137932582451692521675135935865681383895873789592132579453346070920193933849361344872186619129696915489212118993959681180006696864653920814444637609834551555321113356684
67 6 -0.016448209106394293505842096673368052254529439428195164649214902034009886030814663067988073504924419210569942352911340534791201694958154738204958101355151327799794686147790448624426502041832523877439705871850302860749298264198499944711427759748126456388192643548271449391452377497157889093528
67 7 0.02500276302428877490083405630708832555752357673049064716563150665332463541052894214273844575691728094626382525650222084403387232208962100456025255380383247119458800275210507812208869258308062867044424839600984971730653116388450583481320003914913693781902306557674899933174215159361657770606
67 8 0.012068188102283581890261630690172761059529500593008816408894581878441679856618586102385779463099817961367228835439650262395224138335112959809253125594485560608107166584506647936959497045001770509736653342394608696930830046951133259661208476948647337095429585709260220293595739323635079172081
67 9 -0.078700855645212197583991260340866727411837052985615549191088372014016050103740131393441671897666592810603261848962281723793141935308604873155876292995968280794677583514584370010193538262769831535869526561294681806438969659254901588437951905636461248727201609601800255569298368739833308255651
67 10 -0.065545795020668799944371052693259405199815865953479955365040337108730140129294719894566808492909590596952492294810750014573691596077284241328959179671556532639127293974362456071038106952944190522276376467768531074659706534414854548795044168730178725907494146831465439833709609425755589733744
68 1 -0.011658429142192726305592834059632452756617195624551919877334230444016101849319597751610102176546979668944710312168381685250217830372296206385516931604881879622676791686728824031971013730550617177029186611850007702240995616209876992447406681823995429033309000568450115908954020672019913370746
68 2 -0.02182831166804045839400760427282888007567804151608775351591946025388797871646599535450859134535083768709595153477716758378723220920665116417316171043329206240685489173299579774443771377122069489770909642459997827139572388882369875834069185360231262530683505747973394730504159060004731083542
68 3 -0.030873098151310471907267367931316650550276518541969756694898936117932903588361091615135088735947057710634739941837163969385216262047244250445381695668584029898661189224888014186026811906381498171395016855879279245961939698400817526772889909409002894568718787624818700593052069165327545318501
68 4 0.014573510348010293758310799024450735241100148933475011146397122880358676853028754354026458125881059473330104855892943342510032898361712157111179283649304501507009706534841341557659861670209976179482327279686971014477137596417065381816465936880745292160766485399446038685539684904713890855532
68 5 -0.0164567053070135599924116359171076271607301331139306523852644591155531437342834438728436686726982073084754572277746980426265699383885467497169146116649575908675853372760130984062559194276245076471759899060247612824889249455351107189198564962581003980200095898365031510636226131393955625405
68 6 0.0047936159155236932262018807268762929745643356537970741955488420636411170855738539448391379567434724673608178525360002038536492664632620967735209330975145898705488181357723065534062792379302992420357072507869449881384765345644498778407950963162516788265045663473902231187164791272970458896936
68 7 -0.01250372843518627608668988770131721506221489975753202863094356871932942022537767457004073943439589597663465893811800741518573929602492396586978258621797153944072343467403087981337611847863596851863018219994023539429995006369157010454963331384434833805481017051203255296376270196893433293586
68 8 -0.00034133156355589249348981181011411813546586976537006015368314850941499943141763055195338512781683122109487969356857640617439968650358221808063150965297955380193032992669578419433790326459084942402473673514907982251960530834476501677002719890092145410906891488426079580359399168216135106954514
68 9 0.0511255883170881019710898720114615678984880889478219772771534242949923100435499351132251254700120851460346295238502314064437992834834756248258675975478860967769500769427868051862002234875920953324700657593683600679276962439784242456966232500273205203843396138472331842670036252602763764765
68 10 0.026046535731299745075007470822636744931503686577131519706739368827095744892582014068436233147777522899423131882655119839880400673428998529327393420964808204484949656888257684527483336491416403679558549777749409359430600857924911988683107675244379228883874444099531598149860903741578743926332
69 1 0.0018769616067947272400677872568198776333296569175768950993642061093098573495045904997753862680484101479831183761270090712570133014025084345353343313109924329958271344325274829961585237902152814881104255094371177564963404925424173960824087374112231583784953986604946932466601410400234401967076
69 2 0.005763321077906840581699023291318861301998180750605988439497050551904093692707933828769339367138697790238821844338336774767981923091095407598272843049503195639369082185492775061955611538741012065691274893378078853697160130180011136861912560470292725602199041051693143179472816200728935638586
69 3 0.011924778936070251550279155057354427316778001202337995848392219477332037273857451050346255792853912123542675997898053153345058080849992170483403830645048573947089138653424941178148079633510070749121206982600266938272802010118550173316051138524347763069774245267434692839548292318649271734198
69 4 0.00060402472938199194148807036508372729122945511097341844586479827401147146475596769298980749809160910969784360693709493806822570888136024453792721783731879067114256432755603437945865334555749104192881844777757141272835820722063906899020327819599785896347403085806792303056591444319603345107097
69 5 0.0040653826126748809130540771364815561500384810116216467914792305565575165745117479406500541919302161951022235428970259443561184890724307550182418044042109092705961453553177191624795579450013340758201212544589751809537052070073728049817658436434197517476217427055312262708810444600370532472547
69 6 -0.0049822318466256157963459351229772576628978325872551155072924036859965172967271877204798401794364930204789780402872574717928605551624025283907829218489011003009994669115789317185198029141497664751690818193180488690881727759733093910465907142589103435825988016900158826483887082799321738567511
69 7 0.008604133021343232202409944581026906416934424702630275527199038830495115839042684361338104748742009579296379058897087589543307529490653014476285327123034362864371513038513256859841790204703540009722211293293985175170905594872076734315066017954553700337798338798260103239273240395503822782933
69 8 0.0041645271294078004617617082347076310238874958077603421719839678899246916900455971015679142406319939389930213689627939210732495087793940502990563261357904581541375481814152775706592571887317193158642438167495967599353043623724703976276083936106636036783761990383228055557533398182409719634843
69 9 -0.030661885117420450456455828279775600931652418413100771669019722226422956006740263083967671726939563964624121042020907458115369072371031725861733022033498829451769905837520075648795629545958052065900920635706166537988768021903934081864809021452522570065112294264515069314072693387371558354712
69 10 -0.023876949476196015893381131268098057190879105496537419204536073646665480726356010507385879953736741410754928626723035315399362631018298339640719509994790802522209164155696156006349287311840384389946258012422841983808586122493006318008696056762473501173106519102584651068678968631655189490729
70 1 -0.0095483958001843808389433338873630627602117255631034135644622151824074729314547630033883733366965102282189670781260397342980028398564329932465357250196329155131780948725899578134392436047972838149129253707541742271170103267904349836925354541568405348234303409875729829537049910089017847744213
70 2 -0.013284592571033914436926253052586812097773268068016159929282463031411302352823298550759787823233208343522279687488320868828105459955928877006138007439859857286722457308863616521068479553226733594619609603244313019284554895000886385144269215383132644322161253269138484648456807468539830628982
70 3 -0.035289123515035831535776453088397358746721812200299500951136921906237971802983741475744289671293183690519387344401015872620562160080843251558892144182287855473783780903929110523114886593260311801508941971804337578367525000464891292564044458801578036598237309630846539706836684917777915302495
70 4 -0.0015175801280818593075497652428351809834943588385469179850300548339192854769520538423205792163262711265435586785360415374048716591331517088917667666740455572312207597994787050759867034293645795125868798604347242691021632760623208548744791258161496454397648755598020849249995241969387624258432
70 5 -0.011679050087553767259560885568144280982180466713143020894817370273958223558284087392087152776830777494296688378778650021534486090672613526131752838698283395590916059767800801432454714660381631421674946474334102776637492449576475534063819618746140116700597870306313203679044312213154265650035
70 6 0.018185041938236945594477562814588779295678516855892007561145046783296808426854644217039364802118905631840646665049969519053207684883418982832488006620405016891184779143287202714639913316022805343855351645454076072395185496943972685087375007896652179132765829482509852054968042822938471546638
70 7 -0.028525231458089833994350708048154853402831197242313132876808446266731333411068515447751533279945807746366558371423234536007642498689693128042853399420869623691584075118605953021656649586374215739838761373461441939925352674203590408433458182530390954486535566110865741799971262655162679545708
70 8 -0.012250707409002776136901077142251655657886395915716220246547831865044925556166498197987464171282799866912294615084861106244248547198230645858317040763582493974764877630572493649142322879344296478825352759359565808261834704918264894329462770217962762509101690720508635807116439469035398399441
70 9 0.091232359692074043922169727469862220553400099494999269197999723812164900043882958840146421186859243337132205466215793344919742440608070224294416359232849171783066925260335150210891179227202930962853910355856907817281497737849738522604391362713846366581774578040296185910521006918921689659397
70 10 0.072355814573889382958645033827915993763568748448773762620330359542475485577306654499461287850694154549589787437017526417506517349893097900083065091796378567324539274648445514494786724861726298741103743425801926758904046627051906408278148280037436101124193297947191261630844173989093764556865
71 1 0.00013498632595163610912280426876537781025999638567292850257083562806084848232159614569266994228641280569649788607849321555397907464006468654180919077950610638988259785391104996881006859456213043819800483547721322360699418836153376483066144687439996902303302447463687048335976797440746525611316
71 2 -0.001433918662913450000518725844599926729467673513235358524037543033238132884069638562744590030660643836574974391345493455140410452881707395126819906401619456417699454983405822839487537889798139315820595723106727306782076258569310383446331231071535931335142251950850819122983192020113980822511
71 3 -0.0021928108051690885663298522109883457977331488804408761452261258708499371112223841107643789504110908206939462210191855284471651402302705038427693905340493274674311302023674382677407784045563636535723860775878288002395218128637707104375640508751427972398018925303250717226276843814085690847075
71 4 -0.00029771086642113588581517672194010678268569719706862545961814371632133869349979138016813482177739128667534980009265825366716529733429261990176353323867102788170243623992499639086364094891135712709133046918870148457848176067558842725434241415088577024549431187813057788448351234791385455759591
71 5 -0.00070711793579196747816683787749918616131641946581641015985249699097754355988262615779576081211712939977896356045596206077637592753656452059521768963785866596983198621075309816168849597270248580056475531892097598051524560388535264079186488939034810714372104399456264620777110856150196916930081
71 6 0.00078547630991372838759428080576252388961936425081080481787850959620422589556683252355129538054141375153493435200150214591334625956944272010382610109830334817249469353499308385664086877913363307578442260864219689606000510668184747833273682311013912770567149942297391269390158435835696095403696
71 7 -0.0014555798806226141563697461197997452167510084300706261624825741343119038179777891842381892638616400190360065882589757497665162798152302908774650853587439208128879708970138638787875803126366710927796537165835512039249051958600811860753469414780807162154932518967182002649792869805478190257832
71 8 -0.00091742938127564123474005797805649607920762140242268159117301750877980949793879493910399445640685747174747031593535699812874206237133214910075608408858177175075582463868834927918018950535770858948690935909360337647683841833728918585029857170211862998995979663888448374112948918067254665546999
71 9 0.0059533870039550799622744293003251307365329640003308975178201873316859649044461940633758716113633689105483272511493754601657178779597642094666044737902087281622160831349808183199686869557105533740665480066662813765406542073571134154342072766679688888650135638713975459599571634269884627761636
71 10 0.0047370424415725171455545958895891699855723878501577151927719269042661529698930288513171079244235176378830687048447118962134860914681843182642357113646438393658465014856860224520104321085809098777375720005967046347543030807076459715695349473756298851797069226816960418015716118901023997499819
72 1 0.002171062122522734420248567850020091224098332273777567883073355335227690279359860964373416833339931478965686686992811116073796313965759873555106269812406350694217602575197112348100008222669884513698172715475272216455796070070613416411533694546237957363012541057604556762918034219358097770132
72 2 -7.6144450996662585150167208573638305331032964753530571819804155880926742164266462772352822269978432082385781556245131586455400768451577682273010689603240109297314396919613727860367702264328247355143718794321943285491177759951187481516527876318178642024293654335198816523071746106196946464612e-06
72 3 0.006713763122192502000492389383576974039134401780584885887261033651090114039585151179333102386020429644827093856346909528351096317692769431820862734797529583387309686447360238711632052771715280661891453000497517218636278609129668145922856985643958677744171737283135930591391593345357157013488
72 4 0.0026866945453861372232040982739612929297021703561952916277618615713854716469371035448528655685606224809767022110444694506065561812086942242552650667892138714916914611367586497409082091261526180131988563176420273181990303973520304280351949042679917390263562066319745567014078574875123646792106
72 5 0.0012140164926447497720758213765283777513999406838716903072747606230378877646883713749830090211304447281717765300738467957087522824379886454799370203233069175107387302136761791770557772821270734379631147543440877977958603572098590244232863099515284411862019069117974230433073911026089903791166
72 6 -0.0055558671529072826750920153257185019007534783079571252679579698132054536217582110208723734498027901556362893596051784111357923541573648941338610644993042197857192620338079590205011859768600560520866573541531652395290188472642686057134858354154826721132122953097010885692651270651886548160673
72 7 0.0077618488825535747786172354779159875477786567581608306161105411807394143605327828796312456966016707228463499213400428539454996702766559392490088711038060463614588584114083747898964964280468822361449880898042397562107993932865471770278114747040164740844515564129169993782196569345609155983627
72 8 0.0038055332190128210015278955343318033416134147007267517383859829399584415974168306357517353742975991293460772935371695104995996576324473577009353522291986746649348152566473777332942985465764292822382518823263510720736564857353926447180293474138372012676876068753495452120000318723127147823524
72 9 -0.021659247025900669547480291218060469340799512831728865406107336879726994765316056961077149164180999545183988186090689247237981617553550293011641609982154432713703622152969758665821042221144177299176496639066702440303099473008701890237006990264347026097481694441366164344548672389471604080778
72 10 -0.019444321373695581384120244120724970319696074569395640832261721870076441363501222866169441499097190957690609990326154617688398523294841079452898601302043136833562409031376559244839520026454533542384322198395309617284866582740945129839848889723971179934757005234216834836780860571807975304116
73 1 -0.0045321953350676478960548468602460095601649749486229624700264571239208494970892960528054943837206530089389699266053829314185190924287832773487674639324549575318131937954834036823646639917050749206623644909997663698103416344518828165041107060228951636914267805634214896230944202261434754037641
73 2 -0.0049442713315627661121280759163314812056767857854440392433732263917961338623608686559725057122338009791359018878680983803983349320720696504650364616994944352595168466239780254384265823769982034687020148544851098371515926734817249279609663685373485072270961952225654374969897100881932458901826
73 3 -0.023887665763632772920120759318654162415623878001670874095506020606188963841918020893348066469844856182811283618576952895399764020352754470038192981806707113232703570661191138946192476186486706534629472454691661039213295083584544918031985427166941430036218462188098461418851892422777087618859
73 4 -0.0081193408355732895851462128771598644953521973723193285779881992496975295288267661321688801728220413965205349215140425815715348304136721305368158701385589551028729345026550714000787374635097968378779094957635213055669245572852586132049257081573147846277578102320979534410186526363087667589517
73 5 -0.0051767695400085876593766024995694825640044019188095952112983766451145790783513741204903938842615815826756544658175383845055876860382634383024404223764605744693268137835418328415527318689145889616081055159445282835853526585062483055688363553248731313347664576844438249349069940530749326776329
73 6 0.017003893673621006870371272346504755461145582118335794097744802365396398355166182884030116832975082839283868190411247206283088902092711183328601255549832981565057640715673049087987986049608708538448195092394891414822319292434122424511940961007969819206205668330632200321931577287596631925972
73 7 -0.024607887797540790403539418786178574774453023457909244294187895254381193478093113993035481547770046515109432995300109676746555156472781874889873393487672856335071468917516887688346479263429041882180049088785991266481781182720568710797281082155985610863577892685380264792916214192695678908933
73 8 -0.012963183129375688915860337221904969103586378835361560494505917091749812514532712330969713225082615576021662916865087308874521411413856002489738240167222535212769974179540670047398491180219025342866849657414314682279156410129661359227122828979212216696745962909446373428416480976927092810029
73 9 0.074511234031101960554636161773946256269830492138234710564812699334808837235232476950809810452649347460620314986952277178609868354276813807832624627085033062527910057812249911668786092254856306996245305765590878596245872127998491258084977703598429714452085633290518090869747971083637697468379
73 10 0.06550164189765542572085829407051447133630838848461347875855438451940467420390563417999487930435427930826122615204384548476034871242990823060392567013620126405645822211660369543073808440575253447213129606478842970042870252335693596722965508442637675913493869056195129385965327861724247273064
74 1 0.010649101945252638862312767965546847877741336705557397246856519235854169004895591853737286641294032851477235860943198547174069160564614352850666594683342230210907787609591746054897058303817487542735477597622742911453349464750937048537560946662110854165380617969534708374795658174046474927595
74 2 0.015624614884998369656580178970636247637023441874484279418259289752302655013135417836052812900250493814672856006801192091376920946191763202071955078330761700083642573203943834130715294728194230753590460288069091294241887824649748842968127622558997541101630894242723088292775493818409256498897
74 3 0.033649803091801396275997147977520081188813124229017534205551730420272047813402542824936089112371468550564519109207423873615969058586809976448198175506209127649378737386888790409335827673465584011863684562729313331778883712094479367378951936747048799614988446333774998483782428494026851404084
74 4 -0.0040095060760397857341851982957233144942839508604262596505750714643227490807735840287317754916316348109796976521513827413504753093576421094733068640874518122378135413041798466842857250225452028039375608177534189571036546177690883084507650679267034908461298321480309179880141114201051424683196
74 5 0.013266349062862080121148517156785421445688312124532514063388653610647483459922490162655471811195874256595712551177819604781700517025611229313694747748540067067854786985032062269341658269364761397978539493324078341969017036993554551125071816009721389334784140299111211367991904414050492497349
74 6 -0.013537937457201945467244368762301914645762301046102425819541526589094400394018006672808426251470533310070172574660363446870215647419181146919055283235121212472476540668700743607404963524031929713682998716126144552527119349379719105215027431356348081628385145202943554432188530546185290148974
74 7 0.023021188197577368138144558543017118005255772967792106888295267774743431192836337378235658600984371937271263049968774435661857522085836459516201094030730003987790627252291432271489503910710413170827726446366933522746152709078003619134519194255948915896003604854320660230702181991453516811829
74 8 0.0080225906112307645861483612299255663269511161481229007619565752153665726342751222857120175740270617846702599098081447124316797001811559498151028503312406737197067719193677401542578637503809799849908426883838089027027893828420172132136883945106941175305844253020252858849901340560105969697351
74 9 -0.077025920213280691768123883848508406830611723740154450213639968293289724176228044780427414591526511019436661374351162738781268716301779362772747215142873000970952498464076916283090663668718540759775216443313015719280145008531334946089242346505277106518703105790519483737434886345481680201939
74 10 -0.056019249758354407580223974180067011109655772704706188339291076457784354392956561059617872360267405058863208672487955412892272295524189812704061158909440510626399128688429472206308861632259675217643214047316315566468328919951459293089021423346731162924480774134535626457040697778353368506896
75 1 0.0056948456908932894434627696676502503635470336988196368528730996308967127893055554660210042113527058423376830145502494948820018329225801023112341000608176792298583707943589518894467103016518880944152368524852137165376645052036648099406820843842961175779893904410403191677701492554183654233743
75 2 0.00611283995017049441673964009437103191237679077731498624553785315603056670728650567295515548501744811630789301432043663827081992497357491167708804444462745036915567898302566683473861862516119255043050561234798697859874959273796413666507475241051234013489353647947773145668618929514221850193
75 3 0.015069703945366701526702584423854737025151352580604185538537269147886418405906405252350379835835816937425295743240142129426236607943900504143603099052472084998553812836283343254952888298053046096383109963310772257814460292576164473130563601348585879903734210759350134829061006908983854501822
75 4 -0.0019001488335814017011849148263497798122844510979722663464885566811473818641300008740515882821265276433753286907359104001953959397942737012585013445622947633237503980984860938189513892851480237726863375014801317871277746811730367741842956303277164282765851794309524659331545451172549406478355
75 5 0.005872184423989445776876272556741226668587687283371723662006132799850983348834074422648781014554568603675392923871194861538876506499794189773489080569795441778118731707599885511798170003546367364698467722873488475038643998327040073394957419907605052747569551654885867241395299479529687295926
75 6 -0.0066919170309788812079222795994235039803321623487555110517393230729677358588831925511817641318713101919101400634364156814152168904422121011193695178221947903777790699323941387028607742434016551297924233592338502295406196328812481455255019926839226296533051882613502727411605659809605465497252
75 7 0.010870107357292484730795393777012389435527617126220655540371733527548980789237699489778412548539535645569055061856191803319479585551408676815712577678785092595395720909575799109300419382015014016010152653134199681007645654402183971164693005277454358543179901164220719677194221940790494681332
75 8 0.003499177745737066685421528547716501740437549481589044293399029709601003593615540347670237764189718335709593664858537423881929200538941036648522455677041234688702046040351449972903131981647772552305979041013772826894671490704804321809273909287947993272440447506750007243106084169144344542085
75 9 -0.034457705676214938868012438629905767357579819909610697823515787249508429678540874303036226129819735505794444241252428030106864337435270864824182504189502727164368569601960283322230150213931754081674132658963369642591671045358922461466862331794428686147445492599247169664844176349272093414727
75 10 -0.02521775959403612062569174866083462895656810549633660986842516182153334801264069789135252483243680720803689745083380971743510438854893650154416637176965709263270600072700961200229403688046554394406623014372257237035254931455730767735084133956608768063278085326845291734031289570090140056841
76 1 0.0015623382167206859185607201149985870631254871051862055200041501827285277835568369058146526302679466778662400423020423423016341595954358397578381027583921141619367537507235040116100167024237988136857997827160522557301569481771133691692177097656292534284308005134386072892434510457207811113443
76 2 0.0058660713498783551988987281113898843051552940114935101500222198538327646348022612774403982489120286976986333620841201126285720525425590224135331237094063766423886108796747497091171845604424302120731987440957349835253676210907644477359285630616512414351455390626262095063729661869581009051538
76 3 0.0017438853642326096256922358685191762711310106728952257797461801456879076306070199466877200171695600231764116084274147839097407701732103658449615096072373977677343858732819788979582986065204542219657505574038976730377562859275935836963360782031954049776661684409378002407816252022943703568388
76 4 -0.0073145639284367401883932731549291686696560565629043229012645635486978612543636023697989408126957771220363947343594388440202308463738984454798027156843139030082849662621862644117571915076787841169693302962000302305031732305228399565694354618207312584583591951613069805951168078375012474296142
76 5 0.0035277218657649440271642045180812178359570202558373402770360538383300551048010482914395223603083850058001754923014428365282902747145454470106338202737326230216835130208252102763689676818664877890935733698605365935030192265593896731068277622390474241681395800002873824918034322085230377978447
76 6 0.0046223925685419098141717126365246745939409939740157021882125488423794368475778691438073294417436859583137396539120545144316111748039218303768373236613017650881644519923838994259556991083173861461393076580058901069090152622563860443457325810323079823535591302413660545267366561421555998346227
76 7 -0.0047038746532434317107802210783967359088075940547402630757420113669723139883875144136300546072046803519876656035344432309604118373643401867566889392618972597729677363162249883545145255557634603406464955910040544381700659420876431310178087953442461565549553594565172296627087577304044158241373
76 8 -0.0042086767307994491624682309919753068146640343114544512600051583337476507974723743707908904022946995857743490662137685960981570349843508177405806538376931947295227621157074709660426372723465458706958221722359744132640226545573179212768988873317085994517222537100175440784974506518614588828611
76 9 0.0089009113436241235999870931350536873302662438746024142302066122697565630998530403579289035207654029046575172519814218922521927564303961995608775848856411819040504458989281676409096635281326540417586067995748465462615395926821720886187640119276105156787442052915488868259266058221977415571557
76 10 0.0139321953447557153825073059719161976747815472687735827671118120185090647336735861807480642626722277440498274950404686532951064037005515296822281545331763079298925242499450238308192229849407387153526778336031044700099575232128950113478080077978352319685593716744500203864034912763564383699
77 1 0.0023884935359708705802668791131330200983138884642009645710697494276821995875290974644651946577037141761863621824409128332232465904999219581007363598114986244509905595394401133708826774642628374699141820667291018743861578579401038918218372788985826850408373830481960203619859474274620999563382
77 2 0.0047663796371435909921247075694189968557632819021440522911839298153570040063605784464866013445775940458259688918834541275531656256428064077643307333848095033235452155687828500944085230010654934241813988233556200663904077510522021468595616161172841346886453748512891986709070271380422595162999
77 3 0.0098716647527746773599350460982703742871220023834376443975655363377964208500866763322734930403564755300447632836532434466062739296167474081045026762010689504756498723312966642933321008197294071596358370394097734037527732479188047980818811963833558260583475922838290803570390253748866940486777
77 4 -0.00046567564864262094674134132294261722300921747358709691492969594097361531773851304960716807288628670983387776160177147457831768414716434980484816457996025953371613599242475432816148601446286820219787404151488409183111154120581131163569092006855371435104272992248292242071949025098936464178019
77 5 0.0036571343702808707433971307920867188904843276510558746939426679684033745332990348903908767733942408944540596457512036394938595531638805734352447494670450544466352340839061726219800411980861955250308176569821665748226521480311022574877352601056164243578374641405152296387683018062579409279742
77 6 -0.0040821731294639111952325741003645341607302510437743557643845663770014082367982948493390668180540386149500654967088601570184787924871815821658678068996728641361045873305406137145204225708312347228941830355206815670179351795891329921191502682858046544469087080448706891279423575878992265406141
77 7 0.0069172859114432582421949871140789887745914505911515846163684569025330573439452711117687062882052826521729657360010911272139522617083948488834161150922124588112636870073706546937705094245766265439753350502307400715221725703102914247690568499768020679845978414603797986464595452170258476693732
77 8 0.0028432983147784735831157651247901358777369881750684865942576005357671864176052882270380635872023996835786973474267466138690210867218393476856898572234265769694546925079046140498328938358078377889092387990279518999189832738611104634223123897468376649033025420653843821419074854087072588326558
77 9 -0.02381837623032746041807005526200781093195912070333444990543474548371252871724865836398512560702799833434459177314822333368680571284584669511374193427499718463697118649147702209470296390202452176309893774641895678637466275420742907044670344122622778288329835511583647935900105918795627781021
77 10 -0.017925459165635973286184804532177412817822103712134630501754416630539416813083585475907063468637733280327794320334954152433786134102246118200056887396278692762002345931721634057219205147437979429833775595553135958728415235895070341054637446431523884334222365863388938569854985469914670479292
78 1 -0.021166741100557384210535787131590008676153258936736781798995752360191275593097298577374124807194957171253853376780568055165692854487217809794501132736731225276931813020214341817914066026160520149544415330305148250392581049268349265536878568694911858601535210876204198011934271264163902305309
78 2 -0.026075918826875964258757990809182742119529214556859692753976721306767859982094057186465045598259890835788346833710160053873310879151206397942426222297936349961228036907875361893516199933928073955657722737285180818079184752521970061965987872700825198153423690647686827265858651424229215511481
78 3 -0.070197845057017229328396121490523703152654771360008298447435028376802052316898507349086214554593006359982471298965857257528925716958135084312722920917067473162745705442100870616518668262626366505767772129329110717475821817269001370828491300443947669468869510378379955752216758005899046432636
78 4 -0.00057849007053891924843849274251104197346896295430076728514913360225039588978551678322524668197041065655129730699669526726503538580757187767119977444498298368824697820363047040736654586326915167820259790513389043485884858102516121013959152409092497179388962262957548107453537313534215211426493
78 5 -0.024034030753230465648720769130608783691223410582117931808392472567454823595072545081633257183014251014706747169569699303198032004749444084023993104488073339155493312980485145378445066416895552801966743196452380517799927629116511253319431769508344281495844128589474245578045852096807718822589
78 6 0.035407590075168041465586079510457312297064604142618674288357222050764768827903326450165008954885737547606009303818676810102389465309844253718033862134488466278706692768650926077425315877701416919776151632375869796073075980342743254395626501940235303508688358365512252142425117259254906746957
78 7 -0.055790293730099567579777954276268675603695951424184862065091979498708045938870670794730996544152812302216941816622439494454333814849425666115742590138407334369635887910252425509926780432625073803848990970962486465086782181249449230830067274724567888992575937738402491899199394347562047764738
78 8 -0.022627619785389417991957909773206854223367964263272271918696184328582956753591088249680626741573688317963467902866610034998112935244031619297472954115765146707115387964455225937501940397040661285979505737739861005229148584415620461926565059207301441352260367717764548566195825749464885523343
78 9 0.17707910428483312844142771197356530538924490617624983096667612296248363568149373844545462994535686207105873803313527710077720819177980516274674227621147825711346124846610109628529243615096492837490231589333768118986277809387749329640781109073657857839267982702707005882017572536755748189243
78 10 0.13844937088758897772006232369365660594162136025549002317064475448916855564621724045692436028580925686527107991681296319707104515858148039414375099905480561734373249016862971632913997295688794768097489859022045314525139047655482495394052948808797884140710534706378583330517169019269658415671
79 1 -0.0063246631820849007016147538747935562080873002869590062233909833750325219637631111418463555597428660130262664843831561953083381440791448867674071489748771006174928084580289739092218770048295948303448799171888602739895904109252823260640873695309154734985636952301473641046458331109130309772777
79 2 -0.003148347881995236011992697986093235968461791827049434674688798323569881156879119744349181987284023153309742238826671286591645783707761980712382371185763891168253152900201159967825637760257378228050419931626654509383653373026377669773321623370616682911606383397358720784809025057038576211544
79 3 -0.025099429691986821184872444108608922488312117067496539387698509874283852018651222519356317910773478968759702775912182952077145877576718170792109515133120760038690630887369871353726067543634341751580741576674046514448486426920740185109611159033126306268650180452208346813172136712776685979775
79 4 -0.0087840730889503436104917604749351217459854734487503593575329726267189105671060746904153081397513737608197357002081310921724578346739632038230778309060443313196161519259457266491317519405602240013060780222995900993326894246240078013255103074460119504256192322398696540430598078795120259089541
79 5 -0.0051879673033136432211983361295996621035005363581066447958703934404512913699746007170045365817328550028077159096004496625210255018095342772555748129084535688138924001137384747312266588252833373778353416669233047749310933682084939765766650780560081491400527835576645467735137323814139554488361
79 6 0.018784847423238311572352846933485748836186406377669740242816425996581978043660660974522833781762294116984131265209831590729665315125943212128642116619089364349314214677695832076213675631711159409226665476244413294311401359017061900135826548319682592940736380272845650591198113599325652935503
79 7 -0.026847299205117095146413609757708289908128748831143597695281173352335897225150948037375051327436009217531941421971188247774068582276579658895018866540994218283864959902878130239004800354051970732027737938877596946331122987599346505681697881896117339522803908536128187393670972482480457993659
79 8 -0.013584146654352966604243894714706422466410214840365274815878231296228648820284070783403607984008186892790906781612624661807150779120754207383186050124586647260266484476101428102717597307916339870123862259168833371291505473406937926130126966574647183579098850626036422829689367644950254102101
79 9 0.078708933092060410603755168190021801191608827920556427606839940736481984570077898196998686960645962256329891696581861156855015869598812905438108396895954048144053553953402426999629918806251707520867717289831457326741507820081433800679480270892940453659344431191677166929219161141530935904047
79 10 0.069481002568424691443985686418709129558985849189677310849841109356348899271952756338977067191569801271482384202829028107294707224757332748732239986310477075160524699842544301600168125601230102300282896050500849085853775139387466815979492589998856086162331480484628704972425625611537476685031
80 1 -0.0050639607635074285344815781607406410284948217125838646018529809786456350514019566742444259799836670675531898210031519312466094225952655029430081387274414153849077997121160208344131185301640687156098701173523342163898686724158514345292609929551201611995592460974870303527017830104945881664307
80 2 -0.008611729955418240909657499107387074962179102789422881874399103541215065593411073481361331511393104514104835712467651310398208412316053775774329152136495144259862396232279541915002278566945124821281725184065489881313242500114469328986594308667381387033062230583236215022993413068810067713568
80 3 -0.015224411684619735070142702211845442060430178758674859864911527217079553253387211234233332636120937867624370835290393082518458787458507430592581475581933584270681077410801409777176159217575731529046756601593332479313742256041581826888488909837453328023905874414593802346805745785095113885364
80 4 0.0038830320073767575427287204245717989253190500240813478082611922134670228737883810664726075223728558303085632090491558212655494855120309894598173203223644823892525259383647681001312632666044384990791902015788985406354230451844135636593475059135867698890188392737440418847301778364365023294978
80 5 -0.0068069521744332163846361377767240499866799685977141875000900210807801271365240235422472824555122856162173467173965814701637555153692290406100231021585259625926892845551263302793658333373839152815999620063419253231032982337114371052898963276640416793030589071798342256412804435005251813117478
80 6 0.0045720930392507807897659084336090327659742216695968120406138282481642706501964194948010910166616432821598108967461722506409127988722389247513709872875383624580830675268530988686767759978316262029569660159124835199517546440469185174741907259246954946647183287984076870524685417599510363534354
80 7 -0.0086596231869335495509183615571124663888992863166460398633801127454942547191168347397769823971272305741965788670781400809693200265987525895845443274889868474193555982694178811012773943646776384687709216792372851067527166364760819515231558197350315063787368804011512514304670203774617810485513
80 8 -0.0022822219937812113147797448227942248918142066490816128930781269984316091947207217691584167318742305187344938575211955487185969501873008482435061086564145705132937065320690303826338599944546282965856858714354507395721083588208546548654979245521756200491601158162929865040876644230649183937464
80 9 0.03112618024798749567439696636286623739229415750346589489493273873776021905271622206494343621769300239436859228053695729899382462290856015747595499798330086453072393507818999492643007264225044167893382609645787570047233680226289657403644238686048111411234792009755467893770410853986132549204
80 10 0.020465155414187743170129151414203335019506454686161728648227998696027275790054290365847947131010136954432911547022155006837523659234447821496832086238880197912415058280581277256376886393071361430479522436373563661223579770064744627149582658818366834246144799778812580674626933634058435191834
81 1 -0.0016311172820287825302397528928767950657578667165889884611410378876408312593165965826394506964427316645183455155445077103146793623602361293818346912659200265836915983692335478871711742459948336846317012749372903429904681807035811776487406740628168186725763280601588931195526171357352994069997
81 2 -0.0020874113314399288450941511475578260709437255884747024718388699296262485966260633332370214915724222350062065574096835056025486127781879419757268877482150729463092243014219910028730597625882596354833160667541162239432471647262219221161409498627863916015601317442200494165611990317054474388315
81 3 -0.0036580880822603217584644190664792249807714438066152007155560502552777697601937498801285439534366386809741251016823250465182261638717640684102104518382599784865969594867374778190284246101138074972153987217018833810317749178310111274425624105250395540867929826582423151895555504855705057866338
81 4 0.0014335730060258370315796341549331930436016385546233151007041407079231678889825530066849579830522444939796352992788430105288513666651780778006952914625132937328364643083109487621483140319794408192329293702797192097567621788391707705393706604472562641956585799643185465167648851240065463182551
81 5 -0.001810906956110337407856924778154382663607359166708969400700156780645594068106133499408584738755935713911486009241457962552738652369350917854908326012110125068707868682243690338352267774498866947849570720050621359607562795378973201885055190876950369668742144616106440081929710190310441969695
81 6 0.0010755511023607207137229961248030724968391632766711176189539454430384959377165209547388924340466633743872722725690213652247400192607106466680376362537765936452333159603387989553533657132118919910262104430340216074526453766821173779934413145638573640884643280094756948447891276010444798166289
81 7 -0.0019958354123946262634452780249258590675038949193561573310032084749521330144065861312375741986795704785139252971882958470364834657544154676838081814476277289985157762025204015590282899097431434950844569215553834063074381871934718337441140055476364296036042357892677312551123587166740586289063
81 8 -0.0002514120326815445365902430915745035004168359142738460983507888325361797834892081140142375664679289026581451805047420302062455062597874178155958201934310831770713395234079301856518516257177422848187430116740474651844285383327343505966572782125241743328218500285147544658403085075641446988293
81 9 0.0066611023225638682466360105781923296719429047511013661596621943528485816981165019963960032859210808110406353994830101494315789694996870168614494749921250655503390069941392156913014302650961106918176973159235897728276267865604837319902680282914126531004492738753276694550167176196205883091632
81 10 0.0039729882618139222944446474767849396543970387034496403439187404428924999439192566765572968594480639797726443403704970844341224052137125613394308671785842553765171325950995669163330644317468009613027358598043970819153794975130440375733860220190702896074944729015103682813318708496117934302535
82 1 8.6195973170329112240398940052167867984241713449927391783545414560363971229726305199062714907914599257813905329577085896331697579476146375229136348971031638120707926459350284912955283796357496414398604240894530137142383910556945332974275912771721995046546969716554880646392501111230110763322e-05
82 2 0.0032150048558573454257149631569007871738396079264782259335055308014049244600315865023462019537245660459427896286574325043098195311881532580661491890028224192800421407982256808228867182723801167805847498830288230569631878118815137421220600293235009376583746320809941841229770573062098588876111
82 3 0.0040876223898287162465263137476159919417487561712507784948359288195326763551166223918414469054490579324026681355256488429506551826415759579799109602633212035343721168740811248865762938919697304302388704610526406575274946087461318312643939620309036392149063005143601166689807634976167107532777
82 4 -0.00054430667497568544750480138257738081008196797779210765293085924025078694729823729459154431644969990481303165152142049072697757354957400743237003835642095429559679309153215703539410150751816292091294893944540297743415063609403387394561655322917606247264971532798538073685924411144651942293535
82 5 0.0017775824735224860531526478930697907224319680734590881904496289146665238317477416904069447295286442209483260584105803158178040280284780758659985964429401701028936662236074005417326141841877579087383707144243612218707171445975211006767058685635758270090042837043154933567033520750733485187606
82 6 -0.00064046504912245909905284781638444217183541917297550911827474054022092959804732566775929558060789507176507632698582371866619096435371409056712817595931528039545688947117741594657000687093116249528500405816607366213348238823614320620028419392317490331147163287865868592025512581382497404180656
82 7 0.0018663834040181698849630286601551978793590307461945227958085795448891988885114654011569201059827886002341330925890815235906134450046672401058154478058466340626616431657575521295272578799037302635447194142381621666865633408284450533015213392337485171297203128415361534408891080283879247943177
82 8 0.00096306723217959016698669864714273177429060165288283216493690825608288809413537845839105238379003779457822518559375979492662279597164406881229466048552953421738342969551787825132320091714555861177249719117866068463342424142204181566188565259867345360708262357403124590967173445063575665081339
82 9 -0.0090454257359167707577249928105230499544667491830632852638510841362075850753955966683984842900705087630929850572119989908068233924195337594451006228598529334336050684537797459522029365116249922256694396328348520187271189967159806167255151444778905824158838733264467316982589487085722802613581
82 10 -0.0061459730390609028781894909856363449945534028704195605281906313370949490364913009036599935460240461521583197009940901568446895043763762862490949371567500157403639847976438696403143243768237074818663244299864779337460448387425877923086517314509811403911643941367597131060192747887152748874977
83 1 0.0088567568190845511216903480672662443142787432390905212969771175630227981565147536145208436166838701462284985594157069591891302430872003405345181194601614257446039927905315152094072928673709720258126167682985214790516954892925190544819211811560926782617026682505886541781304221006003760719125
83 2 0.019624700652846417641068682435750684313017500527153154868518694825107702191527578578963267664011994914916269122484564563659459399859200544911680886113678117054153333564234576729279643737400227447130202523560052866844386161817107558730214607592205433916030543968406417483437835819075724789532
83 3 0.028513990894902028228372893516329884797027970899633605318424604150924914466320499785319063931718043469096964702834861174859002797423216849529559500037706579487878818613636087639151263656026683213391179120040445820739065748798283255352897138453650104536929771447934679411899944025428348764308
83 4 -0.010463124226370013997717976826086134144996233099973943585688739224086388688983200503616312559513956787776152051148272658380788905975298275423517416219494025131236116301128199983966910787260677232789084715705041152779700043336731309689915074623787119622773264411628543673424730386683810164309
83 5 0.014189797312363901572334075870063207313626759388407929269212850724472427461793556566963243969882424941827029407282199119323553617103412148050588397840327564074834070919771169156784272411227748035887443226808132731217980553168790835446017082809260118357829898293797109706827267576316916001282
83 6 -0.0056468785277206323118333100142736048385528664682719768467305631491541738434835385232472552689357253860004787496515478012974122504570547015892697615734937303359289117390623683499492023818254929376518093654202784680985230069505168859090606766834456186017801779204441797356757872563975141559227
83 7 0.01308929583351019032817034058240696527158212462939057891063367172551870333484719225874900598409875647904379663148030325411227653332275636598671639101240724306672413517301436790018020237188025467732419861326767804961019685611529145044300827402801686571663172696811557640283599718042456802169
83 8 0.0023544465782622875784550785219101681383652314474935611770792743000158073531723294431454228695513823857665041678630674853035519267694775855525717530209369039921402791139559057418708813799314177547388374733025896404940742467019118697778376086938929733128858016123353495996811641402171573775344
83 9 -0.052458178017248949857791046356298537141314704343745532537087769823404801349468761749907077045420484960177169503201112704453121195889847094019910143197975245420318460847944387003509357990731150557886064031145233296752893748913877660985731640026991959141153917110622341920065346246942645993006
83 10 -0.030680199141018637739663201777594049265447176029212403187699254625705524659322283658890913920290702116611043139522022567325734444647206565350634178487664079927302797922040350215089927616054030638149481990435400705283504164919619863805673371035414627800504692644507306193597003380133291164567
84 1 -0.0060297576634297721851213554146346988341202554685903563081938596724227529408807349133412426865201765328146557504020924911941271139382004319442377791938254072947448331769087292298688650589685728594308667619099970869234970603927414941132045230689404592083195929003977654372442760503373684685041
84 2 -0.013256954697545964739415922292317328466255144915135247177484045862717120808417537544993956720679986293357300180454560458671695199940255551657808173869647775808638541414322237958954095580182712392480452665643533897061748177024845673951065517588951551812353835929110170063976755240273709156508
84 3 -0.0079643203314894036930170864993979168178723427804906432388903060699165372135686545124375627239497457570501673333153400598487234298044582318240532598589522582713077372963942952447869138383461261904035061868711222434314734135259447507675837030888077644558039379032334953995202880854510745025886
84 4 0.016239427018401901419096983088952592250479767260991869006860132660979773966269701621437254197427166160956291230070366530810957438957744360847886699052894243405707766515351387567981455702086444009731870827560907161679577536490436619408714031916418837329990189403575025597321889206323071570611
84 5 -0.0091046037067522820892844138147892159740188161640037167264599500048128630930283112968476309604372651989967820741224563286514086318571393850141908484677481184148849964549524413669120357602511316085004403177283110888840831945189794261562253770077467317263472815791015340899288558763270696586905
84 6 -0.0069945420566393613321589954273639299788994782594254718581836681340901840566752467637870333193383638098453296640402767729531867800882933485122058592506192708555784712429617569430001566379558275835018859318423713970680934631850691397792256461156576184092381047046388803605291020363084877313569
84 7 0.0061003352024407232534595020009166191082011953452623470626030617208783225986825720967320253134918573078840288414527096664360608831802808542541749749826239209990480262176975806625015940760717240113186792290837316234452631425526780133660441795878830699581758579494836641968857399217384962176508
84 8 0.0080026955122163581041564172587666354475080171768457420979742963691334761436148515655473217470503734535313591804773126208669846156555384931456849646991788463443398329886500688045270193149036353887386371647218606517528812823617692426670022632415479941265076300307593234977424618146244470554553
84 9 -0.0091513676272568362402113791089678923569059552972524872118963239450819961820870687533228045930803487142522334825171372409146714641601690589819560273716882529647313904716575686758359129127799676233667662774937293257536058638791452369320438842402611765596002991151843001694545218444478163605271
84 10 -0.022133625564950866643952955787921868019207861464597668164678269670878838350668688143911846973396355532704008610847251877654546509531295778964208012360786047244418615127214465546118103862107264467173130889101915513866692026507098183961987753377603048768173035112454295708613525936177483874154
85 1 0.004133648386032712997779864778089194145863558178970319476591145889851891476181130009808650540793241118205645560315328966551186388518763832257165463880797521997257118634009483171143536468138257294141559216058687597669665783408171506491383855414879778780358243241279819495081210840102727454885
85 2 0.0033092719358781998900616682137432917896994284993303209636511907857080420414772965701454180311839499219667427644321930484910937265958858000857998982929595082257469650809259069356363144500513501085833043522995957366644794309107155183345623047768890644929619444207336740508684179531555874476274
85 3 0.0090164595289840339544856283930224083769216047287122266385794357296491502822301672275801404621023569944861572607050008047418941784378434600373700431895211331266988467352232798852718498514031757200003607723185440486926106479942993750871734407396145624223135577909639177301934232392953218300476
85 4 -0.0015917025415354511589488809995700048351553401104595824341722005146643597828514508242457549269266062799590990747455567491331862544851971650881819578760282636817736234453252435918989066699521008680982307768711164890087276760788372346787391281548464678079060068474417319327846188514474179846783
85 5 0.0036175291555645127318368071973842950369064505599881766244912431059823064330682901035633329040102805048811535399399323563769544762057433206237842981109973696969443824281052304589240008867534147010254999629078754895841089587861000234272077775916585302450424734218943791228955072445736617563818
85 6 -0.0042710336516586041417227053020887905197314006163866179381236595051507249421080316481400547303734121159719880980349575394899286633862392117177498163757970352246321059053535816256922758229684531973297423353375161376748141587250412385002347092688343896939392199697504549120928148558174645346236
85 7 0.0066746615976458905056761106730107785378860911783900512215438002046266939295600112165941141150353899295889084480869279539161606674573176571795596188545524224425683846580191871635283584199403046894813913300965026080101006245172479384455496848447364874943872709821333028001196699520869411132247
85 8 0.0018132287428643371010148582383920204868911244382343306855590663010506023795627375493971793455852418364631505872373572334617470893150498232112832891550018470669489747529997303254676646892732693125458847497373276087468592618405943215011568585464226838358037314927803101163441079525062083297243
85 9 -0.019941678948054485404183895763455062493626849518675481592630734702287183398318457240064081042305738540086272874221795124992658625057426242601613320896397885453300317783723396354621402485256913838069374729483882468214262153173574362945945511639670414389339364652225501274291973064770143580353
85 10 -0.014390140759075173813090923201765441489738463561899669380557657986247313825214221158849708639229077909035569263131554514164954924408757580145154073903906155819344140513671215866033325299278307855725979147396415613308479133556388461176694002003396408840160088298080816486968591470610535429797
86 1 0.015160830328586424366366534133702039830967003923012471359205088122497499110923814800243246024130694993211633385787210482665518460273469028952707524467795522478314870129303505714740899900031597158827751923220975965438032798928464310776882221956095994783912388331237284367996768295694746987576
86 2 0.025756711820156251069298127837686552730419722851193142468989024841313723724280145994604378316932240232734759545621969901009584457453335186446086739056394379430440084630824037553231894168890436612204697933282141701989964811346160458291256211945952466654742486853350093751832048415166741702579
86 3 0.042661489798580474489354427667176772257833978174240419154550083052314064178003851412370367723485716499218841716714511597173585832123952114535289158508045589616108834789551069720221308423753919652040350612436337305160684620314015878026072738250822026560646835025596894535310166075683467006575
86 4 -0.013851431693671276108892030983989589505584716102810665176734945875114851806537172639578885087789438711694377417972524521403994571384957794430338963630803456270071829816067669766152784830220570349840544543535331753779043510348442065452695332802844173180367094825500691641222345833321443764143
86 5 0.020223301705473586393392105444944702332220224348716424577217011457552184662141571102228687717964836234508697330656840734735881320465006793956580496201539091603873112519443311945863550510433561705120581419724811108710820025954834631232533225591904389928064682040563394129523975817014579437048
86 6 -0.011321042714278109136056463704735325923983199443554450973101385913206736020783700280516747916497538930515236283195189045816308914649510602763854562802361941438533120894809463778906710858387916330091319057572313738760808500866466093818146143885411772521386438450200972695399542681988342012089
86 7 0.022466279815123330705049000375305958568026723917555638852595650205353874155294200057796096006077100614114104619001555733003933317377446207374706086235491618828096677568711099034988308973556365571984697848670789641996657911315967403190339702606457040896434218947985758371543690392142295769053
86 8 0.0045682405019078587365652473959752845946437168478877201371571844593714134917815336965552379833607341324311979238206989649188077794827692944218615122663173236802783184769391494960007283708236869215560776096761558445703511156716489765903589764662795283046215648695616172991999250020478854202817
86 9 -0.082058105433924816957489170400391241543053580790042848903063013781765719585776433037650834572010992662353947045824395821995250103346789414628412172269185145575165416778631738468933878392076038578488424755298417203821735884683231389314154486943347477760475155997043079548279998921701467389508
86 10 -0.050891318945384299830468995042154402887599784421126451500300546226811245207637146695094448110422903590342515233275182854860553787718379147697208610029827362096140505885053717926790187763614133667227400277774850632832523533736846631599136690720817823289931036081147429413865748649457336432043
87 1 -0.0077357759201730197906127093016994221487776563217675652773648086379369709444857721960970402101430716521609800785398040507923498167292553944141461104752149179554401724138338670727959962959087741133860137243450915805304782482243857177286975510908263558397554726513420183635629647989764722790262
87 2 -0.0096840815234413430134923738585106995324820054964926938587270635192311206579586549532528036649303650817797210734648310727081643014039691250173291143102695702128568861935915023650969413460309621436126332510445417676712773508115688600233267472372131041584354905647434615826623728131516709450158
87 3 -0.030857627346854872000687078123416472222414711497969223469662850860005011944407087707813376953569791583189643454734203945078341707810071019058218156067057188319379940321589624107943162548068750014862034222934417096128918018890261511977457616901518739942063032611304496515991544145163909378275
87 4 -0.0042354224491670068312654209710334345287809308445073154996238538112228527782189661609226920555495148929593479923655584312216641654986043301251080328214303869079743176471521284003672158013458886837220895375339230282951552895994323997863718820644967282747754142487741458778251950837962206960281
87 5 -0.009091716876600118044277976856420710203216830273976008301275658394356463799229668890931736232116318670929385520385445684429276716662130941795063628019155542471179461152332849454877469526495916416351296521177061112088656549667029981221503984792751457428994287801249054282895954487521067529223
87 6 0.017771342158609244067669935512948132961399097466229862035244836476171444094915844507917446443589335297800530750055532765188925239955864862600026568899003368665216542897213511220857449921230684672847221750774037135533725474568029410145956039025493228644475719630915350609803288194099883938289
87 7 -0.02711347247258499921107128316229166288005627947502637102256701523583828705300372325991060585109021056447478946663960459091356407915555965973986931158741260249273375443883737536102332906188221521674159549330329837422007927867801253778804136927323913785510804308385116674577600514578599500658
87 8 -0.012564115000341648941163946929049051498780151532399191821924505681511102093792310074566400326250146464911227224541853592218901502968922718095630458400430011512394375680904615683882576008781277182468207900560978291269165067740669430477060970065190920505407474126013746632602282020699301889689
87 9 0.084894174281496391490700345213880050913461326626192020043047252974446720589023554539661453801495689632803812100278217771824047937779888632423804621584827740972376990689657338506527108846037624057349401980510173763917836238894487844860109655877348546470962446672489452597646763638077442282897
87 10 0.069874640683092339775644157594259892202564313460638046847189609991117476797573155762085610584166406418286315776440532426461655779223324370384063115115129479693553292548122331572296261521813053608042069377191321176205690007500015468790981218064226198880247183910207944719901943617164872645838
88 1 0.0006787103456719072959326854020025131032464004950154501232177444382722679454296864555801823223297302717473946402941121556134046740135975542213179671555448132357715493651686714063817974665973423443867926635911783301745712319316815407279662417591013256271722767652530747823018263397557855449192
88 2 0.0034145487548631769112769019132613235908683494562285569647598682102481393931173477541849703001438648525308813714616312598762734490691448401961682555531756243996473555459646409721544449041419619115636099026570916141303494385135050590374864042657610802139757967050155126510700620738628193065951
88 3 -0.0023383692294751595285358434131468756386218791111805323155772317237197623221555944878936549995646399828185602981884354536150369103340835228241880630693426746202172666312257219437388228460590799763294566786744240095122326415561100014626037971035234946509140471393219764611278668931618280333767
88 4 -0.0067399188463595041918426154085867256261011737861057256553869143539012146216651952281961486817315253212798656826876174277678417502892227499019702588340927094387856547546662355207137929317384610215311869110080871196340104371914674078918677434158651583071160600980554526480959621926604807885341
88 5 0.0018504702742055928087634177295270861174742090388382718809151331272505909452059340315536997916239254420118645110713518323519991651350082546998480786689277279015229252469133861921414895502203716221359372348115536043093933939036282859794716294012538655179778440700389089036089992168525976388073
88 6 0.0060196504615789445881641686523190753323790998568686012403898270324221266140113651182786377801296800495085221041153828016129352275824772264582708720030401712323238465761818565974179775456919117722196918332243877282320628665796659305924730499922159728168795935640759880606348272244441344238814
88 7 -0.0072202971036062754499440942466069044479270060247276796141790081109026707668176321522454182259098182899160869045022855911289014761244971668657885943432116957809390410209062413260243107847536997846373567826101173349082804241146517353337861058296579740487190634003483239659835546653162128070604
88 8 -0.0051780614798220246051523894615255600264977623810267053650139505754560244340857620747361037743281616178077937465531863018076537427229243889520744751437807384911955897290800837251149486735173433739646193816807369945735753633902558975110330734881548109315612507389732454738869443774247702474092
88 9 0.018100410187287624609510650073800965344666909441914751842413815982530617028083031437166791062335831228286440244293493791981704651295111128735354088082236892012936084796732473684045824176919859178279003099793901994839070462482509217602036385742681606606420575918573624816511221861231635935823
88 10 0.02051436984217878503380102021836007473558701606540207231254203353706364806385814206707277469509203867510186520059935558519010997483495990400865147558920488777379925860444807684694233568860819518797815040296176902733867103583188791553443028681650653988007059804341717720729712266195681307078
89 1 0.0055068479750540428392024471584817082777348420498996662528189693066793981732907230258201716815094795215024410469230259646796492301520155658513487495097809539368897436374044922695173031476040445369115753105788264850782157155974622079861596593750850679678340505368415232256850957534494383873521
89 2 0.0068947972915357460927188796298349597167249434846567151458547930119503623816312543796640739098379679747090929652685777609901115285377937855271250093468306482743077143913707920490330161491607856670019404968173597806119750258931658564283112053802315583819901057504923331122842072778119528626977
89 3 0.012178876364396602477844774978520199932969511267621664006404463338864231989941576383302645771477945929270142833537265976959726426708453660513755699595214680320089114691372369122585742388377279989058300804048851647289148336250649458338965822164426144946972831613004416363090441929736914538366
89 4 -0.0049502450936866562782725325407432382219943690598805509054465455292244040141474371636339212634495907949701924374440744108543868415360766341982430413123136936194856196755817084793657414770439163468643147877046193938879654976040337805269857822295613790922869744385177306509340738203797424727343
89 5 0.0060589551727951898648852858124920729093987702688232453802188846216462389064032312003540596308963593827289593315531348129567200534276885066359294336609509869524136522930398573321760069670987231090395060909096935972327725181098965199464630584260695152675060951782613975492176968386603281916899
89 6 -0.0030933501486008177358874599947601624251140911448381033962571987156363914127152448947289604561780233250398644245868430015445672952401163972626947084570235262754500306941875843345886223876236437439972383414400819026990490685722814009420353182590666447464964644260493010451202585237632197964274
89 7 0.0061840613945217627275456173920428843982712910174580469377204485876875369355970216214100673959470429758419780925713252061496749779115457435821303534777576354556649496741223733263507640914348525189367246043676823982170515402743408982761388743807705834292584043461981219475620185732547266942408
89 8 0.00056470923409098208593840302926932678522976783557818553316544870983871653258384713833193792628905742576349673407163614580133932286156061525849566724389806466458600464587502229679790276511582350735918251853129578840575891424043793087308432947520005424789924287190353377687966771408290625050365
89 9 -0.021668071701949017840205808014133645891891042120713964498842892255227047146067236042991238477762508666544784503045971987700875374434390381607166351190114187809254168247157642840935611604028317006506986571185222427214615364776881594639969143859408406139693707160484010133572624714660214623596
89 10 -0.012360681427295978795253721960111035952324781617364933906288223010074001749584777389613882726342760869154163168173776170569513803784531230011551435320592531978939531917971716853770288785006931376043885106156117216535884373157561452547321811775405364909735099550457324935566626721266812661037
90 1 -0.012217481933157077011456884409096544259825971369272817052049220555702967832672444443990434060047252977170397136981513184570237722625198227055368468198989517623694510051558376554649318926769101116413702056181866874973616922491308547382053488010962364921297402683259398605818492522698997797365
90 2 -0.019103914580801413511745203476191839524480613133363878710549231506883817215362992297291399029555875640816199944641820123872133444167642970336463763127280414531825423846042598282924240433515034413833400883507557879908190703720865467764857209414957525327532181396309578987420252581165859937502
90 3 -0.034978945729217593663665559073556981126465813698339410615552708285369766354144158190330840882904498457046314584675586253438879338200145978634499733874733227501432853885927628508719645566658757907604517554188076095792589436583238029875877691890479948648784989345412692870024672098693536761593
90 4 0.0087968160370294975973671280724952874993650373462019269292199196181811997829052721466785660382605680867798884339888659623710829706605002562478328052708197134026741101175900082635570532185535497908844116900980173029115436966977050408821496028880060516738499869330405967212860355323421464631313
90 5 -0.01555661857982726330879477424491135148110951089596937689617095075630002581192170159234891278478947627318513148658826935714286973109831219448985711092304389235442486017026791941733290949863977889136024890456936144797900414498214513323554503511094344165573099378688878746493878328082544604193
90 6 0.011246805004397695594485468343358628907381859413802257892219798143122627501930626993775330864816658108199368132586387736614382307105729669028834712653794805404455274848003899087770656480003429604324447180954777978958716187975357524914403451450660892713936231598368188389368917923349773126505
90 7 -0.020617168070619169192260130110748670458805582323814771019880685059560192294759600648688060358471198274966054307578478046479087739347901539174584314490030975372377849822898746035237526061895826839224551195776133860272397859724393147784996054830547930452893136366289321100727285418030269709801
90 8 -0.0053918898964649237171819082662935229189055664784061550792319199350169208961423110074172451947606991542432294392040023173793377276473546467549431704549559484756956506992378998383118775105257322221908233497986728125838021429517300769208974893802265044830581762800476568081343367688948653944779
90 9 0.071893698642221380954741029771328168620230083838422486731394094802371984876890470275588127173420149681974014753773390340831459377870664930444444097889085747760364798740648667722433846916383969781204328103948204156190968916772410330040065364797184836439163748408098515363163992802635490051099
90 10 0.047767015701384894174492140440768760129401663288480962927912018355916386275234815755553723177503361731280266481742787957723683752932029870748402891355044455662746441847588965290066290760531023348375209081715578353462803810418504056091146345257368794582599572127353075197578028260962148268221
91 1 -0.0040992385404031333003290729539515442788708232125397541395532773213185528139966251594405470567890764695417864100020430666822296672288463575345563407498616124010103107980662141301172697010074963214902560550081455710833859448243362290933617243185009401548998326925412720316036711186606769724177
91 2 -0.0034776533179075597885317346792968511586448000196689995876665365041365242313938525429496436111859453760194876070175725016851392133191881391233441547489155974791789831793429956486513155648110723798341477975043496123359443063294249770916340688963816473490563777854583406073482406193464768727644
91 3 -0.0038274850512696602351566035285088384942948910300649522620043687422498322516077065858816178678845119782785014272984447541259634570415299054835592627988800389115241726488615226695776902803991824858730846124586228091030027636196786668726253291780897737611436314184818910574812751370029583599149
91 4 0.0060597994369441826800659748684801739803582963562866236042105704280960410415564481349788345978577952239605882673231719623049384744766104269486756123241666819411915428249741391694899242589240789213818900049815233063369559115781614019963244588310520483683956022610548007259283034037303057096217
91 5 -0.0035085539094263540179289995452103775359261636457645002080723814090532097827985245172932500156101242008074064166954002957531355246162956910990867349298835468670681423464106833258276101768013461740207832808351534101507346522599472772438803183359484593332590313274642190742055630741073492295195
91 6 -0.0012733987922799964690494559950978467217999342042153162906298284332957086150062695968475428775338061742248025650243054105978969465082092135578866546225391660652116654902337040415127126978668535507396912600255594574980983363480416048160169729518837564635655468475993195125826299835290272924125
91 7 0.00071706549549014672618519945480928002417363846257154700729028220881753883069554346896060505559526496510182197159312461357174905165977155042406471710144141465609668561916425190987463459179689678528533856099361419040598853591081912900483569562323880955800366638186098174152900020207096252283642
91 8 0.0028681219001401316332731382072250879569538285657103289947698743639416510505026707337703248039795020623431104362229265399626644079764841559308889129339684418549098844391837938606446212755392362846313234786087709792565835067692789592170736629594057347663149040769091433636671890099846879033918
91 9 -0.0011947732089120843847719168433172593264675580123909816938130446170397009480116452902549053366807797376931837095638214588037999520350848058276242800161295779317770431607779075204362289847391924991957558589416817536541973767738986399724919947672892828678799682347265136935875353101434884849136
91 10 -0.006317032487924750914242391249523676615293972250831160994271856641428406346056298037828502762107918432179022047928380103020541742907794373385889024309552810684271153927498132972845033819599122110503479949553989639746403297536241938601448151706756883072408967141327077329993255373690070907842
92 1 0.0095233432375194062624251395512265769563352768987540699143073407058232410377155480104033885202884610132037544152396204287399608928471068058328456408885861950443101214178865959020651427762563619407826257985682540400226677009733011378280488352330335505343616522425084438416686321044176392061091
92 2 0.012341401572289394834910386199126987434307983376129472711260299683270789351718428250345214801971542007943815358084334902782262057233639951340289341488563764524931119642474195556246479310534412764462344219095831510369441425373867279655603026035797704043871503046224919916765328345058353365231
92 3 0.031182934653379575048345339338695990854020199222120615738493863847516721679644688736903455359235571239688084436557817065539257010382431862059984747712592667826463248664452902764530735763561159997490120305645776694912044804574616001427877653606902325976528656780615938942120523649645274275415
92 4 -0.00088792216258010800883261469134747785714513475841709964945419460626234837745264660222404010045870038919396278750360290169546347833525769996267646941683094734892673427845645893341946113986469915864771687275574850025277438733448820817186648434465355676933237408383501479589292366655841578865998
92 5 0.011154105264811971129541183156671525056832072203145629789697415932041922952442113110680075008099383532413637059530995496325580432670175114199238047661709402260071764204387824563444904821770604013883475463564654628225972771878343544976753980775040666397040046334692283752601588158344568560257
92 6 -0.01454999399837676746152357410873945422780497148554121397691590611308771077465923623309128664115833881736437021852600339768628275452656018099833761671438333914755468258713764615931559160189570130487747326565068317639383917773828630851347312086515472401906020035986296385404212879275213859401
92 7 0.023594118004777178407082147526629545863723064574814506276773474084050390604136074311565075998599989813724825824922111862524218380494631346099844391207377201351069943565398671771297020668131540631083655970702753759107307800380146535376606644118437364433164994400833332013425232684352781483615
92 8 0.0092158785981379252753240490933178952141672823053106991149654178703421029021481634953850423474295720385145167576718264538345690662023006844400071518399427451794303120160188331530543409448092247954560074823456705931588403169179899603513910140540855751618825891195135849461011715817468707347876
92 9 -0.076413140657695906298104362360050444967928031481203722796536029385418228937089560007424616296290770293323151861221815748714401000060118789374549544096437218951134869223185063535683467818607287604616011103689084423411314188344685217560897093011230951413607622501984025202062498055129511464227
92 10 -0.058434333470220643715561665211529202652783800559691750078422140727477491484834683670888679899515985769861987205661633412232807010790168443074989764992851450186442686886991472003194371049254394108195154702527827547240142474389610353520762016018314195177289784217842979555362273868917887989487
93 1 -0.0028181511010672419996019355860463438775488134277691933518517411496828056017236143883990639322567423155627756563792355361283576085843454033203488097663907626367873613276122993231620058604970416311168316450982641809272127285660303160646487890738170242863604828166211910678403413947191635554933
93 2 -0.0079976536505744150498392199876284604578181478990831292695444185805762755341785327491188353327727445595539151903443170101834905654230338277390728437130751516986455777033440062685435005513780078498894425003617281564740766268285112124505868436892952125408739320607144455085763445468673242009705
93 3 -0.012836510913029053169738999643440889199827447564339177952976614654108609620959427506806007119637095294538298088842191566133868989342455428076705904089697316845746063160383731612243373480624217362284218771456008882906638910341190322369405370371540074409308833440285499369122992372211261066889
93 4 0.0022016738181123349344907774863314386590940889925399850156213397161668053916969778423505034442939136976883803828435465329116758609014907385260564082516058632356254437027702267806711500118808031087163893875716005719687910636575431616398434369802729751634297193204074127172655450932718794923195
93 5 -0.0054865162566668690741994463754882382487575707252670511248047670526016966635645453454450681583870770371558513081437828248455763355658776644351822098014009345344366819483522103666587337924247668233355556737515599503989750340971861385432020957027324488231203368385287259161135195028959802615649
93 6 0.0040512845676587759263676116893869009990762659764773335313494872190784401549294507356909303954401458787038631887044398504754976509120540536379153953986129282930823830935198388774093715006227315188667791073769197266085177407465326095653423760640487924999284736436765284975734918255048540518924
93 7 -0.0076053866056913016320917328083324064529774640737118275662886493851342712709701022839408913157436877055493132629786846502231622672477210094994524695358298691113147075129095542266218303250511107218233858292297061766557775137523910820174206648542220407041634428087034383559213326678664023363205
93 8 -0.0028080709131911071945413886662878633950103967336971912650996318943147384868877262901865611415362237599258019510560882993965964809521824540522496395948459574027288362898019704245900986308506123134696997671553141668028100855659228830005945531988436254259811447282906136579781764310308554270146
93 9 0.028180685433273427090203155037444662887970875490842678844804223962089415829160489769622111420652382067886942898816353375853829708772078999754881653411668061619574390604857158774976647173577023796951460367661159424991548705064061327929606908018136997762066136102379128179598012837728397367061
93 10 0.019731987906822534036994983429766576412605672828755114658693488094643812235840688902079144550295052825428918487416953160117835603032876577615830977852615985659493507465878827663646678416586638392716504773237263778758119327223884585522230003820058089277932413050141130520965073597317904993623
94 1 -0.010530735799756098672748715612213413599723267085362342106501164091985856272529426717252113638944006122563823220810593650562063884566737507888952889633098410796478686117711686852110927444333380697448641754363936820001382677102897927577959489604204487748846168018139901183358719913309060425449
94 2 -0.0081599266264262166335571201484848170358983041395222978150925684444645663486921686954624908714471032219245794983170747086302872450807940884604322823806276231241723066429760759250142436198268437102917358818451511141907092149427057208104690075007874651589685252215684061201108170148149885961372
94 3 -0.04309958731677419337707782244554197911060216033719973280037691891395154511562772256552662199103987689253820129191737474818396811424592150834974107708116700216040082570159469725100119544688587218089289303322954954067058562846610688225788948222715051674785262641945559130836775341657940481074
94 4 -0.012459402263213383423161050716489175240053147506884124319505552495683149742263060108736597203374306560668121235897964550397582147971818917644830185691529332920244781962000415807611299222549849332830886856065799851224396483169110859749107071187670727117840950759458195675977393597340770064012
94 5 -0.0099898161932547896151843410177774958627239641385980828736127193725454076985227625532902568904884961958763635692734539599966715109138905206808092111647828504142399209744344327640124043964395176909916471658304989179856537112909622996948360849202248725665230135935497810318403302598328395749748
94 6 0.030155093811259481534203085828589311525076141053235716922440382011916005366924368993832137214030683132443325794171422471703119763644990710554783911921566484532406360091551621098192798827162521217168505440724909070338399831700823535474419788228326706871978560911166488905554905269303065423977
94 7 -0.043687949682313222927569696254184320307637708593224984505114857734038269265740222273794856247065593079611112578731506947789307432266019870772591941168521607310267693241422734614874783172387737704115817867522795254198555918260732150950518263110635512292404942884285065172185814572872510671308
94 8 -0.021753758191323262001208169042966577959712075822578544044631100297008910264011949442548997028129976990610600525207870755538722668466639274382945156400434188752202136960887898277658168444839211840089495467544450251053793194905229874010812735813044869135871295783700603838916676631495126777652
94 9 0.13052648745419981065570551104344673778249787330734226332298092998831546981581033625743444702507732916101009635980324738843394529701749420361302507474331205657669302697820175131420066811635735174345088836208747196701133223384540925707231631270060608701194259377274242666654876488376572596478
94 10 0.1132801168505253908056637498103168088604917265789286268025994657638059206061346082833605707652326871820019030274007535938297953918794373003776773223747593811641831654027370895609040306700294717614067802970310072319747525166814184450251897658103893795477326921052756327364683315223596681097
95 1 -0.0056056102620138802212683585207907663660892259705366683348004455351148775802282211698807879380876238250341029127425069734581467261937434020973599255010900256063046710120277763693135870156436649615438561377749667008787762002177384930156916425091229218016763627413448544837948683724105182607633
95 2 -0.005075905386903301813866744714672537798826677087135545671995230821563767986061839156713708051707809527939790789065464032570090597350669952915205906057546639683132504275964780754232921961932247072961454569447551542448403847568894603980578369944812033579138784038789840591497680794628060713303
95 3 -0.019357479872801858059281302756724597225769690677454520357274201106585815168377429617406294942036079988954348063991331013492572742539984372279179922380494191642877458380607416624518969411034872808656432986656242963499086021246616497113859078963823859962844948006362734197545959577766170667728
95 4 -0.0028174236335268934495636897220224194472038604474407570421417715736137846645278641901772841634360773731781863439795676375397080553130277627473191496932554820854630670447101599882540353948193207650709218589661641647878357714279325621142104567036807765013993196053028502934783776848221982401366
95 5 -0.0055428173520052659304268235681164696188318126557871089683136363167462715600898408681862594543010735711924676066100081374899818185578645596761513035787687200422147036659242415681044443248652005866877951049786019105171641867000474497455359363456495943705687255654026937363678795798834788640568
95 6 0.011666255324595934467890269350777962291743437163804775491636512677125102055107536546373283617752789686899760805079022131148990766676926361410054678080654759994034973464068999426779556505657851988430843036323122787696114492465492946190292940481421250682627642161123491960411848415387635209273
95 7 -0.017528246005672485756785626538337079616636109008141205523723913549969321366712295038617314205327152124710996329239105746518215503487790951728688169752056623603962788903531355085017836583855816938842470613271929405137402596349305038885428461400851005181000062852336051678515220224188702852447
95 8 -0.0078910928747333033538050636479866566382080597696784522826847435400026450234847870204112806746261760555072179365810913772640313108916433025106869546841292044471192361034504572357432191490146823309290796894185228502696471481177562339721264331588327882842858618877433897192311546498583260596373
95 9 0.053565314363757896173592809918131051864263552560220170861556236208761097192204916510311852144640039739333585411667109494628745607634213512272581270188302176496454911011932215806385216316075526515086966029496466754011883430880838838368758739635657096908774442468707228306313170584211437239416
95 10 0.044292313223588669289423347769708927690513981043400921196292812239428923223668541315450453789962055441735250342327992843756821668560697980241968419229327473848266605275953484715532488607562203998359942790486583768963027046619949738113212526581220242325969062899561123109742696187654615252252
96 1 -0.0032314029022329718427819136958001480700954958668998252197946793416529708524641430476901720397940409694863089979120670145383379268836263779087208653509400117241662791436984043233724666787730810624062731553026339170263647110172025211127671394497846288725655475524131512421931398650765708160598
96 2 -0.001442581709877029630309101982647635042277257935878425363119708479637525318856249073885114431963452924368380060362267699285110274753468480624668383010748523197433120697093473729498874979229333340418667770475653395631054142201439770191612416569464005444076165860669014766769973615642218289344
96 3 -0.0081334525247690866479568643805858486027025219773846600312684888029160343046718457466751233486007560036487153617676321001656908197473267167492580167807401969600391503386281711147154125031920739261641341255223888557818077940946987059396118611263324960552510516659552305762486205101408296336758
96 4 -0.00083155386872102893615709183555711215332641569636717174106028362162969513952194891166755955281811628250301700401737395203700882703523063705833048924931578567140394534757256251769058365949831762590539557339318177448299171811673181892721057417489850318095518324461658008040925155119239416874737
96 5 -0.0023824996895019138542824173159776304836861515163719279727086346255287631750903971746042661966486173748761640316379691882726079828380082611208894352200355866267747541835026983584011056718711365141272473401763141513452844594023669159438697708499117256506537089615777659776383965824418038322096
96 6 0.0050905711089312215275950701552057445231638444246770757739026809238214959317105800737434220163700669759616496668919430764860840215794445607910349444984932744713157417660270913521118435943477612672918938919272157833103221443842704302536039702402763132166774414239862467929010949273009647742038
96 7 -0.0075269755340759087448878582002378392849164738161411195588322199946059259551371617665315016333775365034902665841642128163740555147117292168675480045967330616337661915468540459825956645433460182626493553496904817170430394884034130569045780191123013495502977580988913876707146469277384709215329
96 8 -0.0030047760494981621743080199139548304622372394389345834443200484217230205840880651032428279015942646606811133064606519604888864735853886645408287819004301792097407471056592154208205184331157265344243475249977329510214341336627412102729586474735250224509314063611079571974502092399901935424263
96 9 0.02188893697550024800991184301219608204150195160355065963757259328970608151661884834646650801087960824485613850000214370553874235637309675761274921903829655755782811478013276527477176217662217278884815228778291516784929356932498993994127329215339631779533494743516551089854551550331601754137
96 10 0.017893118665146071746489827197929835298550916656248681296542340735312577582439756121408279007447457636328906761280904249082474861667475797242739952971651789555232419338850719803109492456814006411031624423375630241440643122918582793970150164784560507845225553932040664267021253067574078574944
97 1 -0.0039901828326964415787680823245282134060224542242498141907863451475066104338649473108678261552217537641954575177168211199791842132893909129300393519033450061408695318255302739374838003498385532632397489215378094958245448870901132313865177299359621908353655572538594438354782137697160516815527
97 2 -0.0019900002450200799245137417256250173808813542198718773837655740681630758480116814857291757546643933263030669440020380900813291515916307118605358595874455190326068036201459427240667317624215459034233476634283670305547699091995171002161041855949154075897650038120660589407385547305488963234092
97 3 -0.018513006416411165214626481470417012524392679024043647196641106412929315434252633217593623037920638105241663413941987504162492143918215714904458459612461043523435487169160986766519614541498998183326626423198394194464405980213947083021292947257889660603777973238061862590391331075201706086199
97 4 -0.0078809701949146193662657440068650197358404323267201226092682754283480309496256435551338515907580411251069875446529324854525199878336561243885576091933932539002728810162324394530600659619313403967066269140842265833236579390818156998400541132850256558437507485668883444757845814848114413954578
97 5 -0.0032737506047205537462407515287789621868552997202331133141292004006388505154101451201379673490815390245552169451503695902291169687390861715116633199427662554883917217111497407612722215662392255679215152849593245993983162511724722415934996949029472725798430575319027214172968476663144013148803
97 6 0.01497874906226842815569450839434968863140939410037661458005838722198906490532964645286787082220793072320491156205937832274050304090534236656003161227117600959246693467841616729404153545836282023535216143204699072696960783029147868645182630235066747047406341363807862323932353122725925665489
97 7 -0.020918525742848517526598256681650653944516222413083699086708306475983096562819816162253749298262436303125088339426628581063204111729697096843138025487738993936221557531481577746659236962815299456486620137529882570232223468751975218410479796484625707081143462496761671716380275515285760600234
97 8 -0.011073285979698214658516782146473503330204003447084954934567108918577342443611651619286858764143483343660009264018533241148945085423357036484379036630001094987652040470090187381904365920521578105433999671335609495761727156023724837422847252133226602009298702440678141758346690677235155275619
97 9 0.060795450373770533553700182301771162808548941759277117685680207442272888465706815831962312384033777431069377704137833551562811482200258448278098703294376586829973551793821449328292075265429344719789260350254164866678313204118462183242808451878830689347795136096183148051024121553269717175553
97 10 0.054896003786387060310679569367843595761379115883473582107147767348452573642405065451618547560003654781470458257305189982173033810982121002415090283670052070870863376628123952799204714185701000331877503706391847081157156627285726199363701438191656157096182451400902761205184147282226250147676
98 1 -0.0046719270751324142249172123755237944847333912540783955143905446370030113187240160007626573407741976835609385969074233405469401812095145239187621110122650904625990250319887330741500882821675462414374832970802152708244754875770877443375269461377877105550407383906587173257681876671793960517451
98 2 -0.0065972522381872017171043105886232031309628732782915251504584548435929109483625752837374173386201885574516475346192111376110865821931216746261386252509378865796560565649522816535539517784277556713379529695368042283437143908828389362730993294800541703318324548019366041332601257224781611064238
98 3 -0.006304261854613803168716565927057920312436427188934708632136238637209447320896872163381858541312230285440108508732388628499892655193752724631390262004798225722814726760159299759899731849454987296273479421633076146336348987370287478210098897060162906863920195005813595747924975687716537770832
98 4 0.0082510669093073041201163614968071746963307434344604535698058999767199647360559489200412902646714830991957892871833932720810228450345052913910301270806443276934919166617463737398143593550470622636154102081542242667890881591095739242157252607558394021845683940567311718628677677550118684712915
98 5 -0.0053051490983277041998159590664890321009768265068292443974847963290023386236974236056639886956672311611290372713536121363661952826144630426422705008533282186804613760798968814518038554716109517368404149801381623424311764686546806174236555292668447869349100413623513977895080932397680873955327
98 6 -0.0017250620381859220010244827309127420522771516462007636833443405985363774248300660256013585222261081327452316448116652301834161239859005806340215921659761607257687394550117293219256571365405256762436528402113291759133225519609798943584671946337907848659216010126190072877107088267358742714528
98 7 0.00066062229878324855212230626934382548862838107225547977541401220230714528103040577059751675607322407255111688120453405091579183237012781471814199591700110023276058311134399293781324400079142690754462420435599988516095122493274906560077477076646216007667928422171943647765084982196759821026439
98 8 0.0033756081595183158195342650454885694827204390097154707289665070513953324375592964547726883934472911183029287623238049799643643818349993622551539157581870981466892730614591637366037122535163657321048511519892550161185193767449642107622115508778534000008953131701598659580945162316123812227885
98 9 0.0011371915048617643635492967332207996377339190926173776802334312437567463919600616290364575074246608902460433290266962921904889588494012102824038496333106065315246892722008837962596080289982881145507187739203834484021509066341206759292672885477616375322745225240533624728870469443318951511171
98 10 -0.0064790124140467437184270797790595662992475910696022735014091473558173384229894932250019418427412608693141982995097764313468827621689344845255838129610553493394753990431534712827962485288626425673879892865745977348894150940994528169369530031843960489221679385850202332702247038849184376331616
99 1 0.0030084370052504926543701162780625450255661627961467388050477212527196595756892504489689036064740918158464564882190467553812226049714240020335363137614175813594200926478414263455291939351138878615425426864790995334395837384737380847623291954433876893934650430104692689838299717023917182486256
99 2 0.0046229140142523290958616979755898811585153051548497104453980520154707993049021015654224152294558433667064138884843699864230141843508377942309030103383416395478470699295995719623561187617000350042269879182674251029549944958078059714719138186399105938066238668192037777919696029997238989116075
99 3 0.0053827570786194063655546764069422200563342620448852130997200310061471859250946209974497843615025629002653767520249993284612111468814294073227982078781293101351292112927973115811883883459784696671744681232565475369335730859519728060018450570633230218352444233225974420877102221887588185265183
99 4 -0.0049133445504558410566665698289808579110577267402999697938965216139666797208505331885940729048160613829244888065159922813209061158759421600879934377290957055560102678106255124373080287554277885340950582809097881826426077683543117664346203251228204019222497987920194990372748696179774472540992
99 5 0.003762503606640674893621174507638452632050612236437374098963634930854508823738606503570472044465431246213871910371798766626782160000975744869523198333902282495079786100217199108049924554129156891182944699962897922696079836386004545954169195342927742097391833487994021111469407000736469912149
99 6 0.00098461641942275867145031615706136970668913155466785215508864261733697755437691189232887737625880097153231979978307669096588120922360029854245275004925209309384986402944232195494217432736075263167642150774261991624196512039245867677701143413032134589086814825037147760826142902773569349225976
99 7 0.00026628660443237294896084389415742882750959948758370409331487756148048349660154632898741907567434273083985280302055655678427567655273665359630249821528848405599165254475818390218016142297254743249860584007385826464472598010895154268590957597867246189985468286084876438152345009833370579769957
99 8 -0.0016795205352008178403497020095683067084624536892119256235763940833993090492580061911168291808101521321207681392422430828499385401878285505082247897786367572205891850211548251281839673893154565734949644033555505039532916092873042223936921584071323034675289374894679711733112317728838656902233
99 9 -0.0043896434818106297996483248388966368215723413867045047549959148999656073785963858298145212628303689282497299892005595587870118827945880839006192818695456703258876326443429441332011775483119635996885156598128266728761595591470645720977805691579569294631488325877053147402328969569507946567496
99 10 0.001463434964480564995560798535399652018427775693692035917169641380236219940081879536620350750560833895161691124115822219657636043414283796749083676748683632651665433183814595034586470291544659970807812134126888240799327122685811909510550914293617992631389675196961560091620303420871820965912
100 1 -0.0085482348071420930422417812186325529702186078750398429534534161808925021149565314507010316015173112414529948214937632253030978264930601873051991198648403092604235595032265675916335988887868571532625769563915952771724843341620588647979902790119273170020155167070612850852792405332627120614489
100 2 -0.0091739209808248568242323713453374248148166266629819795866574358176955614908410020674531574667118904270589816951227843559284266651663299174019117333391499069223685838902120336120979260468378732138202466995338865358498650992607564199675749982313268005213187105465403267764240578004601576674883
100 3 -0.030024675184066866256215130017735438994061685448530878466171771821701444073488556015660704867322177740610221975979374480997554980323794192276314381806841096249805754386187936133442749350098488024045808812458751884716343763524177391349998379109328439955949946304170757813700121307619956040315
100 4 -0.0032111412242088063246570180009858647280713499771092993912439226630896585885649668764584805199574640365631273203608660764484795253149037279385680684671931313332179769989132879178354313190353697916753250320558805981437890875122038077259088914951245668787871677386367689278611319063822708412318
100 5 -0.0090809224287254078716028722401981473285153467931031978449717703130501710612329282638468439502179728203200455241029425191954052627964654970745244597866677760474652517817026016326009070735392377676490603727254089724457797303608910641891219806983403453677551574211750819561007849043122498885597
100 6 0.017401595687113112017551649162323744494107835877305266532698225702660326343850595719882293998929247348935593891260051441491547585497405433909147904392911658316749800954199016547641082260090902251365990566752267848854110432208553754648226146347891083664595411850246728040140892049054989237417
100 7 -0.026314889135904629024487062474722800645395052372088807129791165022561186859832008684459050701824806937369294872281996096198333440346730959235896100541506747595718980424931031921667294886365640236279489665565547328310045817472471601836425465014276652182025123767746730565289311786418855867277
100 8 -0.011632257019026475520820725172542381340888323921192684238048851793039390786758041883455416607221460547288182550253827875096136710646909366388465766481207719348089835586289760537677581859892336778766333025755507424904470108982639871260039541921778791484607049528705629302919193604010685223867
100 9 0.081175304651116883616535893530576460199034062518907015186872900932737170747059225808135254114865741826739914488668600794531829318085788261389124388305351391627766591391832985423085080151395120224748588454972780570617305093846436218435431425940108946153721319984138103086427096728893621691013
100 10 0.066324867327978652818001015528954057941758980729990050357311805047033285546710146052603029919580400511366140734717407552958032510530998191237218440317136551820826178793943738537394027750790071809175317105077811876912873024868156985506695314755619432320298182472666468533700799279567138036851
