100 10 1000
1 1 -0.0044606722161151007911312072008722954317554774092388756750748110719927381305362797222814774073231512775932115386527439756265345833721485147686195166361027499630234984893397423890490557785903777629467646464360065573413681416177896355302505271023763310699593827940183449061873768693367792192135
1 2 0.070447130614070918445315535748856301774163550759626979715817383564436880284004990470180202294174968035814246189745097261265098635630818392771749017068181543761105636064282567255165134840750461049838806884020016620239813216389382780214196599192901937831456074816416738122311063494580699563601
1 3 0.031989866175157739053254949067613103084435639431508040446148384343566887919160478240215030117448808701782738251951097504370197827851141692706949551647901689270931189013101160141334642855273298051463217055605062752926693375374241697512232247047114658461014666454321154923449672917584631051141
1 4 -0.040502655057406544348095571681249225660325805608124096763310214193431408035078843193508204690171626674278667216127220679811138107680246338416130439918532377915124720401960515918863655322798245565220923808705246859412743556038259073319081147648605305031191487126759288137855265435678043555991
1 5 0.038176703289329488863922107983401176708720518602266673577171283176087431922232487252092675214579408499506980934614074370559092140937087931573618888644828549036404237757089458345036032432677831890265945475686548786379430704191272914839757039351961214246145956017406942466091745919760064088278
1 6 0.0093775282987414077665649067817642923997684423425817726195509442421509775891598246081496799834798720794944744736324213826416147774735964240505921982339303684324538603889670841491012130992014659847734583187884651414846202262610559786168168849556003157538076223288673681145314466476532305773571
1 7 0.0026698816224837547281799819270295086679532181970642164424094109277468530371125902159371272170838803588173535718120507332569249277624161315217573287703506167988003032245768844013243774121199134494979038848413614558033249786775297297700668267814771541143504714075874890182897399823008707400659
1 8 -0.005076669387233780173435794896123832454964862251309334610879309988469602165500091197702775708957383248232974460197893955451221278159615780908986813021425202832211048930849156407172566599401764409388239773614064052528355209252758762580260650973393495468463895318778672030869452276586110725842
1 9 -0.016177057299122980604959032069130302568989365094043216890094243181601499916835816550317951063609243254947647055375712489071693893574747961756413245204069237784174129966807393495664240098013781337654958648520061078106886831673584127762267947159534066296266757850992621799468553461245307233804
1 10 0.012526797401683814887343862453131870102427234596470172031141791654012788926878804231810915668376445145947899517911485151281268105848785501109517605841961308843843018971721584996190097568205004347990376800754316315366588444321895588721217757324819710638262004861284030485123168538175947761554
2 1 0.017187526320514829222795450629543880322516039313566339562189401230892453400875854761987598712058026017472762047736277342933599246251953280612527646672417749850449906911236262903280447551106963845525188366819536476015977625575860739712506365534398861634853557903657039208363027635879474320635
2 2 -0.013001095527828812618659288048841068955174408369975157564244865928764531761655707728389966901367027115901805968596943176872649179178593681830802171549525055772883008585513069090327855809582420769831239784288281740214759618690015894107616591165838316105311569270375572151413768391531344977611
2 3 -0.021465577264108724248412721751135938506297846136544922182056995424944677545954547532060666465667264395413673541679964013205953681942927066138597996419698478840313988436307271390136329100446523310692695123654033715835441890629481512794283868509102977140661972534729151348416388376518914358351
2 4 -0.022603750718698245205891239660786946195614778945605087295596274177070422386840480695352466322580659258150313493460030273036103060587121186435725632281486014437302527659401953127269034246972446463535036940379289344063024642978311692381194965638582850414120052149129806508289083823558881397613
2 5 0.002621827226134799649321681660393975993747578107130372328231167155109727328092037874180927574696182309930219647552482612782262766820277363930612965347741352173578822493118869194193087451635283616080191833747817506443530682843155084412258576423999243205933668899456731683573709580815902834138
2 6 0.023684301509809418519978009087840598868388392655521498202347709896611288497935324048477662845435510287962364082464262674781660661283527684394969409329995239637260504516013408101913230898183021226188792229280024574960597157485817132390808046894992895591507937975401694261653603444497817271022
2 7 -0.034906339657399572544919995607923742904380144193880854289077601594231177354384090142346294550283722703653109311906468104544439026054877347923601241874042505696191548046918050139447727014699236107420385816672741407305198863817143426481459904074178247907577210485468404704745591496578311232559
2 8 -0.028289151441646942940127422227601061413394431836852902049415393869337554593430778502854198851246705783745634660791454286015818999998338384912400030781444832442321593527226064186445449524665485554544463471465577894045394656298054528170525970609006594064100492038923067018135750640874646002444
2 9 0.10491854188003916630764868930766445305308890177378321875510389079697797523977424571807942435131892026971808608516187328790917006171977252667331161575492778794872863598304460319322702924606141091553658099185544002910184105105057308073976262881742558878145594302313480294968849692148562521593
2 10 0.11271044122265839868507426981833623701872326385121670646984933095660328486246906828231166032510423021168406498410120910381498799977452036738357578955487528315794763158509752354333311828122363898058403302211130541315173673006295492757158745435544320202312194697576460376870087379984516299692
3 1 -0.030785359707749181253413470393180356897527579011687413814636281011865793100167059663034609698248818161978241043625625958021570050511500365740916284338795063741785863471743758325686414753490589773640117778867599289033469785422770214472010333091174718323041601334342229855262995987490589785046
3 2 0.028235794308852429304928682849445617361934147751360199170177892829391247160128474264681467966527275743011170343144105689660944725529440340109609573213630479518774230310509838139338209581968609051795766709699508560837855614536400290592709116890006983058638839044390618406067076262662568687595
3 3 0.01927023863760122279733481757711036433011074319350638997023970962703897819748398422357595705620095429893103857060735116599392643894335963163812831854255422743217876784887784601138283488817895050200215966025532011948210543447488045839317916907965296905197037896539592926135115891966307247366
3 4 0.026108146545421359299987297917784992650674787625234442740456731103192972118514464599913047042438735340123674368547729421595537093010208380537088775643950533013767972955268149633461021273066621832008267933779849298218444240307678685538812886963052737814548446828756642761408108758899749341791
3 5 -0.00058742141626411768406519735437350458132537765969310554118248910429902107596619285213015150009873019533518568655531640729265131264510528523805250043555985116317405087060597969461912686679288552198828591565122201066862930725311142769369586713388041816539789343989142877355008100984456930389248
3 6 -0.0064213169982514858372711628087917141174220293630209812557022728218594994581366832567580415244971970094282100130389072221059679412577910648348385207564242729167262689655556609748502045758866368668209787016363719186419446709776313470694931747493060299394525720052325529320283805934832082791067
3 7 0.014177961408186601224269388227233194695875463549622764804576997977344888840647569259402417780427184647309524690909135739617962095639936403947781360934941132220818855093316894253690088949509733046423413462653336560006012076338515207798152144948234997134411193213847896180259442599566157681843
3 8 0.023749649677726514003117554091526086291257084769629964068459929650694421829051727288046238261118663867902640658834650001943750781702462720211724206721255490300960898564612318389253181701628366692654823198690031389723934570116633918110155509298855312720568793586146456677689437928506084689424
3 9 -0.10125113741623336842953628677117095308204456567709553867106237943721911434053393193163834947414101847055828501252772118051579361132080988806993387821270393911878991495612087361000761380298096533616059098262827922451989966308719784289971545002517151028622921455880195016963665055241918875658
3 10 -0.095476585683711464732236972956155777628231048698958881593707137896290432256603785469568146285462017269949524859723245591571683157591485757672661717379327483987229701556767740668781959377216705235233522211136418316890948531994980007188385844458332579818566684378861730110810219623373797290761
4 1 -0.041228413407637909477927674787700396983004032882832018750750109638524510569036904344931778711694236434811093735076036224414553409923584539481595492739546703777929670870637280271348767079387863765167874065336296785934914491824016798314128649512386097362932294015753712407862654997390532570971
4 2 0.067816519554067304582969523416259048284459705373216018129476524477031106802896417586023578040779756562927005542501907174394490898052845523605457830503317707127863159483768004258323986320174785753919636802152721297429303310892570637741581526586011771265451616543932356769754250075631247110639
4 3 0.014919839008186619868970547861343840119903305918008492392108052840566983712146756360931167666627730098483929362498402873569583051357213460165482319067396069234730473853783048843626539451183116639440060361715822913236686905438452829713522656854628649941954354355911079155287040104686972378404
4 4 -0.010396977505849220974136354156232713626349727934530867044499245778629481731420034180897059030481914311167386911433874274677149501706323493843730042291401179754798311323433187952079796359789381658854846605645917289832871580268893767035535934400437345901533700332905533046984908594538730794789
4 5 0.018704128678385738087030979277048301435428355079075094154757820698951707588456309677447713649360778887405556370497127262287710534234879128691434391679087239523992114997872775324778685427660775885413748048234145264539254005254042739723450172248860875410483919635065088266653274891852171174755
4 6 0.029170181514885108823267127300161650988534932368094764613302437944199964855249700576161404506590435922457052359735741725281322879657575544873295635188912475511089016932412033435654026178398141492083860303917021512393930737876525636467908047395286376687218265778925317405563298530979806682633
4 7 -0.019395804599101108141841295167352033868472488764620809406770654689139588648984752448350601952410389429245160641441839051253376350813995425266929626753040374169592886365883849426444108349710184837028095788488103341386202238016434260920190979825824151773461706971416626408843733723880582354615
4 8 0.0061545365246613200752492052843968198705029393270758751212241405469081221745183570555927076153738422520925083828473551947359803281894585237421411981212101609379863381888261101142096570308302836067821694443215291471139230990160965791632049648606059259687636091608051618308196499027433864638442
4 9 -0.017272674146382786732584365231618027026747873057991958690156440078574660557822130243866868070175273183714535918091164528592294761069982802443799020124241588934160044308909487742466096298579350656516379642875044531573671453511935065598141680070524774344344576401459750998570699076957614584669
4 10 0.00058050178771164612254651126611830181737177235182698256110203986435050491943140461759254367552778732100492574813120266249411010613708456249594553053305905641847473710661411561322422443072691366495830321631630486069554916478058333740508193936138707339372646054329063458776721931231608397811956
5 1 -0.055318472306126014346297613071378406729006427136540516444606535393847714941606746915677003585307068541320349416742609313196140311516953631566522353372633689036865832308413002560254693255006676007955858381917663048561861297390884289424426231344760617767289185695356912639155979935116118793043
5 2 0.048155986411791580456011963825741294504911119637671298502133603853644118105967130708496016511006778615609547194518642696677196468778871253206011815999181098460776999981148956001830275230890510464657401279365201665602343389191279674555968316094757318591158772921533398484029132077458655554549
5 3 -0.01356382434119372539735493205125281157639512797659421135469706389615588003582030619874292567274209188982121608099027305202307079983593633881927149361838801607131725965409905655490292410232755168087961889150124311817751088029706810929368408038795353695465278486036796406677688880765762748509
5 4 0.013984394293722816723792826600940719934537076456475799570523728828968667072694194406631377463588702636689035844267102363539836149808222355823470069676515324674105346178463763266103756374349617581708196067397804050063278736688364783584285696106362511229015232601732707677573385780833667800861
5 5 0.0016855926065191659800442895049574947259967042888640487919120259627283353445610283263745592489849951165208525812110248902990501528111000511733235352938012731385580256553537528700794095432405061710552333269125517123161006717842168317703726462029072817196945551341290606488798514212163380613546
5 6 0.011343018794827882902463705699536650601913233645356128682834056574546868271519984229637275534536243189183323620311675673603703774803868798350128094576548827981788265900154992190284876271812011484320909544041681924191965269911664649292519755844874990205547707856762714606102164049885279279339
5 7 -0.0069748149388462294369880157803901627388224057501693280507361721122828136196259044735053594032041044212328627592968210069677259149585127578623567772678763412917781348225168534410217201676490828208331387277604274793878178703116185151093196372503378694896523281791401711179121166673200950513024
5 8 0.01884996664961750366931857152698365280435916027624673340814635290019796407311694178906223239330398394192344074157476675373220902680496383514685537853717773683478631111957760778348171786882057531165428026648850715388372667824850387299368059686416989472396139654487507862282644079556250798643
5 9 -0.0039334654955920281606556443745129051846538345188214940164176289649148285693310019221826434790668920355642588874533085658880696443340012467398607956414559120957732920307941831350767976342471444211106155806878062544944794849867692954850865213574117938990939536959495653076955972201796077066113
5 10 -0.023325604131078847964317807726870454226745495968714990380830563764707270790483830408164914486818842690846602823091577177031541356443133883898490378303940912867144217181188581402357749886717734152037263049410922436571096023560396620123003928916792281911198258266536297845299933654852376954928
6 1 -0.026350706431104299076403580794455901892355341224061659058156928222966591020736410720206522505446055013315836021664494627979568359131076893039262908169210806046257897533154231626216136229741847003482182245243708883134547171614926437612426004795932014673700203502409485706434028482161391296213
6 2 0.015497879449000797662332191674691248865325799397229128021183428652239895513433289900196959829836289869981070159228376110095470279881477998071054853169944132120982045731869209795060868264064752041231913885600505090060288353211323943669620920306045664196564241116189795904257656131934715152377
6 3 -0.0083497795882842003450831473269000960241918182678167402820215374685397257097929861393796600507387097729680764956948066454569776066263923349850363269283029499185383032143333057427563198967440945056753402995803912851793874196539470754379334623240949850232332254435013665107717175825908985168527
6 4 0.002135273335364762159302714805135531723778999682521609891499769473348254694034563981309058844808198255878929993769736636138824001010335812015718777890259568719898915986549932744664716026947632700757427269405609159426078762229802471153622596728180529166134748515146650585084075624004337358899
6 5 -0.00047218842183019351418372767803254196975444633871700953008760211779231946859499051323987081685751833507806129619638832513300835613320890716212807890116563921318968113560712351905516667497255416985425066596576584220259408886392130087020981249341744791347371932399397796765898612837776918962203
6 6 0.015869953944121349008575289818516590488542789252129377727543730226400218528391327242512985242650329056815619838160002965800795442161632078747713294219795393762210604844256669999766260594008254380696891064781911339663062734842643983184794895236572799738105535345152339045195458984756867138178
6 7 -0.013332897350463725527533448517698606831942583570351161563319892952626871051123224996811559456266795282540802030598936589904638595896683332215688630936496900761194822425132863652288375371430431637078332022968862362439820475463469000861235801093962053297856775343645088953180459856572726125805
6 8 0.003914551884429231111401103436223263301042662717046800921821482592432204980166538035579074590135021190038306931966550058357185816409923445403239126615935514339157674515666292186258244746199408072236150152295324600051050178255232655785699399607901551814426527250947146056680483662238029409224
6 9 0.027609870717243114443580550737874151113365061901714792433936301248760420332248131281831820868279990715135060588152072135935131482779093581965315057702802307541420223411275813386931544029767543972512059365912830168195062452016733926146117154701777039107504845901077344454630055250311892019021
6 10 0.018918537103581321843940890987268637672118399685932862437383972591424310560666818970777743769387192996172113235781871767761354663411681301640934416928095963295198025832353464046852244916368654292536428120691826466759080900489427546502194918973425216254759673741132285650677144276855577397103
7 1 -0.046704142907972263865313126205153602300346268323432571299700602142270062793340317034615978273705107920873219501353533661509674611262314257151064367818957380443964980562215530414997599015909180484406125323029062393986917961567261284175995065242001871829039048515610499109139690011951945504751
7 2 -0.00057265407523500566853160821846023778697767421908275160364945663658779542559684457068982210800684436779493452590854740285528101421931768646539178772075894078213019092154390004088474227068560808992278737573554605623047117340825994344476501137351719738074802411760894518316920374693778330101765
7 3 -0.059391920636911810938573970760016252305175592906308045326900728072993649861719808357746701437342311856136023749508260117675477537361715795990075174019158812547158033028998013417742532877550775686721633022700275555530440262621703319172393649812070036097539439507458665380803757494645749045533
7 4 0.018116815505339784944343810225582439825211542219331612410362245188489042559886958496498896095504416471414456096222672635944731693091065086519214601872696336479910111137923221158392743340971586300286474516732761452142390047580766683420462520509838058730118697441659204572364383825428484973565
7 5 -0.032462108223131176940133286538879604123934863921982401083974034359122683906188415039319129432262562444544305024455928503655149744236844130158034302672876328309462053760691988563688807916185554677744138597933643246526481347773091759936969103459926275187706320425641670920271248596493564189061
7 6 0.0074167457789200152512103140648614015640294941297529652083933355059497808281528503777055342547931713330874073726851789345602698493702836983793984497909971675957018511894674414156751808261792528179292155583199954240790950969250076914590176507497875977744414322147611973133904074967911844604734
7 7 -0.036970307243944629377946250382953710500006771865931280145382702187061064340389329533960334417776753188083224873252601068088232096736034784291803183683016925892273560428354040809114509171736746071138072099721784768948161360111649946862839250383064042478759160414682182568651291545883180204731
7 8 -0.0012152340940775104675694304823876639420662079433727442680462722985592509974353080415701909036333170406262777833426377479027545889362227017284585785967813842691248558053047588686900263562282383297127353053953331560485087283049983016694091290656321914099570651530815108265582093707473658316505
7 9 0.10438321698333278349899844842044992287704908516684138211384655280671499924857836169677820992640521401891002275898616361549300472003435426344501579414278219357600590171442115978709345080092427936932796325857791872634460776938790993684577928789531338208797883284255496314309867263985889876085
7 10 0.053560017907280601748245730868034079721656501352538385628307981544612237085922420267454943115729667730462486154728366130447846216177441118371810155554919450154429060702134396057144927541978981371280375065927599727249685568114911275243399225284693400972095263362274908423723617191319839777918
8 1 0.0062530445684869285288348184644094068766122236814190832769104752206474849252262590527854934701964775935192790026398043214973343390449088901724889844587321957129949574913137124722031170458914044476254919934475766312929544535810859390267234449825473346697409549120216539411902801363184485682032
8 2 0.023730356744864746137790620938266485446134674303312000766919158548577637467620480491442889095702825770380191862046882253096426534450740143523519468281424578145719576322657623051013133820797291069816158944094228146999866684427453031722149966903173825231344217541008347155741998487939629213803
8 3 0.033233173789203492571047809719915782171391078245672138375171722936066610988501765632922017283777530244575339181380351363017156802055952510412573495516876628369879815450983205759575189755252823989911973219452462331125517039521359510780824869284339127805167106629167657707324384286163762674399
8 4 -0.010319610182786644525109521750199895903156867609050565674497508630144276335555311234945033426883329340081905875939526930697589232127222250076356146724644735097801540539604123868697320530157922991403827937931017252277400250354412241897607479467847274902772856233650783304717509109632503881765
8 5 0.023829484591157999170027597256921188940480084520398799887446136257228045499311126567944301218794763957325405142569851879507143451044122503223248656220254622231574726972692506414328041497203818144391385985589359737838101680867894591858581711866505284754477961522352721326013778208585387066323
8 6 0.0252212880078186596413989148067224989661514579013620260045803566220759998772829166138460808063601728385186856454114445359051198714765382760956670936386810536424205910710403858277310574923237290768459497562017363056682547713478134672216370306112860300771298539849138999769151873679363574057
8 7 -0.00011313394797636381832199258306813622429635107002851230867821474804701962157899095850693673502355770249063085911255811984366533890212699939878361643448428898656522435779792086377114645449543660146692618722553818834013788622403134895957240405757913988593763198206109117846711681351625985874915
8 8 0.00085890027936293572811393394529302088687339511807679686150689778553882006699087991593375233863667767796810758484091335146424328620302384694205028083241462913937372463731581105641502818329217490732106446559814462873525564586931572930253060762276890951200683248609348403010508498593567908035424
8 9 -0.056762427070865944182792814648904870865493504670679748998456377176315538506123412751016897457355625336420076574399148465399408053976563390261597958152606569741912224284322859138785007303071801283165749888786046435720196573749700132849817274590261137240091439829582723545051339639740702125835
8 10 -0.013166299623905495794071653421623230951988040845407232590828729998909738468925151327021292897397916956001312561995820880042112970086718820833714659648668745458841779170719165956126768984486520782994023942521792650650367774380697157625391009745977079361529167729813024960460382365640345465999
9 1 0.026289045752259269727242212310137144856998466875352793836940882324417704060106554874679569855312096083428107716837335485456117175654297926318921484864527484958704940081255428387324506307221132151499359202059401132008028110106684073640912130956238554157958947552758187841684839331616220436709
9 2 -0.013108609904219442496089200380881996757157813901973460994765972102386360853022679179078232812798509959760638187846917415512247561910157378546807137776230967604993189117497718379136828433289752817369589751437661680598213365557424854560084739789835760150263665531910444770147635591169742955593
9 3 -0.0045489403973287800257289711514610473504237564649838272774510592947729458960608289480024282997258887435348814607427573376680797523372006271521076528562703205002519417547675437797675369120880274402755489626262457415194755862707293660275603801699825391977139605632937460302959921262295317980481
9 4 -0.01507268556593720323583069326769928851706021555610632216936326656417016166734776763390995899895987260867554232620577879433435082134282475961789492207049136948543248751963072493192769089702064345164895156625514282247260682476875200849828851649842929181533277872815065292548033565489256905468
9 5 0.007021797451239909678222632589956357706336249433626023199664787827384596054703127877476396780658246017786398391472628234304459035309130626731876294378633117625135605958452004860258924045967938940628435986708902442356248175056348864894715153887385908387604645726287598903650525597343956196292
9 6 0.0074826521179745113848060556738051249395167505275176138204046481309037515139479616430508161338005375262823304955456977589076650970715557680171712263272891477040783191401370338045957720691945725592886077612846527738145460741460105080791366528365161177842829647967800729549881461070488440251906
9 7 -0.0058784432863656602522322033879544504389970526523723948470104202085482139693668704755872433661112154832735866880367316456612225605197196704664313230263319736596222937727873851676332399164269825399394995874941156382426707264971234177536547168694269069634385562887142683634728058747421762922599
9 8 -0.015376020184266467766923649420484982155096131460684090483184718890700129346993084892644011736189864226580164687319353034062482840694921162151217561411040921476764607630458146309120147563974134764352192355457340500110836378241992767006634500120185775494444340343079303798640756806537267934423
9 9 0.028640105484989374293686821016964473191251224232790313549874957613426666058264202846923118020696047828258667493794525691863318196050060291927654026202183232689418103045595725707339953310521532467167701705652821405617360260465900079034090577392364895601523159160267492081110699635230645438674
9 10 0.042551175943241474571428891984192933360042263789039613214403697444084563191224427061529946651450039113541867030894116171417403085571829535640163397720480142178045384410554312047978761375333688824798374760711731180033698159055377417951121190781097146315995556466125290414136146958375894197845
10 1 0.031544168184039346242656491683834491431719938007974173002481830656706208311116324559901765209044556854138143789158045748417279834177115904082375793719554749149251432515269801334939702157299992826709650726965627198492780708146708515320526866826831796298975619756905875516552803387659971718024
10 2 0.014898952722972468712803448090506248016118479168606769710204147377084757962155632379034534125300533702653448181505742600151839076067147354372808734323393934382769687615401947275614642124013892375229508583993869474466276436851016740207755402321092418440762147753307466612218979157874604262697
10 3 0.072107646498521351443574646860902770962439422379938705624475869307570514079150580564367111409384602918304107290135165546291576454975843282159308324083972927723004559520206336208752831409494823021304162408397669786744206213291664920692885910497220799765513868161594157097757758105342075241989
10 4 0.0062172309796101638664251199937981626122602989691794086185989641186228422314310715792862669256914285264979638048062959194676651759166763706256881645417004384950784046574418424602573734058965657780083227933424537821696402335981370430411515026419451825528842612392087642472646664584879007853622
10 5 0.02250569585568147610793538739667734995134607594061007598529874140618090235049598164962494511748829820887689694956327084931513312341391565201955467739182057354808294970613413552471032958557589613364855654709312370944228570845567314041408092501637578894543106254108999424635466589338793529656
10 6 -0.054588157078454855590172333067903951928041079745053813802485358341412252484589672963460328194288783862938414413164296970657702956106244631389597518730890055919441438811751177287243553318022064578481527609194054377372758388121847144065689341797082689860203704722179938373805077091747156683733
10 7 0.077188951009133627331465348132587889964093784504954795951980994294111826643418566099516020059743438641716337071171598406498659081379697612470571009019593781205956109661705823368892564090543653107831126456926026116460707562144427358881897628282938390090668936187358899299127402560785559210913
10 8 0.030345113103874794220422145811025119325359219755564641487403749291662060478348052630596521953026913001270389740546647992245798894053297105450896451910578633791645033942495853603903447946280163202427222340910993955095580807388338405673718032574687195167711821765398029193356504462512288094698
10 9 -0.20354599615513814676527716054404479608904825729352086048501473901445802389353657653075984483634290643369828291000075656624208015050951760610277925847674798598944407480158421351761883224780775949823264439794897480275092379773101853815112244280648592918570657230307214448879149199862064195211
10 10 -0.17022867501838792207250834688748781348279716137530477578205762360283847172271052880091688923760178836796622113295564271102426764582423807734865687395112626903362086855650370677007613715062348626627266739348850972620446225231907880058583075463788604993504255322791136895997912179226789549873
11 1 -0.0045458609753286451677357182995020419110722415616653375924604658393036106676014089274817283849788334640964024593729743743234921015131494936335158568526145874178776397954180067404906297260103406227171737663812987357365679045009462817231434585698189637735561614396232877244060489650990457296387
11 2 -0.038458161221272483645134362415447120639916998591115792517156054563202339852962030580554063115758103547315306637547969021582986337157166256288777822594326391637405080395293772023710893926899751321006787405395011685993810378684336885315466068810340852182676930620823434934391591048257055705065
11 3 -0.0080782566589421477218145262383221057701587760072082882843788352009228967493018270755026275332900795999419351250866005632988772709352527718316847380396172174209636502271562668433205598309674737935073876963785850200830290813732078469924728577954749543296153900184492418913528886385645595258765
11 4 0.043998048184491550272052130008895926045996462138878388840690086600181622660517788039526101915732534705181234151851376020503168573512479611948593551657092399236003688394110065171982042687623616109422095230765210688844436770868596334093672296150463885373543724429427877774539289171286833283423
11 5 -0.019260569437822640704783525094401810904779473389468911661985783316878084575220826968393721472073184784963766098186852373288937255740440831409479980828021557511816612408567159523218762041664155798491829072101386989390801174929567396394236321044354968416103112932545660398287166472917505967777
11 6 -0.026289826555524350138666651352638053751359633659117618631076941017964047447088005687873435099701983244747271722130815670820688706339466244815191976291268587982758105455304008064799988799355748797709789510778119708558266558512334847798028347214341936852889014707732600874127688705712203014509
11 7 0.02925428477155245856730764284168345381220196741742802830268051075381375200142570982452113296211226346571328280308665804879612872313408442455713949272452717454937887804294169152229847382735594008433075595690299181565427579672743343357550850689318736754070349603061790260337019855930949227677
11 8 0.02367168072172679840591406328146740194928472986294465182306662212753485608131616149183372141085146119791388492020550980361992216942335238902882124804968751654935257281820895507429296421023680743643716553024209404750249676832959939196150312801806140280860237340384028938040207139953579532256
11 9 -0.060857155575725718217047032606883427413954980366738095761139633341646175683391943630910609637366145076381175637581723056481672424915356112712441295357667638733741138660426256738257994702279822341247052218974912562253594974071586660641560691710221044563185895051929709107185687602608611542339
11 10 -0.086938102067781828455606578560975805617432646580146482278493569498446558567562244786664258788788550520405174786797492788155630601131953298497593963649176607587484625046236108610211794987140793469326596514637308577700320562936899653668059453332866600061764055959798769805469318669936502207899
12 1 0.00095776613382765004036449842999505857558748126753171548763389027436633193394361920488265962934330880071881205221031574124134379485912964848439285152113660111642145096089543902513161639324258411813359612489051231847975521924562682379452804494623537650665080641479350742603742693538523599704972
12 2 -0.043657477790450402599018098943835337400484971216895825691508636212159828369760730713759303600139680811370832036828175351497291826636621203092189802011537037864740693246473436899168846896855629249519080632996861252186708281225073490497620061797986174565141290644253111517423460294188228158771
12 3 -0.047250655861577286837394440347803931582298190325238190433059984249988757374828902088239252278487407467871981906111201646966321374597508924168625377696474368010923324867612034928062019732995853433231480126759418010083267619257046627997404219112984682548597413232081146328606766441277240392122
12 4 0.0091815707187741936277742551789968496956155116853688556677712204729141536794256465475080635454877143392396488648417105900086661682718021597277032968160686993295797208051528491465184898389272593196906212488812866715066846955566276747551496252800070621269268176843829694658525649614840251272004
12 5 -0.012236394171892869713506261350701122772732855085405253728458704657728425966174702760822433397257659043245814574706487517086675163610749468922746945709389826455912789960579430931971588677461836783775209705565158053905282054389644258303728699056138382348830880042870477553742672478928480614787
12 6 0.016857571649189280010886955292012292295937183238470944298640613834487108622562496113649878166644228589197538045210456573923445956598431433428381611154359055361158876796087603120834567896138370906563106731648506710527033324750991517800065149794240067784771155558507234427677768359479164800517
12 7 -0.015519380633629662607070919983489591596105593142162972949813736569909068639560772805759835241093139300613608278405565458486435407439432163341718012805261362389986650207902247174142282970578058881480709224111979500360824819571504122077625737324661178752568989248290369011084647611594278069126
12 8 -0.0069370112792550598646723866028173667128341036723930187976769617250641897531503741436143847810643399917307757424267604353737551056387782854928815270080128254837335775188329452359209648614435356150943303349963247352101697060621116741275476363907571810852829702756067536353556212959240721295009
12 9 0.10008395839681143073616599650673606187408686619501159194166139277073095557375054066032507002411301661459867587408707722403621722493225426223037965285017755597759660350163726500481450162048723719832972873041144559741357098198029000597844858853763916868336186403932985747393287134586145478453
12 10 0.067068924368035612571931809898184808216077593165636397468640751768827446330262820761762476948089307777345613362638095063206957425332420626279323234959628436871477209482690124220547170364865261776506436902274268313566739646641439727228195467094164301821380408430054416722572885493102345696731
13 1 0.0060128021659070937079325304388406915515407436113967414996134320355577772599560227391012899686057191071089056445443620865763135524578647425087373957724284931923350417986225850278572422534428314200781438748044798321847181473362093909245391191562700621677731138633446381444258037891215261423054
13 2 0.039518909474116492057227233585140236696051388755268586658319280227328460471787895886179235592241434721128860347083348219018778969576411701978037626735266323212374048483225644707780256136185961838326834564068443307018254501224499542683956481902844427385639308512649929136929784332725169193955
13 3 0.0088010677775182307051651066008386582470877811997631655300278149075019461004564316163767767795247328659296703058801340679585221168055411988192232087837319775464308050607586919718257511577249247428138121688310613558934838734421984120544231437393830705833395386160765357368417934254990285441143
13 4 -0.044437832898193075739152067293040783639271086298545848150695780077759607655571582305587693755740195365546930083696270296032707591458708185524463338285384314693997363859797976698877116722966480136726509609148104246161270147826527151055504631391037294481687702879705366099132170621877765943619
13 5 0.020556180288959449499028121555962610967243501747676230341843434912924953337149053849780512723650316145858428732065482209517942860922544828073251738296307372673194762282273369928754144221416719953076601188637534209894939219604814464636266783711124554222655001892968829580452432395073900427401
13 6 0.014438565821619099672704823085615027147466894619703991431544251481892449160049167300914089550813359837668507192481786078746062745524312343687233173487046337087810803340571402284596135783151418267736580886092215833450864078511407085240569279225868686281924389934595122263044555081826022643261
13 7 -0.015620186396021797577564236609932495057800658092048732183838456281814823196204261053970397922897821866084149181324152030322740384768283300140360322460135260088227057056732280401432201969577377688384571538367178420226183390400379920642509406312295445843575363775099108634892010415384899581281
13 8 -0.017476186701525386686248258336337153049660876548156543553331506519719550104529093726570561662438090005419067542856318929707471347646546743822592527568478662313394544539241211536128163968770774267705326051588271437358979447202067705138841740672721280155868388585068910658270076954103301315078
13 9 0.049996912773132323660283669721448583965109922172062595413612469253439400594224122900737052921105713475017064702423981618383753079014037860653392858833914472295908204048870341787348973503869356061983917553897422023836714077231867745087279861843080975837952669034928088613168122686118806234081
13 10 0.066873806980577512712702560425747173136993345476840442469038878502530225022206660455518638144030602074081643737393987013392308711620521779847696812699814846681321630229291640050620438843661174143900728453229596951892424258132674963692803173390955740494695212455977514729066657986912127523568
14 1 0.029483772523999067356849089911975987383234031716733881149783172909168454461896083412506994843631573283930134361404151119375745835097123936223104053540247945263592545275331318609814142081345900283182689757726418384201221339009597502930392764019068763450743353772674597492838976743063039497117
14 2 -0.041238260473707186911155124275344304918651243648265833408799307433059535469101221839854838666318814349541580032564548438624078467392655004322963597055286977194460430912008640275091906111349634832019343290549612567551036866614330067726246421796157805818530784108243520172976252754798484190618
14 3 -0.010990685266111282151239833311806418640760966678146779587572224837295383642239141505988288635019831528687845310703574219877635347410123566271352098943708934171607053161157869618647915790212165686674181974101619150539914516180363444575844564695922745223269500220535544210896390425975539525274
14 4 0.0061618249983409620043559212618083186145736787245428950365489653127458925218288464987086093593478491224168044622952243424598413961681547470291531435200475597568685987052316278631324436975531418402701763644127734155047557764904824254254771656376755763687523873498420494969588812687090106646892
14 5 -0.01693765329217639475392357036158469542358447246553258506872084156357365219084931536615775390158687103061127629444129295895542507949393727601611593881265333568939210206282324864242334049928539174802067763236468433750988380730524947855877737257735482851261750154167833253453764376928650244891
14 6 -0.028987976904658468176158208123511813646503665216191919086618456135372691607802504417830955034463941459654138951010780177599071419338819187801359221801456366441485195560622576064645056488783083421089057816485052373437725841172713472537295791866649975161022063942320749549590795031368255786003
14 7 0.015744136149267968051698778202699996998351917355770356297721729976327315056232609633873581110810654564154622046744199564744697129010742308103719148278700054208203942949990991609053878130890033491066436508707951372403854978796409492710438253728644189115452673966774830159770290708137827991378
14 8 -0.0019324314224374594651893047949036791135820150458869000316164866052768006741500582865568040447645098336120406875039128940254794893827665857683553405644228080964352442768588238583415754556511615999831574873184992022432305803471448586371098078186884903194158916699012025421709460239620113691707
14 9 0.0074760766522454172194119564298786271117759894390937266373972946213766909146821079664161112686120337107754638632266905202297190664762353396327989510925687008706350449681532634436177039234081549654608283237692529602464043575177910121142271071875963896293352100453660001320471444803812918611656
14 10 -0.0076645364622313501056587993286083892359977236307885637953209299528599332026808604935208342706734303876341744577025215537384095991301628341060655986200971740728026256377690549188300084732557327315758500498715827421901739440817111177432466569217169587015681514451358152607314136721759700923722
15 1 -0.052034588596040640862125474198436971785451065381890696838554745078888850018715459276838640770895257422544525474882473695427089941036833700869112169427613505040228946611094234780714485985690048204909620938414918695514208164410700795407491960371702464864517378097823755917787514892786092460988
15 2 0.033330493553679327891727020154117895926944443101466276068705607110525760659053834120377650127997308771176898182866307617129672386501690207038406286540169636815330243186914444310842185205173410199985616523587805376822291290219469700849680346039012895266619062585592719297127663541804123048475
15 3 -0.047991345499221486904025231371261863890562480429225687305076638586735025514490245640100869060593191803873872467925254299393341968179200460277484668766997673459526035458037830593129554814818184388370137652937629905635925211875652584835115773775166428095455300550902500291620346694980883805388
15 4 -0.0023725877173710889029778154837991207110445454896077521416904908451831825481871022967497575352613979187463256229684365606800458358722656472087787036668358310943578335601820826363193725710584019560866599599772312156401850271979638652442611872329719419445532373424170945340190993981610039411987
15 5 -0.016681699815295236629307203163456297442002907059778775118183042443607253867564068707161233529162159549637426955436527067133779707144797451766517568235894070160444222265085462456633102593133557122524997558598097305208060102169092708442824605315357947312706972483743522751736277939873450545958
15 6 0.031939600533179659109065823610837173787286664280133890045045292200988340085866047663429257694937481037155820797323045670240383889495380386087570705854949194606044987661159616467137474596365983524870976673631725512890130601411442367030460714375382586244209110424670156903944199955358204247631
15 7 -0.053527029256111942928191362861020968670838698543119853818014786073855675457021639442533843850440975825218975449443436030084831879032907884127328624657150246115795067417998626563523510477619065884974361331249059638228779138887645336471710316507568127239117311976804415685930631142219272787736
15 8 -0.010855595521031771344909137101789006057413721990790937690947306778154501091354145796907084045146671186798267354539920980302252539847237998271221534873502585808101890097703888737008145168855068784719518589741481338801135401657636544756223824463564295848914063813118159557597128600319761094253
15 9 0.10997416464506291981530700766722954026452185099678763012656456770275489116668126031994764932690411243951167881740266428945484241700998985298866263051962241966090967766904317048716263549623219667112474917694331287832337734021346584423935161266620729865108968988486943336641916285326717686337
15 10 0.084440956599187655004388759687623073033006398801707236421884874158684773303363358897075495721638843343845636219398756761438956664688153601201677066541085784902349842579847525982950774701271999013068265924062044390239041303014983933706057386603776848366821781879945508216644368969564905023068
16 1 0.017002402756102301793231435072280540428720569149124076266031825933927475380179389250150134811607449035179071634226432856231826744498795343028377023975040487388780492442783065749105057362398192956192595798557762705511851614090595704856015269755708696500459788129595853381053789852681503307578
16 2 0.020461122003523354405458478953493092960702007814616452875363658717377057165703947206101184942145529271872192981167372687314657082789296727103279058829981674226539731638048847927669368911422101665555930003976479193008994673973565364514468565041291068004712700449672190244826566008223873496924
16 3 0.027354328068355869974616157651754659778522836544834842792162038575619636763947600455686327352910755183238244282866015706967683143279442817634238409692747866379958564924050144930272734201439201852633821988765511452721646467453309083530928730650314264147008218484133154302529131129205998669227
16 4 -0.023173543006218223342458576453208037250732598290098155723347020277875162048943620368083539118441692317795876552258360189806593352067977066899262156169610203936186388668633996268475988990802544413787198197049198504453749884252045781370241575679129599808841868976552909928790870217150808780229
16 5 0.017525843075575317709944591581397868311850776227277120573158273074835838854563712059398706996097999380318299281450546176607633738600140663034167453107108136165195226944520892548732737866387046832198018627031291566054878899225300246763182410507584084970686213605709679071134678687349637937171
16 6 0.0027167096162646963880835644952731115504654504917210511155546480824131860227364304379651110818962045017345628032682347314845223291166226520141753928667972133961322926395728253727350432538008564342008386835154213213546409196100076500419455252057955750208823318589068736810064794788763352256886
16 7 0.003257191750440446775684825468076337803380397832682587266949848242645216438928917083425769918852506044468749183880901619756681340233292506922445604029690838978935081935644553899838514759866534744561318538747550603296901995476986040038230544059562502185084534218072219197602385795235367951225
16 8 -0.0082155668252908632176645081631366323621384034380529741729503040507081522197426961299249562119036680074054350215166483888188426314311738350759390885559971387542116866345570399445775362053355879795312743987800128800488763806669504636755405107291768381244125490925057646045389184374613137270731
16 9 -0.027675278653574330733698072906738174179146936796302999903502760642232341904998804570399444227991155942302002578043808694965940932721129301639722608573435823991205382797042748593700498105230600793708497953998932517378762742884068060437121197763181393737226735588263399759351234329517969048859
16 10 0.0029254397958897586404728182298072415710949346834868876262985352445948428905866758564976576630972314152540165738315788396537258971202261819463713497297156777807625489509824211892141116058730550941115538951225765089607325403275704418481675090903306310442655218453324249457592446268820302467051
17 1 0.0072710616973009125434074070505934900840118017277402290487845694562697037352706900317445581818387218352854146601534785666326848476769854650955876633178436900291975389553661502578898148629575593244153421423484390453518198819645738685803470184513684628618220741689201986614230168520953635583809
17 2 0.028641521021965010828518458911481701163535360915048089487310378557387122190800788004736298155282292780225362465398123545128482421098332255793192626379550392361873760378891057428255625002716014872069510121851816888545287411592669275220321096532976386465183967988659686018532341641854343953043
17 3 0.044712059721441251746943309940994751902546673454851448788545740248591055858664354721439029815746921431203757474395588979403573640429599208679565691883020436982073922559332891482426639976374059461430335245068426927601573975733758074700650363245975110417119905775079601076366990965429241299192
17 4 -0.0096887191862435776312604694559711084594134850400465044616292902941644508768039932921261574750660354158433001899092005822775927442127389700347454150247792135377085120517608153906688700100419162887629811093640895143995183906172887882835710226721143892291206051860431725609034528342484718363438
17 5 0.023163986332998208644313854567247261631983306787304815463841823007318250725299832735964565867642148268183948771718254370333203683467543228420154209933003331291799300105318855095242162661628675311635141917339827696246169488202902427489848689856157015337599935253862501323545471376781511624815
17 6 -0.00038905322435594682280402855962762610511610650073137206628616639212537647440600220490198844400718376303668330374941031142125352962962822576691348669167278610066230038992292287469098580927338228447861626723082258298589475896560421951719997564112469726037157002086973974398830490968776545939919
17 7 0.016829280912523048000234502839309753792169999768990894002112005320000278890984227575693193314171637954284835556160436074654254642757576715681648221595131235759290445071131399950733501939345571349432593120937139500888595209710332463865743037493794516692345641541709582756502629236105614882638
17 8 0.0054340528402110559653528755512573874533873849788235171991101171696836678812310852774988220558427461598697211649879176530156652985648315210291494401811589010387021362906225290831186483392075488068875185460878238147443784929867050497352486990372854657175493138509886348005908580193271981029464
17 9 -0.081324463495857905787501033160642606107573505751446486595221459190775486789736965362771459624857960120807516212228215713229015381606756589706123916375924928444612895259089021904192540429315013371776356866934507125966777084450378482823781501592970640353411432243765132066433444930017349415649
17 10 -0.044521754917431917333740517577536231799812431525043566936759728695843075056364514390837795065347257837103979343391680093782279303377019244691947449492349593449383707990477686697899073083979681962369313028616119365979687783800879258505351770065697602589731338627969289959199679849383466587174
18 1 0.024379679581006610160754063646661371876482469703069830946554105450466258871407560256846509888872516222887353495869327272087873069421143437654490970374771341422577138795697632447010288925205488836351488966819637523895468728110083184028985047155896944525239620297159047730533843405871416468301
18 2 -0.010672771780252363786738399391883108143589685242341402777325715423238595854390252875348205884456245950831941469274095226149004507868276588130575980033459173917634863312703727899136219914430837591486927163871256372489177736194102080502353056064841242652512110563703639325814409026569986103954
18 3 -0.0031737193401914928107875548288496005005713730733809906636763490904158999356237062693379150377158177332525858512179209684379584050777062889480325937712556035370009656513906366757105991698295360097025012325212911690610946464676574261010934677878641430339638211959756609507832528303135145932852
18 4 -0.011825528367246145591010147321470751212712848945708789944543189915308163862727956247449159801873668817927739270924004215960843054839830421880415366465228079973640378088880413740567674748616335204858844668863619990218566522516331869039226976152041318964306423196720928456519088349801155992571
18 5 -0.0040647133336565659396634235557190315401389532196807469637714432387175044245998273971873799578191786175089745632590250218940487367188981074493443535328651187194287901367112654846906901369502030324485337244506932283577754225840427639590845594066779518405951008767833455296495637270735488137403
18 6 -0.026333006660568092426965091105282517504614024687660217271402444434085215548620596988551621028442568126071003475905593066339349166241592571541910282027050472860657208771406715976654044894842919401269157587235496411018892451594298491504151386122196086407305356448344908606132651239598683914528
18 7 0.016235415805265637648512852002641763977374017805313601854677710883282399477239363539831376381264539691740606346277170955349346317230828145307495054810375156074179597583300373504522560037796054352077743067785069607258734551376613249875320838466767945949044531164743191413804237209227466650595
18 8 -0.0038738064031189200113546704268010271377806397515393050778701820790893350585851664821678403253784720071496117716868207313868663382934386972169334638183499994034796883602949863834132387305360650847686836896946587497773883414230216708791454357745607874452545016625816010102654576111290440021198
18 9 0.0022188791839118097038422211983989484357936985824204528666778068874851484210101633245861548454089190761890775432978507183977091194488210690368661117202000317939553338068052154903023241032431035758167287512611154768577361940789231881039487343689137004644536856942752073174903729711866589728809
18 10 -0.0075645810986978597610999435897407707866665794181514666109865677374016103039248043228318375912099501074131334555863998230910436093230056550099972947860936920020395575134906570878128018335976112548791326536109619876554852248180300948743746848054145985581900122423261874162193730282594654210408
19 1 0.013491452938867250309770536283151794505964526431948292765652794822457015029673504775865222222772305812259051912519877318209487740276603453603181491746436357935809280753864379663073725021055782476417470200909041219152305909292230555141671123975119511957060722712515313249814236888310239822324
19 2 0.030313376122101659545625419798207826030397970589703410733197606814963346341702297665687839058531373287997488592738363023766935414276047868789080275565131795682323810716244167170168800944379520069085586858017001193691897038447847117283513145706111280144480802978815638302387173770145287568639
19 3 0.040831708352656347877792389387664189687160130077573153619612533628213766135321437345250593280209397663163944252039243342544263631669524532603921575799361066993552420175614085641634969070711272450595141353431682279174440864927061320708374602670274046097886113378009810928586243014731395177093
19 4 -0.01318176855308175390410557285675279451583242857406896606331610557458454052281238829678325078939839476830736816120464120808656778576070412485128751767749430768568685250929244839646672241124583596215466087659464218193640965873033963890961180205114530276170020162137823635401195998933208133947
19 5 0.011870314193287861059404214535111089639112697319306358732080072665374101656376347258195980408799547148508784392691996649574760357142531186941803076922927109602018820156015122292891574438051908649644677080015349360000826199049732852446353973791280021052494073278249306674209667734126265617133
19 6 0.0054518086914627457626476085901408528805791172406502124803093107395926556587750546053499467239989216722586321886161290713853674894287612226135108058831969904372011559884306766243110549506879935071279650766554196242128251995553246179651515654639240676087903827901379643492408508847445699789614
19 7 0.0029663825516040894091921140248865480395530555370750110916514183779276163292647342386346963815700804547145557559623487453042696966583755047693566954061543792093063483001454818012584962004895875193768308995595374946692162774015692631316476905188362671135260927818799484024360758569172571568393
19 8 -0.00025716840189133873174761762065983231944642763756849344497442722232298509758281516303388013754165446705781857686451438930286453662161589982776574344263657205856173588732346416602040025877576007999616040003771078591822613610687942581509671267382893665175865901117463985225655212896424960294748
19 9 -0.087753266907727836170490762994570015263805732116959740744226290200227742759810822342537443545715521819465250728411192390808038276523828528084990110935817006442763947323161345749302921322832069663626769711363101453310361275102449989499831283118308857314792568908156274201409097183452664214824
19 10 -0.040323427427574061049854342814425307455164052041613862538675137092823404631196230505048560470687917387386394351713977795732053843398586892874395124672985082360039141707307109427909981792862463960792374535940950905754384521899232922663504125889488918805734820904993051824331950842814023873741
20 1 -0.0074242494777423952353720734308514555420416188577059467875526592880465714168249326749639287575162780703888299777763892758335776503400294690961692109390725607450476462314585396794564451038096493928830082599747237127708665368557124338559819128431474903498254097504321717139115067198443908438085
20 2 -0.080520508861359911944055897020123707733949347083861488768681411265759319819394829949564792198189500057802677181797270659561253259017182207568121631718926892841039807877411935016929432490190492053852317647516559551594605086762976383729654648339427977990797717364841801378725259269772475663166
20 3 -0.0588851170837775976220553710692205974074059410662200650114361243455262697591464040697896752769153578696904976223202657340022118967194634689667058467061049650839486243495450629290202519319492893728220091548735128418880791976137513619241094025096687291736607749365490906804778789436746391115
20 4 0.034514774368974179926796680143122172645415898673747266647850191270094045978920446058580042614933444820500405505686131378373757334357205124800533462448211215996703557079951061917476953026717076259240409737759327724737214213343725730754490065968428543992884116249996384649852519586284920269766
20 5 -0.041705331482824464701336664265115320168349841577440318612571329039007875597239909730063554595842682093041549650586749354948250109507138372405064533270644946997024927562401786839576796987073772340628849880568972209566122879748670801526783792797708512937232727021422804665975653023464170990886
20 6 0.004853535751715923599275955325300264219872444203287002123733333573488430830746648553244183275234460972591291910579125624823440494789716662114959450536208597189293779040434156387205408920584466237889756625090125185853812617301464156026873126980119856095485422493319327312421261045579121910463
20 7 -0.019488209235023499658400338890556626489548866018408936948587441309913705876699285114651590687495504897016580079962712655927384837509208225935878107081926105848403366027322227374969579414582051042125445807979307064418251472254654307356174735852907351885799711763507800997861797732708230838777
20 8 -0.0056218996120859181629459618694006625835352330280050480550024971442549484327900516290800940836294949353547099103504742131189628123255525701460615770859288137062414653421682228046767099100510902857602965916602535916324260555768483999432546706858971993931372792446835589215615344253055439884617
20 9 0.10002371261339142653249311747491473381968378899081384590715635104811069077298527477206293776410565679031903190729947914422302927089351872118529291782191074609290637450385802300047642624738239898156486625622855348646339300491576732465821057212388809246558041356976262234055267588291762612376
20 10 0.049189251103101976953666047712738612455255824343540145060576703357138980116948651541919325604191550757704954582327429713356138671578481365531970803334777339935038392269697261362813275498867748751961760243148483346197436674693606273482766819419519790614609407559076688659337699011816915618972
21 1 -0.028714978919972908540830465440087510918721697697413273598326439666479988562785695915814529042625448893801381445093506454246509617176060241531882112470428543982293566065288696986007041113312857283047550132819101569989608663072301124456923323664635771047738609826789491973950886538295082556832
21 2 0.029069792670739876229868628468332599251030103370177155313672135787192505288521291727620189500557385283640063895795286660156783029768053649710454871855178257625143953847211775029134682811998206075938564353419708398808096417302007253927587108038058679346147485665211695965081074061049721076647
21 3 -0.0022833931727367733442251743670976342156905076627883724078014507876324982383181138321195526584109903525769512000356393313001086235986604061806507765816162699661593780946062032779976708731437379290173441816804120114906397445803285471923831266644803111738897689318630059176510970040758656663799
21 4 -0.0027704331424160812491521416911815218034125818010954910319141805791765036307053240231243412357721591387375289267038606767616994885590635430963504967253194467247353199466637655779733574942523863209406830490600494368576122408216728900765968906885291988258977141237840802887720588776791079361591
21 5 -0.0050805832817791691475722292401437020153615679022931704745692078241117173525857497773944152754029523322091545550645251382782791552598440223883436523516350485081093922655933734083803915232855702623713208514605222553522330709809578478172099355529979581703221054332189138499454384193332042201932
21 6 0.02657469129955780344922189837929343302318779628986488640382544350282230728958622709442507843418311853098446132639559350429865227742187141516849897820495978389151141199584920309385906278641058549329706728781577071615499411602865784229461584043902338214386958807094945059155100262227033415883
21 7 -0.037941258259456362359041535847753302175300206815783148062301562802813915799069915344400033856448961569715481564723631077083817006223317764340254053649503759816879276847910408457743101421033461817661894508655666284290306949998463098956927896798460902290540101535382257591472052377745511320443
21 8 -0.0092038376792573510889869649063844110782899795774100921762198097226391018636634062920860974732985406982587126273788279658527362827092788418715013335465555047117561950528895837488255914227522982676379097479589498010592087909716902458828598625530020056007747051228020233389065263131520346487613
21 9 0.018527702736250239226422547679808558790078573196982644481943360923545836250602078758214247672329796396605451090371631008799416634186358134758981013575545858269225923258791995692951714254681818365905609545854611705449188657150881981980330137546095290567489258363517051643354991769620822448927
21 10 0.031241708412325060330669443928766792804619434093494712173593378454285304548152540666824062905652169669255857358188885179977907305212457705123616317981460287259021697123058336498464062224240466517681437337667626366744083986743530683857631315189180415891685864762411532230404028606667488439585
22 1 -0.0012867878985385643650132562692938136863626202355045222537237246992837015542988928162486827104792048683085241059166546547371445646603443950975336648812649669117763868660831701158553152855195957646043839914353977061870257653723211350718377342204558060910684202749295381817332949426873513348714
22 2 0.025580014314817235127455493996749474235068381373145744056176016594120190606954436417924463709638784037232017067135359459967133156452690438904791603898252986622054423128811593072636164051340986582227345318622730667207364565442288686357631300001166167365577096251503731522319424638542379349215
22 3 0.043242982694234765997540252594409956562740643079931806954208882886804858935704498265749885595322245379563907607130568304615033829887390016183556580890843674643089667083908262299234382032325639899221229231632499845738626986424887480728013785540282756298317934494304915593863141400831819539948
22 4 0.011163374181294320673813924320793431751273749398543996764892691778666167821523677813253772366448395463299472030386052844611818609064910929786221079811871398707398683825606012534217215611723494638415281963596519103213900484789298815867603183412251306231559062239214901770803367519733122495169
22 5 0.0073952354615039383708456853867724334381545366723993551374033674536741424457468491243481186592016523984942945277854876057405895545302693968341964794001415631049557743853593959365910570619991463840889570601319196057531054738809822037963508618667630488373444409663727501079222821869787757395135
22 6 -0.03514454968803566252270568896392676374472207199863485218789353613383448734254464074018092359216824463261941367424275606884969812780974299529140699262880745163670708576810007012526292928324169361462963663134523593124081453559480017617992094067166927661236944117192261098294863690407291338583
22 7 0.040781215943548228081382440135587869902036938608017216979536281029926466174848543299224381308937675414710369542210903205047304978610896426158434282964857170517199683557298209058468437518754296995413507203236407926634763917317135178402260894212674216958470751243109035216708067471211306100674
22 8 0.024424941845495016330050016689859924248174445867736053036700321118749947440826723719066721446119483579913109906546958802769548720835744052778579815113824803345955514220608198776537650982281654706893896554394083963898534739069684642819586125182234433252560137553057161129718746188982790350041
22 9 -0.13061707600008012522108790681021315517659404333303286059420569947098159409386571291894680443673260620897266312437673824378840865890886584224094224405441412292186880298058096209791269091244510049390538723466517097703795062511314374754693776192467545066205751542680261569697291370277896000501
22 10 -0.11699071959183301472562517265469590869917344161016944280605538329765331265027386388686197146616765111581497137650201209287422672043039858591765592530460312002067903092613711990429958748865466406179442489798716684839589338488789866782160515607244343290302633327331266098807438990411763237699
23 1 0.0031915138180588751778771597915027668335428661886538958886404523467364327599409308178848415595047450977788758612821908016282838504271528626739872246342797621380973245472193291890430816932397169804152143746438773014441609876014549887747451709684355449105717955285498619426652695240949881919211
23 2 -0.01277091510718630450494405075663066731693601646323049092379452706922605651548088364353183322517586489238932559559809453685063174751517505798440538965337524402393246311848591603085978217165144935074528395932680343300986391725648162888271715185021742558578351957674460467847121446855394922315
23 3 -0.024556391791375001379968035061291528903680066361453614545718561451458222652143721340053189961379664062503465738435389679658159458595644661523040669075016499548119283357574007807489623661409669041799668712923466258885112717398505955200199557524925812045661392257958333152399034374012855584343
23 4 -0.014569911091135338348035151521207640253547789337779419197735370135501771061979234741439217774176623754724964845740222486732491770844059255695516248440628964290308573994684724348567271316458185392987252518183943876659910759664138490085925281645162374082031445556367002544052603005427605265567
23 5 -0.0055450536311787055111332391507589647711057560169694460379583423431122551105307752124822376986595161636616057929658563885697568740854744904678279007620349710812069301882318529835014555373804527236954593579908056595147884968849551801508687300295791090931176254088589209553926664751626661309687
23 6 0.037133717339410978422132705370842562173960675327230426060818912269165282337566148162845474622092641828745113006187377291176368623846914442760289881134206112005091748701835155319231737543925498564853471156289193620194636994783630880005960155720545599670714248002571802311322780302456874320696
23 7 -0.04219602852223817673698741918882116141966063620048976336059551964804444748079591451112181338375971008877655629481332737775148873444027885763252625146056125024285331284479290514690486342656586999856934299453039289437935744923714294520060280785162462142403225392862217767303299451346556381098
23 8 -0.025438226747762303069502160431706969864174627302488841853114950239760744294826007849639416373106841568932078719022044494358063070824822285077597453242193845418750162940909667187368341090510973985458131510291178459992400904340924892828951746041511302016829590019930490461743196352968712617179
23 9 0.087548945126745369461804731164301974193652228808880599569659095101717238149569950304433027026891784235461955587888255342118013302353068443396072473297798257722050959787854895145624296988706584062425164144495711588783429012159216457278734157924272339597215544989538121438009346154283447108811
23 10 0.09618985706310727492036316318317644112584374502436710691417956710994857938681529846426280935026523938731061341212275859430910428248800431345049879807379337581984012033963642986123013803873085697974441875804134436701375712012023775002962194867362008230491559034244814205888091028755892537516
24 1 0.008923897321843040049691497299397073699673028344401583792325599864404385005101322579822503227386839041180658209879703963737413454983280435069837193249021818547974297356481744923617067883456098211751237456503766388156209104767530858077765798556577375854412994357621002848528980284475089020479
24 2 0.01918673664174183652886188450571644010172714174889755797071415549922180376709270398168664969740885767232865556245817259049621057178605490891371356500151676109869238096146069889319684907595028355531829591818160996836270682329993677063983736301981798907550366832911542224636224608156519061039
24 3 0.028586187092802095594071952317348842656089227030146338089812239715123313586208677695290245989312248899204300393806237695688136304436496827440161545515956583081558243081026868179294428873779661978756013569378592687896221930975393245595468132421672696797416270246765197004701055954284030570774
24 4 -0.023537165028442981050074926120180828319096267860289960071786522077007760879048733815750851097426410592272879777828495554332153346841319801925797619494522278149358832641378948935660467256112213357875185766665564491170323360437068259101887972771333889930342751209559233971447209791282347902607
24 5 0.0092151585536329124257479385157654946225066613900833895181652779518638932864954230315339277691517781000454269146683106204488146045336327248610087987963611067569052273719388724749479061162186034854411288019188613733177208583999754671541761226104230152871304165480973751310001254901586098310549
24 6 0.010018777203003673643826986776492143415866695155269144744580793971497706105255527744519499078928892663402195660147403801419376017210195385152575531354910218407002703026148949653495563340004513209987967318148733846277715914549564843550318633004813729000883840103961861413063644882967786521911
24 7 -0.0099899643942728759577325719989542494989691085298936498030507766760674277674993994726865982001302431145379202278845159281716725751474317274966091873699910485773636965083082021958728951035586493022796171184572009281284803336723071372214512388931795476827198145485142364032656098707472479233769
24 8 -0.011584328630510685424053480225643781658888604556219136372418326064635846297970102436569921930344332226184898876705681080378945079359759126465851699148924626530624269749007777687265692038597010931612138622721699938522069543160894952050949577978031266113873052984145838425074535489005398066832
24 9 -0.01372695746628879164217857506096219881427941792866009674557800030630593792305646265353366833825592219455466970542065503303747067329882556041562378385519701716278498103514520656417547131929139425307696959284834420055592245844969090660063310231278331007174428188887256702256334329851607474328
24 10 0.01570652301190991101416526147574843484064247848460537055505079254789819357380238258057777754742642297249080691941713049911338658649960257067302200613779548664361244023475812154513025242138600689104648384180267667432790750207987470521530352675633926807715339454019939356665523811714438134437
25 1 0.013199046756348867559367956908341925263569314939894984573776006697481345057230600499300795694474423153169918840992864952502275617183924775647280261494465964451115575531793257728189384125240611133714772746753663310385699614309765886689630951030796723493502579602523591153681510125502849928862
25 2 0.032291076039188835540794951471851784570551742865703828779547749677060413686023546745733897654574598637609296051393065179087833032165426783148199734737325493360625166961532731245172076297932628237568311950320503208206694708165305904661696032701898136379621190033820113957780014805309074511595
25 3 0.041609363347334948173015356465204810780925169255012743190996734251745519631876643252931337225909432317468590966875645428669427768505803390627237221193870620600142126313031483843843655013756690643989310430279527960479541965689001938850501596325314121760050815094316671117559432774440328467
25 4 -0.023292720413563299587263502281178767574806472860335757259804181683791592061206018997788168011639210507999325797231874140871679219714331000183095838310004512324328250883787394674671910376394067173213578644314586025728369615901891929200564056258133437428595386733948724592617837281442010806307
25 5 0.03447066361382224834529975367714512065575348030714842717598586667756440493202520084396761345409105111128428590199954583520562483525493212067948303820357500421852555501934822445671447311682343680246867025059731891060597474015308891780229059746827111255445652281288193095484216974684595897545
25 6 0.0050390890459538284068193939809164940056439543826404673678708978432399185517178403013862618461795433580447180103894291210810840000342888995409306543772439967723702040057033479232661129943488923538331920701464675838104504530328306938127325436660795864304934337638398364841738076445040110002842
25 7 0.02439323701710978910145268543078401665043985468256723314898946802676163455163859482387869508934612695278701503457067711902374549186996274309782428642983846732648710119806494827766847138024511257226317595854608618591008107026885157287677343123055416158647632427129863998881895514736033991805
25 8 0.0054425924474432211536444578064846186940303846754283949289472516256684142738046182035836042032077500087250371055226177991844562459681422391528699149034995659484958594529950602676995657521408245925782544320112449354231870808119733628784706834260106927350439936709312267579467801859340956919277
25 9 -0.067049428306331503360028919327793039114875238139858643146014823549120098149636693481179189114186082839553395294942860660327986025032487364162299179668322506392647850864180425323864362422017814740704449475618769995326610329749311801669400559610398705756423064352178878768283594277058602974971
25 10 -0.033654952825784262389118878362721864843065318582351788091397312433887445227573633477472967910205545069724522286557166044451646753253071444361470876641062419424407697880647440553859066584701704065259997802924424713118549868873157131400135667640726803896088175617387631749244769065648878205097
26 1 -0.015733916411934790194120835437548724834242640705867879977195816910979322216095895313753082862341531940532791636053476967186071697187757927520189607023653802818731221811233629472899002715293313371560876145838339757359797135347312444729964681234951728223032262520466368574823691459999827172191
26 2 -0.0027516907610387186891676959369892663419567398741890135775766878945176100401421955245910542666529721293453581732825867927366989106188849205948023035773406949509337260824725591958094496117739225001890299889045774483396476309558277430441756626795959182707997762980640441141226106732528668173319
26 3 0.024881076134685849820041009931073487897678146618578420813986807947532648489336679776504990634809411947274758412520264543176764792116956157129746248067259802540663912900670795814910909834118726329090002852861956931483486164518057962970342509880090863731671268201894981763371001185051692351433
26 4 0.028772645893143474868822645627438732645478075115798458877427018465406794574209972959568709570760908950357639518999141387400585061357478668127119466216210094437896233837685359587576087691999692561959637814824076310098158034113457823754825895380775238875540768857493449246214140390001736943707
26 5 -0.014777226965760496824329526565098439333304440151947312794509863566820968357012343383101477123659826746562733877065554239143996488818858465055774232972235140890869252491313449386080482835418078416405597389836279531297917218606914140868173815399378625970532506960055432471525551591276196323806
26 6 -0.017746225105817197002533058375192721337196526189185767360874850182748051035573199089187915504036862551530683798506694004955619094196593667091007467511962519502145739573085556854899807394097525303633609802348692745453313006067224732086859778278922757995459260710709353149277310075327031663019
26 7 0.017375214710227718369629297735619780500631835091518522132389571001426281232628726921374214147780094098330406456184799863852303188883917892646066705696598692473063281760060838042295183812072540614973482962406942416969256048466912192877312700574393696934590265403434822783019154116383042252375
26 8 0.021480839586849043588496285973269073780255145278378502601694734485293650834871756964593066021688304314936123359413788495847522143859936160475868383940496901911269336476520406764449677597613106114813822722038702267017040653218092429804021970996184517197877037725828381767774655168867155342015
26 9 -0.10106986541914918409455534418406713452090863003754728896619932655558238965323066347857062153244764421122675155831122690851868631236351144357780830314893297213864486535909046059758321594663069679771410003318815161780247076603151763711439530875331455184456997400718134806550049603861824365742
26 10 -0.098606522071687025051051416303064216734335674678652140954804529249658513306765639521932071460384743949544091870228270605060182097028413532838820930871381250309607338434858942873211599129417053951984520757973368252840562636280879336725037283451510496878563849683933782637447711107834735289521
27 1 0.00080964483681608024990831637862355381375703287137970081714099433859387537199749093216893374777388728682234649584916008344784043206481795824973532889297691049600189373674325150517091104795057180774987112403205774914301779863073717026633493394544043492936865862814138460022767269584103666681075
27 2 0.017157266187241273665708834321530311087765023130981755167519717553885082765601521652498152645545313944263637825087057376399736707538478155710041443616015545305762793915905839291637412883436115746963823019861416304567416412555379176005185198213152432233651599186223635897981639355780617853931
27 3 0.017134029575100297632633314086131991279320143776880809008247793393582901316357730973886092129019668303138480113693158703284499417511181975900903914014807830793483587653994589835503781103103910725723688380545531244055712583551618290128638982110910829948955013637598066039965437538262041844145
27 4 0.0040411727390340357402255297246343208024420427777445591910441423147639416233498298896462402447388535251562552727415705127655848097456078556069542849052334616228816981192837728556746223129723385787501089049112807727419546953455680497643409294491771952423573725750061598070653254004836254364561
27 5 0.0058257029670949383546171480210678279003944038557090211699284107434264128674161021474545370365789939333878655768905108825320836842850082102838606233253198065861494217141206580185625901737510198681944860776477408681568751884391838861259196255069352981407563436451125464110230347495514729530912
27 6 -0.0066428333915215303004854688725005061597431189864700685654727521938846209443997666413727175354111646009304969038864327590647861954910665098150240388919694329642072662704455696513693902601568476626940780123766954149295903409261087127738601450395229531688838536140861558600154685727669966605912
27 7 0.012613443243238635617262299790616531242716136024434174826816631241378739218637440057358981392051976644028287661291768494823698129325798162177872739076831756057655524464090729020345530698186633636888517087385871246131898360562132512852494827948459144667000841299388115441151338543368149035603
27 8 0.0094706886450014994228161419550732426663339240881110703194479338333286730741308307646642974110526422875090786037990090354793454141602734941744719123077059001666763421703694836413089225237149480945294041631588084447612472230799396823573530345366373109496269972668447325543056866632342460561349
27 9 -0.056823961505028121824792744597571426068896781844251212794048724053520967136081284791620301753240964526744035011895557273039443284924048039776951313214774029625428782098995639602842388679602361448823560091582423941620019408771755199966557712913077319697900268025577556479653251197119848283055
27 10 -0.043532543109698138083484956628447066600461778535104010887054348963551046077104890089687939907765209157291591164835487796178834600845317791679345929291500874216465881347403162420952580695761824665279033104297604170536310311589256715709958943551085491476637687099716411362935471164213868164807
28 1 -0.0081660507786041170702604333149285482063552676767130747201405666853617776456400724912468180575541855772542671586244683675259778925493356808543819529064694904165253495068585319508717340812030133134750543242247658760759577070116589557995392143864904091456457379163821220599025423860711537363957
28 2 -0.037796436184153772653043679188301660015580987730957199153759572733559714456206260522247316566481892475736364506068600189483234238436993424918958963116868398515538494663289550017221740203451685383619096446482913367646836979753348272130107804853250642802744707159986077677701241021074001858901
28 3 -0.0075362062906403495984444931372075486451682053399889867357700701865067178511470905684310654803314160022785387928584976995984113741250591853949623690242869602828889762052908705876689479761143902493531426538245038596194082433746013886802043693047555503186480864557764134109450097874164530170356
28 4 0.050974975366342487821569384213716387654785962631117819583659498274447421246172989628954404635252436873730056445656958554959192121259119028223906815711621845076928377626906160623994106181338241491382240014835806611223240049047262359030263279456623671848750132480801303593755715667890991617852
28 5 -0.010881145099925884143666300712486507321872162170435674218206029944111619373852962583302079895482805094069050169420713828915713010021401031763984908215178355526745798691234750449771907377209111296703507435717012759491440648227995744392713161109724780142954657496440924773764639664742784578705
28 6 -0.020780316486954694176403818801763016592634298941978692746907644500899365973955036555755914270079090368209010048776626049495567198787921491513702810604338572167519857185857022166182366140613290980446924620179827109796166877429155777763652287958315520423585440050015665666094768742027550092472
28 7 0.041471498274297270432209837879447940626528066944595585472258353714811488296182549022493435530470320203337741571841540465527180957332032810617894147367345853648602439286011171764644861026046787904182498107476008032985604028352824754231838969771480961045465547530446976341484129248287644491107
28 8 0.032392510806713814850726035845892201953774095307107759735053368485753117034938585813894073560392693965995920984130116309510038954806521191726139882992834102525078472900068041099978122668972269641247016209665901840622160276472440934260176450574031296039086407006901239635365967315621619273085
28 9 -0.084189168040081236903314986589104775420294093542296397504565041401260558527327713127818973516334500976421821122175490180938716686361461923471904513789041483335273421657633563304082095099686163860245226289619700408953388926693316779737143928842159714844282722602257461009818503294233518992668
28 10 -0.10900103169395423289927046656874606548432834533764305741099160889621509771590411959661751384040856106755130543805097300430650886992193706847359021062209494299122165452966595669525588050156214604941686765811809162631525693601831574036091781478071751837658542789397543247616893390465321303985
29 1 -0.017978024339936674362379428070639806702101471251116914489274331933951029350434568784744423866365887793318111724724494039834724879664410924758587767104059412935740458835716511276432512690486405490272543335691829890603274974573182436701911989327701218335941678532044774844227828800412285684663
29 2 -0.078464756072689325595329689164669354176616392592661285861872193123624121484907157683986224098526496511521649703223488011868230852611227614463371219912252306281995638567317805696279017137706979494971228994922022597956721377058140389866395029671804568420209121297875897965908536278918913070237
29 3 -0.05625344921815040998558982150779486114988156115017161357752050116005472247445218867641730438533404880335241016577996654729178537715959739504099119065466708456661472824864530070269183204957286437154336531967584088803719961757647891456104004082413657206700934872011973294986800808243920847002
29 4 0.061796593506719670665306640354105623496538404602241410397918510194340434506096613799868360613066900458441210650633333511788565891703231989413364818625211825082919745315070090372946773081302532310920218987101540536610178234589637379307575620310915293281953359388714057401303038822160487494418
29 5 -0.045849477185274451459759029047660397041099168967106333680821776100060152935760202127784265596348406879114434941747051503512628669180713748887824217387853164291123916262821294964500098718521419715367248019164692503209612854318295425824165625014447679996312219078655022195781478410503565098001
29 6 -0.025831015797459927785964867447165283089955352522822990560443365106447832188404463482672891293207067387372878288807544506049863508349070437375781942727123136729487443246806550372030721117193244353603368700290185976540799762891203946859107443711640895684270015685299981586394872034298502040503
29 7 0.011919988372246277094331281685068394175362630152943833233563927711832147393555862592760827425887902601372069828136135603303073427021961851766110438630430805059958304759655332866383514530146051529962339876017446185663118195256423943503971033492933306553903836449571100418915167268808295094031
29 8 0.019392295191343742606961138664930561345660331911202311376373437368374490704101434977834175631197538456340395707976476306976504781133167731629182201815323677442271457297415811776317363180297852797403069543991548271033066375488800964626037808314481577775057429300788926630651953955144363949348
29 9 0.031222950424042112153142713871855610102256921375849085586163520981880605249215845596952436504834105322572247370675745968681713541499580667070904718849342632822030785779043825868107394452729498902744990485031237782103379224376647094162162654544007696194274670670153143381060667075615788597074
29 10 -0.039464118700175082650054117230967010534263098080707514977716114195523360221423038386434744148802197833884803291819648872616331629054948485528033565415683238557531753028363512064991726704665600424073987915153289298491305203314449380593963060574312289001797323736284414893481877893607501218964
30 1 -0.032839601890716723636278375697515773448400086904686667630986600998625555158991699707994294232291517308108561567182315241104367951836810437643244810421807419925088922613740559406810698470112320850338850996727974211324523760465834546909434455562195649845339516405345546763624038403023203454893
30 2 -0.036802125539721147073151192299469152002496390238158717351688108718439187419804993009912319405348845674462448793734739135256894428169812467417601485824777217536686224191896251122995810836087831392923930490829461418337351817706786020591980357612631257788389316583210569006294303054882428987623
30 3 -0.043019699522495732000218622524679905156863993143891020799383093957375089550745833021816781474217302963196051535098150275457079018074158614714889621713478989684092126752506356973783928797035522731320056796502130377898090612714941435836786415909759745763085723286412607266701316257121010269669
30 4 0.049750105493802572880660602773075463954992465066403531996269478035565483947614345208220518987779912252859789391009519031766705914035765700317033680987915698473818875449246243961093715089229066641383775970461121410240894685905997222324945665637509632275510897068032312450354186734523460007447
30 5 -0.040453409466881700541635239497040860680506544550188997215281233501759352922272267814492195150562738517681065090933533886790410492722983681454273343457858469764468804066720520888260263677973505541318190892680516324441170485498273158498897237395305912672962009961040699582070033035975624151004
30 6 -0.0044693007022222562977690948819651189216272665731698901460269755268328409598184082168817120951761581978558154700592480016021063098365637017224084679432308577161088681458180180409591071421945152036049343247564118566531358426573606600076499680067030023648886152966273602170199478019300833502433
30 7 -0.013249721717043752711637296488084000954419360689273109057334498468738293014114115179921026340115233335909084605914871350385938088684998380686558805430731994254953743173106719028646023860903826019916791046148783385141218499058228489850739815871726373118406474242155013332546749318030389548121
30 8 0.013299299691661457049638416364219961312445778701033246994969234135597697498445127063118923089266011229251333472127854045545647080636925328004509219380502907410754139664055844799778336669125690948730172499860798286227850974704894620658439258071804110696892750200843391058536043488252656345193
30 9 0.017885356941262644070177421228498105384410985201956621845446527235063569967181197960452231549630675199260571699527778766965222188885035273984575933252949079447287646517145579118418420461139466886404767597477499734435055950473467044782921465662065960405944268177706463767323873043382875426133
30 10 -0.023236689373371885155041320380511557298693892815122381472727180421496269100877251488686355336553123853723902916570134432328987922425820151598895129790606275608181717063337082834197628636908199466522216761719258218178981492202629766688328938422836342036983799079462300308275728857816182555415
31 1 0.049576221979843119069309093078493317487414789171246457249695253837218554869211960859907259911361743656087157026366698305353589282175524737207189302973061168892341468247140652786296268252498542245273396419249973656043230441435481528377174927634583193140761973841000631918072320467883220850888
31 2 0.00085720534169915674116672064343626030514034121945313286495637714695667634247361303509629615710529904206792365210664456422688364651873027749819510067218931938192464212811632009235902544053932777138658922627149404746587533280414012109416081559683485411309959407045329069590684596179604924635362
31 3 0.018367993615416127354527612686192861923625311308102228082535341359258769838260473806180816907499087644078083118251454976692274442021320884962240742536279993838491496871836394890303437318879740061530479683778614779575437526434393824611874896578497490973478772310292002645667598005329204107979
31 4 -0.044355742085217947198466581282460169565303177790253760967749450346112777349367756870214069382166367267224907564020699672667720855637511088625509584005120636327754504735902575164537490764014438469692506514502459257325692686009054808712496765771798829739346801795660531622970956435446209500508
31 5 0.017777160473995706306875849605257167602587225498943553680516175188202416601933213877200241341029841687672067916437598301297073712306744822539771113566436917529937443210269064992120026185833600291578679552177358132799994627487155828785171071965146903904390190505550622923782721118291327170645
31 6 -0.014813785929686250138108362529309627237024935168747815546653220710002823251190796757909673977975250511785116553119895058496298295687589920879815627880772527725803871444264923200120592511539400049648485495834637053381657736573438805090607446819116554906366484178918287855325183819649698116824
31 7 0.0061686113953957063661183487285330177533392267318954518715671151551069392810554757988888510099846344164893747089174966685913592735090243311604550615802701322919843193651672885164558895332262666987465714519088245845282501030331549001934928756017017269155388970715443402338390349205160175608792
31 8 -0.025445520399102766227170044736113957655310911170680703857515893251657279026596093088504687901408865648486484758172705221577234905045954953966259147119739423742537101040279788590775457713244672284480811477785176635762773698377533088652427827814501198544470454831555864150208374508790049133059
31 9 0.026327972250829134644099527902704490025694719522626562295950588018175373505563016112829437666571817378544499146883031221073568360809209555846679042961251992869795645891886162194523011395833510304801574121811968806405430482697634696136271653844275197651214866454529300833592877781982617400021
31 10 0.047750585643657587139541275927917736876397269009194670911219110365273432893810945530493519172445548608842374485910806912031582322876867618765110993412899393749394608752821285185646297286983072448301420480057286005244327999232782158924482618716122696635484086264772534043369231492828688676135
32 1 0.020310980642920263683463232707193556674163323720733848189240302498686007313641084480324681343308028237928191247172144411034044854731332342399917137862824527752736269450357126280896397036375344524335477926006210180219010648589842595129066464106897067741296235783989389105246578064123516413417
32 2 0.020318793233783904144014704193469079517291906995794367256173634574689759609237219924647715705545744412436903164837786386945117404514285484518974371755987474423962875152313795235825017204268200404873826820856616081294611210133897654193909475134544506572897291122941417181608238378078245601603
32 3 0.03107041805587382917653184774900195119761796074030915421474434346855175993343493609291093361042393466307447620571340240288943981375439269460808199150006543426534428501663151206958028457713930202778745786459053959472786267068798615277475066767547443026633187618689047776514984278764110802838
32 4 -0.026707931010159669940971790489324651921250096173875002074676404192449421733886803438646147441598266559921303266582590580463539950801293632742763458898918934988110240961117125122102872627584412398566383551837201623845227109461925215901333199503681172160524875986950023977602042694561998418384
32 5 0.017747459542095560592073842288476677016946866769584766378232058327485184213777419700173861798838614423297022864406070617994815554109940485059620333368561398784468573254915210019297377771669855841020776301243873267578792480411674384414755561147038762942284281257487978515426483751460118661051
32 6 0.0050233975401822658222906045171254437915998094886174679157968170021819482907333815426817509148208077005580460144167736239427837209513334662916497827384921506149071371726608911489502174280204925884876140467290084891832152077705075867970941948395973401832124635515804671426052782265609422874424
32 7 -0.0049820083245857375411900654720727877441801523930167300987751347955922455418107003614540276117389672016388835055066863711482146085536780146793317797669138452370498229631654215532919176243045128666461473708208896850313947180365411781078636488552694944484563406124288674592731882726065024380119
32 8 -0.016115490611998068849170310800557008528093050921312346806180681325959350460461015938817478140815791200455700965185983330644549916509064078936111770575224167120297357724309150344429819533991031595855706845795896222912627943952407527055771385155186671506183863291579020865012868790947193504362
32 9 -0.017881665236672165476973580852043153837080692044988039963303394920482648887799777194002830642808534906754369501719391087156195497258435967324088875826059132075797949463057287821324707166588949959299582687492771506806773440806716408321410942112590336034510498446094899454403637740870861334556
32 10 0.020480477880166577051809000333008172074432486727555259607180662927995572262508525224908398480210384290356795330821211695803055773302137142010790629701221913552605898799908061952864496402358769479895386059928214102768759728793963757095685064207021121627762396164813276467965669768434439401467
33 1 0.034638788383395403074285190788747622481418477091777373516186410044486134943715428928700477806790016563344636548816103086176917625244074988215249460125601954530647968585157035796634230863286303276340894741488836547694055497281060773525106123174643291872226229522889305132632597199539148732321
33 2 -0.0074805252597754645184819487573052951506195973898169989655212703244563728384703559374796820628276556916964204159711789239999111271560515428142515287598870065165654607581023519812285185084224841028622094285955233688919421182835953563060261008493564929744081038447071943450363984603456707162345
33 3 0.046711075716492157512727173387990864299799766014897275229652415414614189743726534253744235573074275742282936751747949235492617613410773834965900275588793696592012586956015938603023606126731259062090442977118642249761211024841710326035411124636661482856234834607935926561477096525815154241283
33 4 -0.0052011855788971730647006881725685653133749560359440722521127465389088805552692211204395771258047874648056317957217041053902362581439559048245485882567962476626797052035155124358022338044300563895805974715670429125418025960614110839553492937296939622320451278630645924197267633639087343422184
33 5 0.020474968453682408717015579168516928490542774439870103196568466868351888885561852566193749073056130786233991205183865418042012331323489406638368796313547506679693256034521664002196948502712645501301319921037632447067858543691176786756828383526721190315711137655379204568755552224974556225096
33 6 -0.0016530281062300726572091432357537202141645942999396489888044186060223145031169073458295133310110602648545624303525925113530475315828265199446934981497406247553630135715862688424670128732110078311774848581833648096624985042207486552969230320817020504489695344464805693286933153525195569783578
33 7 0.02680511644587065332809686602856804846019392590647315340928151132940942290170287140321380799708590405791285937237890723772151870765327072881141162165946558655889100933773207474330635425465083506999091311678798249106632526645866269502620367643683240637755926191429232446671452577129297188746
33 8 0.0026715415201366951145746731506345753438357445611255579663234844591343774405860240978952462893801206763074476740095452599979667418624029596300073733691441371468042740226255645195974639279575568919739320471924851249842474155046477754116081783641651699711106831903979810257393229389838047604837
33 9 -0.1015409520283127111601633438123196866351133429724569273302712267812315359060508685799356284579210516489605741957564750103359122952590081911157595070399499278161557264582995602519021146840553083040789579658660003161242661944559243459296486361594257942141422286345568112594287975294506670244
33 10 -0.058259411779575069680486180137649658508839057186827203895647566954852250089438717982124687177074999698427412492673944760750725699006576415757597935406055596127808679666145455214656128832566631208967688774863578202915108636845052766437103898107413107716344853932795636069890955589458241400911
34 1 0.014339681355678399228508469633920743038599163402706685009704001462373462737245879812399282434263152918983228927844678440117036365411080170903656334757747855596918463469682125189153328394005784483856775862028575449514346180405056652533323858646980446800741822030082773916112065085461762533993
34 2 0.008067228057027118428035456052861300163541989359364111430476368511614613018959657925773863174888533976705526502582003618483749011723075103197061604079711421963905315719786890461157723923518391436763090906173782854457912005288872474840037143669045976132236137388045286968948603671206604033951
34 3 0.012031667051293948162668114222197104636108957088721159802749464354902763951149018290701659688775456638949779679044867659968527501745191950995237151575708590375538884881885129169560210953326651150653773885248709454631439361122801921597979675303901588791495122415483732405848310890537020729241
34 4 -0.01117824173171977305682294342852686041325162001248712315731491354437432431972153928756215015346839448094590809023282611186688935075107732473335088825664253944530061029607955079758862133460459649982413269527142597354505772602114021735808831311746491160279070635266052360919562584651646830626
34 5 -0.0014490479357258954307231269997126235439202619761891332435598731050038527720957504663557158261555867625225112455377150843530136643436897932539349746071508388434509083594674851600091951490933092185663422329302440596236147452641725832667320732741595209121694851868693732229455344326289058469631
34 6 -0.012817623435132503384642091328016778480278380279206590167555983038158905184623223740461226549266500331787318519243793289484725981332696159158045142734872156767714448697213221309589717410671884863828121080370643334389217471305056351958219401830375907790574743573274913510825571167721298349758
34 7 0.0061695738521651441291044328669537540005523242411470040078936690120538237274346139485794361382234868442993540393687689683313440000800475665635493837524843278363446755399018555626800950958822010902995770538374339956672468991171373599813286361150948676300625943432874103304443364009493861589224
34 8 -0.0026073061339254194336834942303899839877817142966997159116165874916987161782038228439564100232361217507783306873891826836027790099284740792036652785583622145296330498385498255482685405657587076896568270051148301057218533409543844484377607901315091005047666626955295613401552855983248871483572
34 9 -0.026539542173523702382465519395496265262010355192326112997965100217655671432813102172333205781051668014860637273405588805758745333329009792726610914995318439651025763395474523069335364056385439987476527076531227211113649563088392161549778935045866664075146808140519745189858336953737071544324
34 10 -0.013573083519034203815764674029054253730504790636615877367651995206571071503060818097121373355067352987480519589325438267458286561469313029574658633097106153143264739799709831302085540667902424050096891165090384378033433000080915757425933413717629947843736666894008985256226320790682131145705
35 1 0.022908007608487516993429821899881511477824896139052906696151636204260015781835081457630759571385069916330913959198783074266788204243173460330759464237184878583271329436774197054265507561191938498960391140103748667579024621343210311461642685026664700541262762530996135283130319102752914974587
35 2 -0.013428526353540894727377203023035303926640161464924345908446955320772292973517850465071717107577046571451654241282868315401808607156592999673099473270881783711124168899048703221726360619330398526105483135770349896033535989196062788003054478456442876032820217454633875262041763375633134346012
35 3 0.033285282962553488094567661111619973410175151230473114242425547914457835935939931577560865589890786700888867606079249503623732111096742777560152222657061177931098549974612490263504199046178745599239079823885594397204596657548738342512433529261911021305116068471257762291232181335632243998899
35 4 0.0025104568370813502300894690240466273855453854182337657921562830113812690849158444627196956791310392091265304290839825709337556392914825287233315411294341553694925850306301192368846692547714026509101506985620262749544934101951427860483612623928557297181352792169432460329251914137776603818476
35 5 0.0096478664292215789177518110673979411210780242579714378368181389551313675693026326845218069336481716643856494545460514808975388389464468170795951358425014073344018795742412182671711694490038020549703035476344262381465256018835074030293540209806031643694475205142172431636083388919594727771425
35 6 -0.0092424679235272720735322925363051400515948914959397805886944415653156732674130972706817037605305129674072358033173404396961169930770260761093093631252280221378935550131022431483502386623039677334019590909134587051151699461286529119954451546060821335057875622020503846891082701790954583755856
35 7 0.019225589267752440215164405538647525620895311712912079396155542865438822868133397034081533504140868576549944525617831739371246328096687815659904012585069522898410058065360162170977774638607695564213410674181630663510624883068699067093583145342716013883213060173947889894801058543055249595523
35 8 0.0015563328300489127463753282934925368979463186754553268272505605504289567658369414535562749362144468717350472479128120078392516114766802436364751832899462959711182145493393251422740163227713166350571801340374215773646959183522833973141939134710199232140723766976647528272685217829446878263163
35 9 -0.067246934318875601879503477534939780180790525718464157729575478268441119809723948024147540198112033077155086185372310390965703231414692797300315145630250823377515028572867430497060207035480919826117893853349225303704253176664837720078938901012987051248117724827698840772910404308366150241137
35 10 -0.043304567636279857130775281570047266203538870345959731719758598669046582847313474626296061500970913532498847961189913580121255081088457322509274488809690890400820600936375247993474941565156159227348932787491847614037465668561724303869561725024646195875249882442207213030511525734137762964932
36 1 -0.0015767513034282419538180225357131691557132725236307189072040896087430954512605126836116062547296291332094216853814943032809405519926447574812281885641327474005002888046997756451824059763663381283993301026805558652758706107368529898916644064584317206737575526908949211512525804182849876037851
36 2 0.063624035475110316327913342020102819770248021129473683732749906524864964691178284651251974463252967703989565246717376667926680609208513741749084829054108284957533702533725443489508610277366173832015738966852082294301617207156322578120197997639808232195247525149748454730158332460895919998941
36 3 0.041881795708049279631289506359900166881645107789503568326765431759440735052641812227927299658832032746871889549966506034540445936122857983629482357585295745513474627733077448488012526421178918647003585140017752916774993833646339321542206701806722112854457669653047912257073699089872653646043
36 4 -0.040660653708179910337225619655925614191989773182954320506823241379045222493858915412768983219479915035180795497598605886045057264723289906081175649830887987131053325908846425611871984832585279274658031143208702537575949758795469396710281514178832541686518950487308190313179380753613850898954
36 5 0.038839771348686480199725297016567489629031763606943769929713262248742453503222906718709223417642104010684985048693762167701136692943472793079589853541915400929426544887564151973395698109144565396792838860669962968922087792363931776828026644226858617991915180712965908725245168542568901866881
36 6 0.045538046258890670884811729968898112995600991179508900697961236422368111851874039333055671359262727691412807276675977595526529306449969246166804662106235182896229419755898217161774745900217810199104894505090274131116856917437007753886533261214983081958135053635166797015794688246234950565526
36 7 -0.030915363093791213692176539910905538764804329482598201630828841797027191410079103578888603663989600087818077934913545689267903600623850613374334836737622804725268237906357722225024668823222928006489291991151807286304776133741638914233434872222356364225000628479242532622336962525836106548656
36 8 -0.020703942161618236841025439449873148480652950149949684921611982004094262897838749131102564417732866566884922865989584453940458525812017099957090571862336207723062718733339362895354479381011080649015651127600346051460496086457508773034182229824503309392120158196637780721667285062983652099861
36 9 -0.01565871548396806848556692064838353412939127927398990600025248056722611887069783249859055339995886193580551370018767506925933851105976615205349945932410817162315602605250504349869176093192894149882641998173952746055227112019075169474867703799340084310642671559618296857360671097767657883293
36 10 0.051234612312302982503166395120926391546452132416131114194289248179014973315801466955812661041852680461537068229601678653585089242655196441310843720399567053353138843223471780954230374066579574685810294464780557651599882800828026287144601922990475065996496431555305641542639562578944380839068
37 1 0.00074793312637763652782702984520488849109725617706484152710701870199855686061103695079683899216935637734696765309628843349230023545717838582578946555299594323916275788513574119918615010143382475625841661041806176126679683319311828934546522367625371890021706536245233250587564270426551901905469
37 2 0.016202366822395041110339740669429286299603641703647228719333505412576094912443504487395544987233789594831197928585626946509616997898685185744254298685451708755664932985699650046804488387700710943937471853898475780285667016212163983314247994323832199205467498185833112989469599109983443930855
37 3 0.01486180264423819934233580024137019035467600619466623090501818507338995949068850259098969923079044363856613226428094829594102579660099237126032373219097107067376486126632917662441442383372269626658090427087356401286760006140367571726960649036907843230764682825309108153358739581045572189342
37 4 -0.0079976315905075599633573383593522679892801014149510917406167810625363230538140202342512614996013494690237485877255566510445405650181619000206369060876068200310775186264617809279581966833037776148967277342953058194536501798019886831988904301336452104186550570555370451357895572930089221732791
37 5 0.010668163417259311498315257406987834743918281408814115839410889459481313088741584291414632032942627761827399937985067021144811960319860809137575192831758323474830385256612989042994072635060275820370189313061752113302917088338839159419725836447983382025110109689361036523774223703420518747604
37 6 -0.0096710848788888307894210492557361956680381836348156257178385048351954977221357511774898471271939841839968236816007302623564492894596901299978229540282353024432796178547545530501282459771361838313815745063577566572454612002944170833666759273074918755487491594948332056894240521497844912776194
37 7 0.007194731264683441587552196214703165795375744507357239922960357352687109050039398996364018446666327174308923650381762882521410810203177834297882954459609165880170826375202777588331680122235588288902152102589670731481572404699696159255824372408258699912107437655385499085770384762329929330932
37 8 -0.0017328387958977074117029182977034810303388671214014532901801216844886818467156099560639371804139957582707720531265516262443045709840968181890126285133444422527399636735851887693182166204602776191728515097685197616941388385565588418306918671826503164208956752517503506221380598018691189600421
37 9 -0.010760603715582305654606666796518487088662453332455144805915580977869631670051422085236159337197062612507691075586781505608059901748058407656141721963116694698570375429819416734305450582746299108167446774285468583591483203729768829289894095016187296619242365269288221167707096023845692592152
37 10 -0.00442917530735298975905257670973568018154118965461587523402964267260417412535152127967459501065312472988225076333945907637229642137780793661459131998550812505572617230961715782850375653121536875015619810919346424277015211602565309622828478955153156059955614564237010149175240072976552332558
38 1 -0.0047346152281850949134286691269097301177615046193828213308423372643937296731031502382215448617590259202339368336446319293024210772343611480269528820660089599777162297667126905673563545067312234512738405474631599402457752074474384423156799403911256850217523438722703843960081416623219060381266
38 2 -0.0075109382880847656673660680947927611349846006843482660859080539555063826007663041149690479803704083599825966204227913583436519496952996312015937690945906005351227143089366025244560649685419642471299238286191607634877834118099280481340163049271571424340691368930241239904347368742874206325587
38 3 0.0023674448996062179264580544857282398485013304848799142916966221347155116306943368204119335804743300852797229103849211344367729566701785125813174950042292265204070506705351379720807634178389279215830625804395079221127743794804487326338033921480909464289455854315850009742794952697051191505737
38 4 0.0077312734189048339534147850893639240385438464518793785587663496271676002405353172712414387187452337376660919226200243909645361027203713259689722809230809581109864289695280435498587994765274041749015018508040208396612037243220655273575760604862464755058156140474225137561998287330463865677034
38 5 0.0055926166086073110950223743442669823750124219316764909451700601889397611107977287902700208123006003272541525016915120886864542629281765198416154548424144698405091167804279573348093784132415683693620861685647342739425127503692276412510283936367152686440275776096378102480921860201556840845526
38 6 0.0082423291363050511018096851238156717842470726904332160164642069677883173738533453695056262898039023766418049895551585159241403852114524681407796714232551947953448751116528228223154396464958121415672297855710586367086779515037197489595088348783614755459165038647448068886060379158094737897469
38 7 -0.0012327968069171696262945440013676574543585798561117560720474769204711382585916245067853907935487755120890663139928406136540219410289334673736956456008380757897677355032716560033033394702237614927027746794154707130611792572566779760603312394797019525559076565964364718927703281587485015531673
38 8 0.00098307928591457777247087825245235208544451681854536697938959818552219535676091469813282056489395392843361288313382053600793584476930412801880649334133765274009817601127883855739672992698726846921086800298867822740493124918654814449134953352647496268807387940603128203310914655854728549208408
38 9 0.0014078227694711588800192626092758192398732187470055622063508559970857301108141438117169142039103648980091281256896732122538728531170121892147573691117657151572400381329677636998181045973007009520831187899459428587146634048421597759172672250833617790334822988155727481468272071198686923105458
38 10 0.0039430026638349833286471042218387302603564157953046458224144631562423917061051304597934530006821239150343510412459813849067780803799017571984230042898177808898251475223337462563749461189903648546433255406113706313347580811402665527041547911384546330393069259987479173554258197684379435279591
39 1 0.037042293889661024004946768063426528902770267181221998128575234137208218399611191013531315739913300661590272824288320631589122853028089894131636496936275950897976587562912140737853036091651916974015823898476804177406183040554644857921835045123070273236189064726982207236196469780875556714543
39 2 0.032106615534059373477766342297888671608021096630347631485598583274786129779926343738906920647879732113545134566889634374506183975613463585106987415281610143424494467442795479101371602304498977528965694262858153944443134726682336095032139771243250389017704644300933202450393855759309757294616
39 3 0.056852482957027105022806084634432894597508910982364154054734469725351965521544327988203254097788187569927130121074276640488017527918976695633373628939044717298351814799330930017285957111898269958625932017281124353767089681295216210164228960121714190420754055788613378192213639245561609111388
39 4 -0.020169106943660704487021495244654225122518900699441663034112692328321815525323544836764304782477021592466485191142728186063108510559753500939671037287221672282588557563631925372875959321332253670096506493229545885812782736514334971226107822739040664794101981665961428793410366053585543258907
39 5 0.011163840768223555834806927080490049113966979578577842108444018003790634411643960616988100043092523250687756179769553047614432947679777646749749213881034248473163836879448727569837574876548464451388147950044211573480270790411221264953688855639742178523370358912966444305689189010704071895039
39 6 -0.034042333471835414705369289389611622909907764791425975486483875682398369921166021163768240233986183734855992851152787637947573391703448462877892918118323698365254535243290925968454570461256055920191756155361062043871592966176635843398046584014677322560241181332759503638819321003901281696603
39 7 0.029343902353788606855819574646770682787544310497308920911264762253535696733787681583410076415861101387794761806554523556029815928833911259365370576756470867507552641715705146889849811354122008450677319418082476659081340020822377725722877678397656690809633513075517329195920742451367239701355
39 8 -0.0010686169512488435215510547784582306626027677341806727063390926678103242900694087783389597547579453369281121860902290562254279554880138215029357484670418735618195196570048206215315783716839340410072608729247829723885491660300220477473347838610552880763902840936530039783774754025997170611917
39 9 -0.13956898782540299356629556828543244574458611669223619968879741016081556916683135467112610353545623709317993789842117597905413061580656311074173847846129775646015077252921494664777081141083478529743200986311972486082367950774550666421957255756315600832438641745621931798430545760076971022436
39 10 -0.090782285307866706605056157335631173609768176226305550504430644707640945722008864142424935443295837996635739101661677627097492979854333588241123542214063467991321847037378481621410412225410593529022109912038849154757002463329038100981463520403993600930996553963998022108635537206712379237353
40 1 0.024768671921544583616462416928156444784467184063502180099797728504258819474360398752364163592811966929457544354922372779100402739434311558452904218649654589768979634693232376917834186821102823245601413218274107781171114124636164801562386688216962144676995306438735726504836817353996286970103
40 2 0.02794567581734029426497509771571394190825625341919430800915703388970368165770018292370442015812889570926410051139085507102369775021316226587204236636420810718465974804959841103728495493004710040282878133680393267912987351582733175607892114589283418738095678736212010141354652122136305518571
40 3 0.066375576905215546546314547616140175069506411816061091755245801902969863467812110656612142682109506839794335218160025460287546285845977074892298248315895460722270596784225423761177277364033528952738278609485888645040154309275357519185879107205130275930817232760550491167145301543109107620941
40 4 -0.0144613599287207057885644984018606725084601146053382107358376485007900870507635071368273433171367138190031937893138356568890263898912041288716241417442980389452523675594521762367271099971792643108976629548621141180227063632793680916925064337343672001575014785656796375543534512827993467907
40 5 0.034410907563143897531781748338276232785004247533211113867234531236813974358240368034012363572839943760210345212966401595412789865172491155053067410200577501854171338136759936847365365269563891173586023615726108396497476332228771474980696574852264727976035316013884514183958110644013401810048
40 6 0.0066902461927157262499635817877233798194579656014638067011867473855789326805207092663404904552680768886944689894942404659237421713676868092577284715638141945938397658685708480218113983137872726581462664598165310269234659757663119070083663322757534585377218610737718398718415110710003975327436
40 7 0.025116306626306925297070644840969771711680120139005981615976138415140865509050353295423611087180709916330053089961255587374859791577115367286179778724020100448937166028426944462283998863308077186488375174847406247278436074795348049064625104622598502131128225548534121123415819577391885529704
40 8 0.0050017129453706856659817166809886243769949296408146898174985619921028841798974618220025131794581283091319252416634766401403498972575308751664394444113350597187344767333305101188064926518654897878923184031500777079684887388666044398486450612074131424339931226476558521744941797038435009738508
40 9 -0.13538358011372918032176205688364559057621977383850094799047311751498817374420163166712997959131462448031776408709522191283968736953514538400842642857175687830935736588792889524685255290875423407401847117905325416891824994346072716974835570655683896818661701190721160157459154650833942102215
40 10 -0.072416012560329697665374047123353379025315915955929799718768109996090156507157660837388629796436832247616213694373688608244922417773053997719708542956284604939843568523166684206577974629198511036188813668010121639188554488196459871551656421887586898666111236696911420587623605096079496088598
41 1 0.025745959194261829181135389369058104473758310484206868934255996231980716671714959593532842473808277837336589314875151679555919892201609989137257691439742872444526645280059483397238640744370232728227599332042180995677410441810256380422433487951032085809009469457560884052674879670387843596441
41 2 0.040646654015929629214816293486182134927639404158667683778665766220447074379666802743157121234374813919951401186037635818624142870049076305028677056154694300858864212232046295245906229198538341073160402167955912463210250857539464925912551950173697503212817050343472835983815755762360705071128
41 3 0.068166533535793145198340150095238506868400813916525337040123707538079590099652835002863825831605486801752698122900968474359760639182060688075934166626747625717900487746404425730271684719088600477625265735083425299260776244517101626182462754101262699035494949938070761278676464979758499375391
41 4 -0.022840888908574552396858717905201222970109020540842612582040998278168439934116300135033175354461278970870951819702855812667343896116097453894345803539141846976238595526028102198487850393274321937569929023639903620549308543504535623499670208180107954446582026783703992237185775531824775898168
41 5 0.038893896036560671803798852752140759607636597007022167689521596143546064852434293832396564669670698653796336830572922941284915945378409245872002266030251833769754524475472948436291495730015892816700258916782969167847750711930544039693432069173693754773804979683093861309652463529951871293283
41 6 -0.031893426710330618858350841033803495530213965263379594617999339739956910858104829944148907635787486159437183082773637169462795601331829338656905934683386149120997088396620824234328930340513965058285751886402621736265516323673221908995982918555440133746980501865695253059112903458437991371477
41 7 0.054155589549313794936449782736690781194732837707997734502738254999893968090455852738702592844512500320740511381873950291241114751192575777006744325169913466225078084472753871150247206729689494978678055430527330389826980153546611761755837305725450064540321862528219264310964165130826254788171
41 8 0.014293630514027210523414663080608342415529879103910662484864335716618861885987572867458040829047110737162502122665387034478646684602431641311054636189378780583618232420435945549545268863536058421349210363930060249877847736583532686907240572339937991745828190793021710204909511297318920780853
41 9 -0.13171517381857113632589278241499346866848991942220541654937609682254627048710801031737233499238668084743037125186260581399393017690005580984890172930848661995150727695790355009639356502504134811724274584146581509316489060944540027022329956356593652896999383473812220916413349680424723755381
41 10 -0.095160538173337197714821769792784884274108935976532628284518551356158756221892888668070807441278787532998167259578469975322259715306527399446035516957427251291530028686354515120169960410241775837734651314270687194186476664450666580717504108208685850200117331886512442835354012145723177582877
42 1 -0.020443027898577280064275690125521941287757249862346548303315826981034176313109493637842258854964349521095898535406428694909202104910588245487939579260594578353271116777430017350729722946163736050684608561074284507689976545471972754298948278956279072599910992747576530986145680746439615476408
42 2 0.025468280070588152560293003793437287212899121236598744762998533846448093304936483466590740752025189977358261233331295470193266334113468983586534778561475709732994136003488980381216351459741197750895648542458789745561680906014916126424862386075310145559406752622527013511130923841254030893272
42 3 0.013211762678366653977551699806039289736893984949922136096266232664650950389721762620107428365508997661724076418125731677428867508545443356423172033761397155258201017379070961654918414294079168437079915041540603590924753726548800548696184432230774190690908638553284588459393386059345718827279
42 4 -0.0020607888903320124220306297551059571510356484032019387562757098956098787118993008028107761216329752933082096171212964168051393218902729326632845150942142082569354440399861423175420143944159339896670952658678760056116075708041799897744114200787624511036734525738556862666053437694660604612735
42 5 0.010910319222658641809006078290474021762280767168830630881006489811366765413275387406952142848956228505362083115034841351037699814553203672425626635794173523382595240359386877332959989663461052832881031804656945723322940780165003811327522663537004943468637600607944699497371499741940999062138
42 6 0.01490020079738006294277298451734760354671984427046196066834224929075073946751848051698410226048199740227214855513574869709593825154312051115599917803008346705975791954343697797313632354566712097348470470885218149047205107519101025557434543706603152592885767346639320402525430463334444024477
42 7 -0.0046693457415880363106846054751251476787698011079235814063841468075245530369673490192278006632584657299633188658176361678728004219866567218666510014033151162952892129347751547748943845809680244868187519109234636932547086577609944454497294039499830495958386157302597278811379198452526582016507
42 8 0.0043541362974611989514726862099287875066315637513977934747471840496310032757598395693412311799481776703381758709180183447511143082604928132837191786080877320269978983532868732029920046442995704874182633337127887850870488816331953385502417695544990457710915221426544123249644418671877863469677
42 9 -0.015585381649687506751583898004744169188355777267896375122573170100912621200410687730321519837170497566198600269263396151612058971368037887269242132002617796187366408824868175547251190234189712616838767907981458163380055796398860000766865387857169838283303192209081373505160449298257522594846
42 10 -0.0056904610276065662862251295674659124581060924443063646399044007103860777099441752448040792076743007059567253189499939347109569059023172726672014334681994807517576041994536346816716638908213701256774266934418226181848268156186779560959363339828594250844039820274273757371670368320828956869007
43 1 -0.011605107024768597548216175213009892378571036816923919260735390487695077132886834363705668290290741378315408941026137920813286674186954616731718724861790639629775463215163194039622360497002075783365985076424013402086951650241573259197841846300299030329024522664351668841433218656178987152671
43 2 -0.012510354299431353986237226967387362736930001423182911543671149201900985987029546845995028321296327877907701525813242369126409072477039738337321553482923610671058600655681620982909490789683198237694379273482082984173765323580442545674805205064580686285446242499755155495639773156803913592422
43 3 -0.00020549840410647841659577922467956287734516934214339660623013144829412248387505765366446763852415160098429689455918789807609724827411445791422544266786172015691404758308013893513714790152286191263498771705999647221008053005071575065398157815218246113252188337688749380662286301993579164229451
43 4 0.010790497459147068641239680106829093556840104337282447880012856840860501591322520889960111024140691508577000955099535820947466051014724632809196882800724445910993258294139964683998067463435290418611215528481408408777940923019980646238789012390077171654388998728062815892644127026267798550603
43 5 -0.00075292603673664507183619683403792971142464604944418211740566992424944475234229162754262999044768820831446212764022086504602805940572607635375724976756183079313381960582121331688726425502617146731219933920648125433355678697610103231843197616514578697029950340498940209455756417860048858987658
43 6 0.033941367198893113253663957097175904671967328475934835272701059668434080278527092151655406971442189070023015622074232778337919320208470669301753547364679246714988534532801254790738429364217075286447295912781822208203968927334941137331768100511279794686692058812887557627372549646377410041997
43 7 -0.026066504184013381706108472017500195865720684209306571471629127680251027156823755742455206680927564013273733153219090953809702823505552713067731966353445872932572412954425670259461745676539499870750618286369087578588005945585886351975985586014593847900913977353731308068567423876071526498658
43 8 -0.006923546273898447152882432807645489533808964264051094203938748645178348952262198386997200760696993627880256614698108907333970985431206981199479193080918659893134634544849887890787500399021395464856147072021230204754486054615636322484124690883097709199802989180225119506884300613203367787557
43 9 0.018123771532728636908629398541380224166303079818274457124557231339906221162810177633494695005864140183953859980619270181550155532248421454697644663657336397723269364353101637887593031479375641081847821192920529563984496567523467250893669581128641970773269933457780855744059358333863039655167
43 10 0.034485927139910299890559628422371256562971903779241636381545939100479252525524289072123866184890460877519823021525880093486468459739068197192593368354710804092766405181545754887027886409205787668620430732547464631288247457516127623299834541743760851944015763668125663398820902995276334261492
44 1 -0.0086475877958546876483521438659785491911277416277659573639673285245390803814489071773430458911833422302491540068111217346535387581002051625206812855382234263401259485181281365424816270307633437795512826836354907862703434158091590319916295099389130635807376503828685173097048418473701631051977
44 2 -0.019929728646955236473368927269306319082913187495923029756268848316852250152399231096000384551435257848439099115922815071087354019444236178332816721024485605784730798197297767296022638838673515457324775079335819105299457286321225089324616150825556565807489857805041005126490531007331682621267
44 3 -6.8493417798970406240869980602152818315679417090954147849326901668409697322675027088627692027921154263334762622138270077100418571873171391416933776627381343873460798567156856043741897967892410640232169031795849993818088926797908049156978641857156212554823754539494600290622808705573072710492e-05
44 4 0.044628735521930198153789544659855624987870796529849864635778226093129239962085415250798633575961156748404167065632681374329769689100555476615181206008578128719964834521049300480502645267898297184527160933351727379662655011600885052688734084164878899010515911925047855825953202401246719673739
44 5 -0.004036010801300831561541212255761243768825205832204725670903648141944240304049467817749182094898378499232971485659298599584319205909793539379120763767460199688600303944431197528628188365039427093520154997271216908091456506260186668419877644453704190145032990678074420628997504107371652810319
44 6 -0.022150625215789644489436678064912581728588287739280831566537861190982859525268473079256650657470151062378452069062044205698559143882712418861890804420115647450593054034506845252752527069903733722300467379718197446392320869534873677968976338724302584518813378002139288332165797508132685588554
44 7 0.038922674034998479089584854791898406642868380475410687668535185060790363840074235548015851602448702272721269127394005083807143563375304087757672999785525721298011697867314358706721452705095709503980830856018436705174318029787579763316322341858976075801976234068301284472171769972560233089276
44 8 0.030751192107932772541229103862134328828740154859899931677675049432578529919686146050212183953685547418943468872871878523308770028833036006173840459533267192289754714211949753744710173484410188749910664082116869774423313544615285825873083593910839099069954755521399048471448112783783712980025
44 9 -0.083613846199860332033577616886003994790346928616326413955976589600948999689385939638690016208767190787411291033769596727556779330530960526092951332868224874332018610942977761641122115597077961471329195400773971538928137269262133353254897559218173631977959118796253150996118902945085184103733
44 10 -0.1020197871440043280883817497467364283876486585015749388189592820038806528993222792524685026727661995136854398993955636150947659201017204884831536546901491185976117171362755022348548175585386082901450725719280405724775951881482875354200082398626510694050993428290981736424485347596745720693
45 1 -0.030899279439765332607165999383759637066195511776154284404732598410240642937782154252844083236613967593438188748645630053589047384991149450898477597942388231382593377079028495913172309975215854268051819524262787403747250456583313129291039306004927834944077727727653888041091004243459868365322
45 2 0.0066954187760126935582401072095576806105137163276834650961647469374361034952240023423580421205512641956154297729784088588116042635808797712363896646562928615498422581919233819915036854702569089398182002955660444238736441131105069890184132913228194084261493245168362471555586239008658238913727
45 3 -0.043985588822083104541973009738366867260388643182367440615654947968610271123597143703801593815431623973283300699428743285357129672582196893999088710567503821383050460607540649040714589891564235443721783054107358309322598436124430254649371096356858930900545747271152549065925007217210223913372
45 4 0.0021507013064709798609377491818013378721628315114009523944715506461543286352549604610266259621488385476624838998158693541746804150288591062642730475296177013673188315462778445903602105957820750172255249333308846969907637383132770393944403323807049225177802595817330577849905695724992221685141
45 5 -0.025722919693516650142475525072763603900476943537140012466284042485672910966921018430161481590619052851295278436864149256416232326413400952951143171466337773575707628704775898905799583479308157222841799182649290387291113947473965313469142427383453206507500139150998632262162321688636943367621
45 6 0.022198015990469047512753756706399301190709461215007930640654078309727665726175210003067441393038648441109644216296677386636419396155679600080024310844217141189865994536234393246613057259152828640390034143306041521227986919917790607517529019461817755715921368130922523117320349604515341921413
45 7 -0.044782416496318587544174935009699142796747986228353760287117318759433004858858269437945352351340021808708730522195512080306882661161867520061037204997588797517191330992987193790358802449282422421308588959133028431782531033413992426008891721577600744250130677726506704706416547672952552573879
45 8 -0.0093671138261327906124223764284553687299752962329712974116619307927423336292145803212450019945368089758505855331042046080321480523038503887595791166265634938774233511989311008882858321955717076386813539390950994835820290397339875090741257633147628892207567236745983685054891431196320162952413
45 9 0.092582798477361584368066214439877983341513345346114462933130291402688561109822737144181054771193468633421701867246348195968979895641977879585346651372907489541396469591280941723899093389584404782374258710830452664147388841199859159314870289154339949320660665129195524193098058338700235581155
45 10 0.06789464559399877609082140314436141591335301983584454952368038706952056460758014855797470775290412749230480025687128351723873211174974438764716454625913696269807984392276890320496950781268455315357057632243335460337666795646958921274031825664891047985435231023009386612461393261802377706291
46 1 -0.035615641295944653455435137665390050470424745851117113080844168476497941091808270370551207502346104447664954315825633017528984652435780157052075872029270840840382354252299556509013919620690558838876027502955531667177075774887447101321207877626741949544743817226732157357935804195904719395195
46 2 0.041829860091179266466120404918023189066035297806900650093015521799112561135658004623383801823518989425123774602205334502782062847538829490427714721761607862601185197393878303033443451032624663861029368539474120148608218263042507668569050451226273012506696005473097562699702521740358103103432
46 3 0.0091477930073970039375210515180122178359490733204045354739908966870196483002660028958071538884802184302064158597982008225532219307346241185794117209436307736362149914579694672288936351373420436476332198399534658187852208729804126272720041088887830000613829305734808882561674632319946328099347
46 4 -0.0041036516626001185390031016936529967051495100472905848781463510584044067640588312354884747638148600680785745321948360253713148482527604817410332292939298373287779868129763435752336364136478801951857969456080455463727426713934354967591253391824500733858109629632259721436531942511722743739353
46 5 0.0085381859655957351936429418033931002765852811431817229711407006830070702722319135447967407159697726551565684890631790008229850989641191733457153020167174399787113569565699739634528230981495100318080762844272571135135332408289076114208405983492824789804113855720757887443629011272652451207592
46 6 0.020266400269747012003700113043952679265769867441838292490545493048715368617446283132654181611240482380342757996010897656895617610399846028006203671589567734808448301813607387167677800887234650236814756212224006280849035878781695677999526296515770788943601242193102922803719167225948714345309
46 7 -0.010980274786007805465259895609056568501637694655383822705508058210804269530746832764570125932947186514126051950625796305510436900788281699957717076310947026801837758712024028050141455778154863208195715799544697967700689075446068137193066849352320554066674557796177010170965551406086634912594
46 8 0.0083994404262484051880425990297353252809411065965146797648746495046748401039129583137485591860814030011908108321711208876365508427309430712216783543665851515280981703727006495500724921566375578887894527966190652584288603981659068428773725882167435584617006826950040859443825302937600531508493
46 9 -0.0088128272192734128759263885457795777909111887401676528209631794834408322149438199223384402790137060879581624800292916856064193699754110123335236856738047471623485200112492530752020426802804352524640053446029975578100896174597685955453927474600157796496445334217852254639729475020487916483166
46 10 -0.0040878263613719335779782986157300055846963762787651453834753418444483932201243547772722988883624109162291227938802283811453442884354736490891729396252858727497845998471401854924558512735176791731618714612217535529983966104079212882771741892118806631047264486757898509830832332137040714697054
47 1 -0.030810550249154415613845012234647410663315043619943886076441151389985367338780427417888976072007120090570133541948274534303386524404882881945815820367283902586766847025645692971004076865886229186244757540152070511999077594737590546113297285384474827498401325440705038934005579045181040005082
47 2 0.028474075914824344923773632671880586326031594045941265637104495557151414451430632771561875428383354608146997658767443000289573646863162723018415661305064444540943487232380738398939689386086331971470828697287944874316565435942799782138894547501337424077623726940779975048063649320987559520303
47 3 -0.019905069685846099919734143998399690052082326525562972624090471228170447206161937866711587007592076806660152912103062106625951132057202559286465133977401424291215202541907552561830841726544145960519816508523807603545583933692352408326924979690231781171759568625740806358470716429274317005848
47 4 0.0026382394718762940005031829916561294910176312489822961668083929144657417477937033804229447581300849149754112693228252213044929155954894185545386302099584722819860589123928047115205757577229390858197873313200488550552773147480958591560584705850910593651921346204922138721396182828433247741752
47 5 -0.0039803163524803842685877400423930023741284226798162367447464033357668056533513178863091667689205195442971501194224915006019152189124646731043258281511673923151443053406038494761945382709216103163998372312938494276054831813950726122964130753732476956408140759442904771616458077209344127165464
47 6 0.018264841660130916377970728964032371617163588705489471625015393940986860838078092679808844599768952497901936480962306908993435651930645083006198549883090660741993980849851659180167348651863163222356094538898913660014755969813046506675418724051740403244583648543534048005046351906832047202723
47 7 -0.028733111488841245699471647019355791582142465825507206103413312650124630870008466010572421894984203436169358969880107224456059500298936777478792124553984236344227440193203428525684702590785241747475349953310019989732211741145692157283720001986469120536221909106210771981807223328668109682039
47 8 -0.0032672544677237799958237369580180759369868992127022439332403998738924277136985605824646051355701663798770525028931969338273636475188477571644000609415929592912784631148328646759043563426836335326324286328363837120047838617373127276518569668012236745639936498132652756852188360892389767393963
47 9 0.035013694424025096365191793892044889366606020939011204402236071279967399333797111781631442639088060235778642511061439521064519666220104831637056699266378368956422023258827808601878967233280683254384651208166618524480537974902897438668322260011000140096799917535252593268225860246199166542515
47 10 0.029688836635378673300197328030863412803402114728935945754024974831945441605049310317057319742503482418349738602888876995424164455418813657081713173826054407921934918410845951446733181001199944903432565522676050696415689562953872695129144883016063359917288931434996620649495500327577439026826
48 1 0.020789512913938385479959919735849045624968239601846689935570101793022349387389106049042128777783585395138141422460241368565195293622397543493707898187136210999390938774787866420983136730868915328643042950770206851094554677661964007975332929318360468020499224424172220795816267494313409174186
48 2 -0.0030106976966112928232777821494746463821876829791700319772439322722213551798401511707863037856396488899648087630865737478118452912597695854627487281783308300203500101014921119133567192992219980998473043980124193198762522022278549101702983594549176352019977127892149552019591826414500547898752
48 3 0.014422903426708256585983272505932990617277007495934302586053662769328523049188140536434724599072862155551240626936560944423378040736681342875743839981479014613728046393461745529273865900136852824264944030234015416205096678285729852676968026024435046352254966532700241309283465377937013363864
48 4 -0.010802666993437876820801945508815695190325979109534669940335193686092689544651824386312790554037649787437115202116925266361820365205787704377313178462365031475573197964516896130877447366742299446299109090381012525288366305814110896915099873220147808310149385212785466344411712112869201628985
48 5 0.0082471418777258984286806924381754637548346585118539006865121118897035410551722004894000031269279926699607226687245506413762032257276441359522855845230413946894325175113259574820520494424279065011439573188033992489059406984781239651176568339393840042184755541770533709210749833837090661405439
48 6 -0.018563872663416301489827761507006962336781110837429608170090972168824841303868105695596977942331114514670802938209823657424364218494834201935459646250393005861328961075643591488380598923978615291322236799692688904997209358244112911401186699365476471732717338793624701434052753992607361002137
48 7 0.02205920471057064586583801226557411661236346476106170485727965397860013355110610810464962522586256619038125920935533536612998283567694209937399957764652067803443307436645680905174149930314857948202259511532274234498341384626288401443118732977387426683207959253402119408488211392707143986908
48 8 0.0013021845960485399419539603529877651062191291580107590737473192953774575720947605855753175402097788287808390133766214457157646679747267288050812287287337462795504523050315497036313966008681294212150977936561228778988502484135681575007451649088615443657079654490192446408787475743275840049038
48 9 -0.021238016769809041187359699696175117964604437502235626865707835888144388850324501064515958440366048875993510044341661776329374374408325376094870779008299137406487830694797177741082970452459905726573387422732980515019739765329922867569022322673598494113759720689014944286199434728901276752499
48 10 -0.016201330605451202860216213705079074712170968700699793460095524024739133602940988860746665278445229651900393267268377111046938228452335621659742440732160796264061850080762994759430056219650556120143799010314859686515655639326260372840646700964691483099872737399229227204973273035705870455656
49 1 -0.010060033734217190281140865582735919900076214052180309300070689661343158618141806674634952627264318047985807209563526089706354224560028719540447628359873059546995757245154642524029341380154209869372693964211402649654911713059009769231370242132792904916529925430915610093867268541193907353226
49 2 -0.020288044599053980532412796590594417567741670832476375405178970078710358058223231850752694142287716392691616528870177699887098880049140889354239354380259713058598203363200180057098661157165996041429322065499429299139317896811226938150470258329219703135296954370959062825808300673248887452952
49 3 -0.014909854297404812864529378828096829236722714909620137299681507352061272565049123834991677528746857129978078712514049522263003843040530294801286494337500644093987067270956872096391239722476374796223580562944691265224596485450709419440541214163016185980674046586588286631472308562347085792296
49 4 0.030434260245795114009007271113993378754303454554094377314487187716505729786912644709182886330664699734200699946548794931063445002272029729221424551780272562209661750123420484321363090991205453417499455586966712838270337538343678521937205667736876082808027209668523209371940579810226476305574
49 5 -0.008918119211091484806514983630087186452874071064295793584245040723634687183726753238525723015605419613804087334626259234451662908901868941196581274683669345281386948759800506556824091551183005065793132438782780143938701880726307512879796101333624478655697339518095417169972909553043356906026
49 6 -0.016622595446074803709240888296253387611182555761365615247491835734823694543129313464722950444967189413803166066683930404499493606975289008736807491475275134582426430688520236589938374370107932406155912434123148485621685287955268621374465090303434500107163040970324960727574570716110273967487
49 7 0.026200055873224210951644226866766364258386534664430188761185586472630836261566317683066603873195660569127367983966738652937825901008157913700434858212877962095674194955172029086350406130781643835050750158292773764368106596077288009252011210999156726576127245588300010498157024519152382217511
49 8 0.023419075142398612700645863058161814778766988017558869539466037905364683269051705100565642915384278276601098638772865665642564604185390348318590274074527578207818963816720798655424258974973712989105777159256371858264196566990645188967666700195434820337076820059986227147665716718328566265431
49 9 -0.028125923019957439973595807619400457642474062158341443317320941160215732439157505194991383850346561493233641452579330187782524602151892053871316088450873578201678687194497650653434993248845679199970564088517083357299979365191447532834430234948908779274953751255475672300355031225250624915001
49 10 -0.058211009233891910461184304354890657844679822137016138528493415877509851512265419025232618436281830706288571139259512796662636621954788865109082143725092871508936682113498852629035930227052357492521666344756113430574078053603480350497367871267790978385392476042150661222658560578617070603435
50 1 -0.020750202648160303440432450377752807581234877456507631160797610759359072802160430110687598471063005429420232803349266863559374433274030348810583515755062086229806488476535117029921637563606774311750335931034887496976418797809916435362562597283017024233503711979933807753932660186044671715147
50 2 0.016508735857060876319062464711785747763093677442134091191212899302596512396837190118755796249641979167270544392401934673086107210425509556914249904802827939070958695767057160751758397060179476154432352269755349526775072495547256917202571278167227753313326368192817407716746596299273003855796
50 3 0.017234604201021913992771541021336017552951486435619600888013702190314413030067246434018480267410080527280966955063039177091232053905640000162324196724332572945300803682968544738559893268158204206857578234588994035627129568138901538887946611405630731201647262573892101667714796393417471440541
50 4 0.026440905699771922752405115438062173534522925810496267975217450925447824087337255682439288298662620085275258668477850210047975817809413885317760173431977370859038374040099653570357497582249865214177586588563762002736735940841276685740957998911167403236238897936742959238524399155338244067994
50 5 -0.0040858867445220154109017284025237133920273376682342204660301591434310207946488485685951185623909853986529359599120895825554881459662152055620941924001253644967890145709424309228411737676219347206932271632281687889054635440611341319748634243782975784910060332897006229818097168906247851229496
50 6 -0.0088441514631138258386195761284443672626758089810518797457261933665303132993909040927739973042962371787073181910882859597792498648680227340071110548110091927401605005794055781410280038051361131743688027240521895825305969831582749911001164083543726519952040306264581087973320658105695502478282
50 7 0.01311332918422690591465236460062685905669010717544418134215558341757177331071100432036539538926976628995840770658413274862619557316766151289919328817830772291895713358299831084386795944251729002138421144621957314451754076187383773572836746498163833681656596996621155159383163996280494502017
50 8 0.018637422765206610193953456459591444409535219738626556203014944163497870962972500481091601913389648716892765708723597650566679308907635526298276473400641637569819244683990364788021484747273046412933023970584180613753800152699698479563643185009402859698219299996644062073016867539028933894708
50 9 -0.099377393257176751313261746105716224231243414669863047109321376676269993264037188598804136287322763045100865251556661923724924637633076035974234228194685476937526437700236805942490990940295696771653682887190148073260549313417851672109234716850399718921083616091275585737053684161608685153941
50 10 -0.093277997016927479727032673376461659411871111817719954467992253270267812886263461753206003882944490913245669774369456163111562766557453643660426586652714617959830439602869817096358054851646378265294159334220164080267622504759475008529903132565756166155008594410263780663744727647606963066818
51 1 0.022794742139759724310543057657119225473030034003791162765730484500505107036845340188318857150960022217330437493913176245485137977655363485873100197124781185222617369267800282319458634806271043571044665266259686412445630666863517625693661285458785358818459566838109023552967904729531855769573
51 2 0.029994311452336171044848353580287795317991063732563906300144607051092838453011227861729551662369181708637633299615363540355789870263331235934904227782282948764334736006005881331813388144876454397299418656671335749001328026935678580610679192809584248667946776765451388406865154950611834298392
51 3 0.038581606742888622838812747832571672766774767139588628728449367821795695995306492565603613968899675817266617141890637949443052101096571277335100898785214589407644447257673247753681967574152840852265251829507273705478862835547486512769426400048087941633167033781270974538647966486287892037951
51 4 -0.027859048260259175265985470921057643354735724540148621485917101693688482085057153253825556324094315403992646670867969074294969490639748426517516709163053977806255471335485105131855157178579387602936667739358560518033553322387550894462115572414986444217213091029923603453796279777307337505288
51 5 0.02642290853232846022567514234903412511480216046759516004560302382897933122084041915197685221758684263914240111835565134495240496217465871639568174698554993554787546874389784092420747837992569725373887227802830771165317453199643730829855619370037722256857559740345141662840946975407734135568
51 6 0.002441344169157732564273824906674192932772869291878121722206339520452513882228986618233607435695801162190487070572679311603444809320432278086953690288915095926109491500166362609669650928421884630545156543982494122206347048840481780101919780717041285932040208080059827571617533652555521355098
51 7 0.0094905652182601378181381060284070497006622035373952100195723023393534826743387211371705469153064657343600824537441479387728848921993743766322180452755336410138031175291089237944722713025443924838902144015025978439026764390143596879702009922985903980190527879713737411130429717078954358392275
51 8 -0.0055966686875572721175946644594931909613470930233776034395484264124827225836673040993471475222867746099944984953813624551988585754991826680702688220327841126323842133935469585189348436862705929652131961288083325618463045734980466259507200692054733537060282556500129254455080812351045994640425
51 9 -0.048305177500188507989588411047228845409580202093567549239009412373239542125958371240269237413795478871037120469986688230205901504390070419316974016093333570699608471423343106411371429779007536459681236445631777173892419125257853844171138842701409974851462664476145395199907392608124837604222
51 10 -0.0097942329842968473380547667161531851205738073733258787961014241110724240388036981996996475984329902212191134888951449001575402603426636528431008931853612149616696103631028061048670249533212811769704999677327342908160444217361620371957698254432182354290872981790433070081670787202891032422933
52 1 0.011029339324432163607832617821328601744943891551651943215861813225388125723112350010002746795990493043893400834892095904399672841206437431010015788606719006760086042920095548457627430391221123259589047412203761464128433318904963231393913637735519121400942977960958216352632967037737167805946
52 2 0.025352895945152429670256230286077638804781466301161877804743613203447033372126185142625932857909113486921482194853701194504093635492245177666536019741676253665685787714861739840991902823628268513722255274492972149487607406710633973976862474079471499996693170514719823160147601815923494926548
52 3 0.027850396190481581717660993965146230380731399212413707308280589347136271052656528950815542428747776886583871935613604754667618813419729686987789481929201670250085343299066924627055627716083505873185542747978816914525507297395097334041926732878444879467415864666483034128104015060840908882884
52 4 -0.020836808608527768614237218734683222243284617825342188232790768384753185461851495847394995383100847533723266821013669748243439303116736740944658631179588670886313073630623150289658876316892749378532711006973227548008401018633626262712439145120619731794465141978802753690468911798638581315542
52 5 0.024628157753029886801082468854542918874442174590447976725701871207459023503543353274137557690792248184764952350965031500967681230036640115867745635027969601555540729004179370766884731048525042243143573397527447159296801404627901429285560662268478972713465973550537385215311289913878924968083
52 6 0.0043670378174108833544317157910064882711542460830256772151509446392846355318976624124126544959311160481413092037821478070408311424987409544351412997904532368132839247959388288680460128875195810751092628123349584245923894526520059179307721530996918374435128362019069413258732426544974998306979
52 7 0.0053772374052265068698958972824078416120942386076118503857650314295254490873921384045096162216747120217327151383509287249749243300183630903153125065814003900527903328159354845837138951876505539528528346408852785212878334395553409630993959077726659175406376693282260577559805600292861254523373
52 8 -0.0036992111625757711051355367129000515319324911797992160622857004472455048140458012336924234518495836167675708432387139468339463886370785238386000977218795637233025183242310812613642726706460986748712779384165484815146337709399117182813431483569276393313061772561333453389464562658486871811547
52 9 -0.019002723295659567073352425611567714890436222666820104697332536150048173994772935584280304377084068016309641126142956040544857562626413263421923013181010188128360642546466562448933918120819201160771007990775195638783126386003412409952683411098850232542140494308121923604016796007982788169193
52 10 0.0076913272138981423158302868017839572774270635884119981362460013547274548451422353843050256396918956053788982362895679388870965410193742685128333653493360892414626827224163252069513935341555588529828826054989102635919590144977789998993670984391375044578757633889365964657543279275738148777446
53 1 -0.025551095677085552843887591815159648562578641467599204821290646377024541816350980932750707115297025506114337349314116734698963796266746496230578486710561707737881022407298737957412560605787262601477317842738615107959295217019720409106597991152814254237950625413913184309870740492548895090613
53 2 -0.012343312887765951588941165101973906024058554192033043798873974859874432823956212673877045225921336285429361538360223623536493988257486087429938064916714542813244785366607463945081907393073321292801443133176408266412142340604250823138447764477406754301538619252903073457452593590972405726029
53 3 -0.03561336477945472299646652311208998145869713935860051288898418935723764600900310166637784053747189970402367105680010467096809486497266086208040792915184328132199508916618697820230820161306801464290075814209211652684562937565799703943298184826970652516980767032837375418289906503389401750701
53 4 0.011952620130231256674226339487300026364427036415489314498005703655565797982576307415440343112558232828039547455186378266818042543981607890708585457104669664931391056244652739980336093538300779489649307829244748160813610169705285318927855129604175928878164085066423038623240526677274186789678
53 5 -0.023039531727954905627442655908049436508849202484574004385927871888515798051568052538787748722425578804388676580826554824152544623287162292030248185624548310471089798366318938587700347141866469868620387119717128059411541626477904059121596685341019088523509894886646148050834413341165934804276
53 6 0.038148392611680182214770136516177158252132338767394515398284019515380220920423406277740739339428191728155363203435764835460512670551298988406665980594420082480950201256518951964407528246729895152514474438085546636996615349384387805515836263635072261235977276183723108421123854685703721924453
53 7 -0.056470817466372069994155809594877214066606695833706103189466239412874134337491499177931171686880517383706957434268109661838747209998781558770696852224735552620739562817872052700917375585489408314195496098275786943667892697384776111489814937607745546021908045452529799846297031816426903653404
53 8 -0.016771783605590743662263017095114966555397580678141242553423020165280244782789457326172173987352133585613337379009814265879664159949586888279555158104606290905194836160196077325896412217670712778034569769871096912170047256837286781704276787870176341702297283214778886149906104353191825413139
53 9 0.084863088669168440393538891541317552403781158523598279522759070501002627384642191771100518324338900115056963774214779649200975248266392094849688501664638499087026655130123864198920458680769468168054862394883799643302380233905370957049488935520345988724585397644011725797776059106759653910132
53 10 0.081533424842932578067525224845458588008002714597693311216336138150068954150090931612558039162187622950206600118695066545499567099154488091345214160935176158565877878059610774013547876708839147933911290152269251473941775215300390699436016432522425817967383414511557772703410297328377740712799
54 1 -0.016245839795783137823804510460373882572224117242897102052016918619645207692517746565821806673577615873603964889400288807494157100341023121546130059141860241339580223545072695297475228762430310119917521664399805523463034031838236173407012149818366279989974563548467102693286758648734767524209
54 2 -0.026403760474205296511502337480007769731741507006377492226832357538079383009758094098117383672365579872756820631394695766265882366347009807833926652366680493342561089411366610422484415907264128935602009453764080095129330750068740130595195435281245886362509612961296426560391121321301871465609
54 3 -0.022493924165423367092860813672669168392935269974856709800087603154894212934692091546725780851222933744404937356186850059463013595747983136822294630437837296281501519162030143282888685504179466832260668465574128303953616259169780226343751327436480443540827210483039424581575308189241740452835
54 4 0.033200850970552806770926699603746509015249713126441899570294024802952753753995046758958562858337739791420177362609001912049738781015039772583089387832833138323983115866479019046048731752342024846585149822089129869473896209714479490568576648863307656418934913010896044814397650803630643824828
54 5 -0.02089863481534893489173052254781382511231999543836495731853868123123430381060305077931379143868968266833388199192997834287997019836477254880948501214365669117776279097497420267508978163711946058293649210449841233936039785357889329856416789559415609921596697841089653133447872609777561181532
54 6 -0.021035284192079251450430003327591756611536269918922577322353839640876399809808725860404149045504404099918827925697452843410510566092207159235324659685637455820799620450307697766500394087576687945789588780873815202874025081574685502428815992830151619514846490846625530011760802543868221880087
54 7 0.013777375615319708619163607429884824874403269447432805574949778641631009342548103956528062838673173092516512909744048784590537492374283377931412178593795923243365185425648098990449655558864051273369154919898170699634619899994811165325007206010381860196528749855869628754744014069651344367531
54 8 0.017584870594760472224104040128933426954496234129379746437633597742919645367094595873749623316557174696827162958247591561855265740889837729319858592346507510135212730997559400350375139652640576777237479346446988678643709071905802810092579346182497787040184161076318247921883069917350657771768
54 9 -0.0022201181479766717361346881026610397553901417708998265988588539393113978788593393690274811607050293252296243490341576429202709693630314250204798942116301433785745600474308092235261975167700926046793458849661235162807136534609194212341047312716297750456560613727001458803440200883129348698945
54 10 -0.040049907931268145766175915580566792657513128950932055965207060279055475074532704860692517256587943567568062458757302896637848244877382639402183825547490913878348850669064576313312372557685101547243580012478584301922798517789794252719330985985145474855417312651083539040373792657034504682548
55 1 -0.00061624342471524774663337313109626989608694027771268047427555489537261324159916404812416405789142367117142723200822013754748121115573437826635206298492182112531639170861006620429802825490498052435927669386028741084540351148302302098862582741246657553375281488722167179431189488020612540393417
55 2 0.049505907126044709735279389161531089303801669543403303724420014853568301114399176477202141677332082838038279497853087654927708306433178577148756168887905849230123229889948122521668236869754051956970440926101720871492586735266155478795061218747287310026463222222070527672643644400498654593327
55 3 0.057420890762790884220176861764973098935230129864823785104153370165551784318657104298134102211472029692020678724848532965203163401292439155196710012775034154959108015192102432876279841744713270091999445863198452472794588695042722135210033146078944331786992987541648458418352316960523803020063
55 4 -0.012073854719486216777238578637747253219272737693748032387756633662801053610948287325917834570808220811147743759231189709353406964910311332768522092250512653967417392125297085286877328937631532855018603697191445388146121669952433878967171913169253993897225342349598406258193573074107742285605
55 5 0.02616734900697235916997263902122594593351147799168588002870975278881971862387878753049954789817730570797632369040399596281688188581482043507075902858241969074855889372788330857070512266808558567301499542779504669289974300663526044917009970034139531248296784377351787401264161862185644727193
55 6 -0.016611249179478383343126568959966373991987349053338229254832971443894902947550611160533513404846808998061501689613443286273688360765891507023477546956233747390185039852103989911633039154255622710130397909805078195539965561858421517298803795735764023600406145025095329880550356135963999705571
55 7 0.026495842512774098759784150948139153891482570031400983595457299111306110749557061495719834485040173364235752467561512486837258385980521447536694589880514978054246893376053228173211990789340973281364007481203538071105583421573941095305320214435206136286292524774688035092620799793277318512527
55 8 0.0094515317436829519334894575699674140182060578568315398980610121845807846533595770585142092139592555528711759174782740542984282021566750962843543244678109919521369489013570758505069080287321162800907604532372323450150898399569285842847191846197763899897576956496577667475579154872525593638273
55 9 -0.11544804004448032492204998181461451974336731257213556353938216931767288993614397823317291420958146458353716708927643838331333718157195282149865106242330388632382538653456871619607044601704374215969369813793632635802524079182189715741118771179082247663766249860563185995663542540665219536963
55 10 -0.080345298713088061974141932861260797365194166167640547736109952585914612980734352538298347434166504215399191037270291309024014932966450142402256644823920819501627738525187633481095583480747982382085928272797256112594851209560690628780558923762688330498384666806531593294110092191817891515323
56 1 0.025151532772420902022578413460750595122786501841294706029315021943716756709615951380529518976359987310881969441366787939685464418801046397377423659402683550774864738290791557138724650566520197336830256879569368160410107157418000861537346831783191531141026029676706795937767208003039453683231
56 2 0.057230606498351035858548246858447891618150439951029505752724406370448905957437123832155272492582527743535125325696434881604143229819502539862144213370631837747019629225609944705717250885900868400293705401233932155763739042369524347481157679973345473317266161188494473680879650544320066837119
56 3 0.06557766824440088603311821070724706955575899487755057620377811898339246490087330539882411379902891990138477951245853480263725517004034172899026080240594482685118847620092433038381459493106346899086845575510109609516939268176885193793315105706897799936557818619109878238952745271470175306848
56 4 -0.04541892147626027730429369553231176458667793590175260205169069300331762784225401345805762743516217918046291832929368955014177843732050125774189107215430452503766012238197740099370466580850202411164733518570283122391073195317202621956931268846748707376781266376815132894879963473024069918085
56 5 0.035055902193949857402472985024442223771850423058071955949590382528545081398105526643007098876397629249929641195715803206930501354522872957179158315690255852539147719698387003762841240599729870271587615612837948651690123792754717180504894531810001646517461355466158326963466920586332972250578
56 6 -0.008602244096115577658985170852409391762012598099409544705095479092980668221152808806437695947619549527118608256773146701030893706197827266771258428035748909643626240766128042406338372107989972711759978167530169886081375278780035220375018209044003938060840679163258612328149164088832782035944
56 7 0.015580610793400119634754668999504196194289585558101659561690987028166906420357039747065219966643660693429957179921469076916637674109269059551313966002071835834675273796919499572039594471365827681200198191773912660719830196422324119280586147806613879044022817862082901606274082218009533357505
56 8 -0.0087438377263810857246017358433783319069904531782084877341939874601360618021443122193909442297115350599558091111558114518513314030056892179498664134585992688327060449353590210409082932945536568366912409958977055091703805245185465678882861631114098708830595184155934347373675423182813311357506
56 9 -0.083369516039172717205717945101015432684621186447672869094204063224693633232464650019240312047324445149135422964340588571929178704817658767628455696521192279343744706800631217910464626689368752784644156233805660135837519774083888114053105098275932988802561766435371378608853314309656552339708
56 10 -0.028355835347009842013161664145300603046865498098575441100598429442886561063402582765433340483992356582680634782039426110794653862013782125280734090329854979099720211188880786392892848011489072696731063829880552616483195006303808074881067921134131315096699781205266733290093146742849373927335
57 1 0.043898162486682240788609029261209459296206809817562789843122623168662878479985976321542495767168987101513402253935510334075577117074557976177560301267182825374475806841367271728531167432263347381412822001995303014442948952838233375116047687567341542630111676085221943247464151674540962805655
57 2 0.041626937499229135420285765898166655010883681077663809638159398329674406694227435566239010564098374901880908324699078439262393284060822362430158470740596795925522423556233240077465977739172462073855004679195960167268438616964438378837124981375088550174277184380914188605216669452161627747396
57 3 0.075346389014521143620171783538549110176677920286543354722404712799525348553755205427032059295493570793217304055448868693588123939631750391214998137331394765872249514540550318435233495972207621849348559097542057564501948279887112901581988632577611058424090747186597336603272384216472014075373
57 4 -0.046095719350538531925650549577750573280641627145126353105358312662968018792637395493659787754026582838419693511054537009460684093905831183209816591385988858683458119670111113795791836812593573859082864498317007868729711679164248356203438718468296975036925428364195352734202187512589686989525
57 5 0.051117386965896231943047346255136650775008835621064412023586762701235777385073518256900303596623664349479535235578715873790948028220577690432230529849401984023381858438505566071628474886242770384016060242028011702258692412119725169663692754621603578540846777550131559741670438303475730359384
57 6 0.0015085019503839601473918177563019478275556749103318909128741120845032501330128998294198134747013271319879774352522794737668910827921656412814301351174994234733096933449259382715817985196951635646579173523784319788959195030245317179682592485690610476732525109593810898449260858840977614543123
57 7 0.03144209355581542557854503027506482879774620359792934699203098794221086344138392229611000064528448519887162236021848447757961203971091069321436579113467408082703197007149591449308310405629445736500653380580042358041355119486142026502600998856992014306323295079642154523936612180966079066972
57 8 -0.0055143242333492310901180336679952677096322357131401181080490571696889932986741069944816698040923835180553537536194335465053597457240295539038751548185204141899664359537056446523209779278526808765850252626364871194137923961165313199952241055431981909429415150095630146566397865725167267676661
57 9 -0.1064407981428659297052593643269013737289802216042104743308839161977882997639414730339380229310708125797727832055648387432408636211217261681954915863534752127884607932851004355797433638722324949248402084793054757623040893631217935433871079971865867809802311246590511084522259089702246614952
57 10 -0.036266184949952900291377340073553829418017112833246743129928029574810385910971348085684284690537872976844593568926041687528610808405223970844658847464219154594676802814719381696693057562064261988887758410098756268606045432842451453501626298739235753672185226158469805154448157662936686148011
58 1 -0.023976041992821091337466958805333597349123076800247059647542645481958391610845491092320350035166547071720569306790217106175451352371430799069878508186285828303964976421204333913323929109069554895737042666480901774456201763614453952498411369267466537243484715321496649101182744296625320986928
58 2 0.008078259944255101683241426948340921084409299427067552751103821265192860177155992126440836154580266372802909734498783829674106806774348132205801905457179799229651387992940264908264561956617776653256343643068486202223554095026566497354733430934803749124727537109233435718145691561034544844909
58 3 0.023188969753832071005147913542418999790432363114079110151121593292720105035328413359654121174322506332612893328931233053385166295523067010184135182051330454514123214554769305665188036892035834291676679657226811555902654469028354507042996218314430038147100568673901031612518331408796489297863
58 4 0.026183202842812992410329613890797071985364458766641849447205923493059456650998460978426889082231990858571708122636160773104713374257177514634082121537844193516253747151631266266631886833181180525605593072747636800474796837441687047557385346546184117569657833908529205645099010587462064929801
58 5 0.0013145477968804679126168419053982318747481721849665068050390654817415807449387843302577403247990977825559314725455380823110244046575043396940953087592074035596628627865384743432972300487080206571051395496167250469963396937392496189067530797287493259633425918107586928507839555456104134287256
58 6 -0.0036234639255031836347120505587923850007774033861773990718248329966963407846738704865957468869917479846961928907800019318791567292439536756631628747864493412903093676916406965461426787275424013625961145082278015002727128619934245632554730495946141367567545502375909221302740556608718943706752
58 7 0.015439851818021668992933243335341060328655057231193616323270519834449288464036319238118067980736138173631259543461691384149888990372706797500228006067254140150222417154029941046444741268160597150645507705234040036172865528028656923219190751429783854285680083875867706815092622124324117201008
58 8 0.022235301522813776278651484775348202104440758866999994633763091311045241421035257846976531414693963653856542968736578495883269461082248176402193988672868514715911585397820022136068604171758200400922756877730407368389886809493624257554725429410997009196044888463540856814186734015945752826347
58 9 -0.084018336926913074318861862051373910918556986798095949124273653726428470555959561271368502335819775391393541132599049944090133001238787536593586476753116125511467474761373713651586586729735007371815114756538932060873930407868811471441270685477712840536514673322657134732055101898313728374897
58 10 -0.077193082993976790841107470286609616017812875673789404148184460455312914772349128866109205683882122121785734919942755667580067894809291860535800656833524159426732242362883720544894749103105166955026975413759069347351779505533951811138898767994451379764627134277567493137798615844238851551691
59 1 0.0066326000157230498467592527813017603282663670003262978193034975018215535349298368599870786840770855997877402881298991796804475667539986375304264544375364488285870243570781672612632657922275863596281137170410349365809195685968709110966817659472907601261793989584039335092129830237233114944735
59 2 -0.021134636587892843195270092445443739284100995433789554221408719317153881675314671107703606312945384001235095290293522753671415417827715361668516931355173221380678434882773145423879482214408894404736855015178973801956821567931012112870903951125167542357830750393326698637076423464468681979376
59 3 -0.0012472358851004572828156820592046345373709822516284952158857862264423314594636774803659828296555742930601329518993644090006667261821078292671729451036009595112691590862778100883195098374595216743608260930107446898455153287013612533176233012894286557970684950068779714964624102515682509151337
59 4 0.0096787066038442399813127104665091082425980607670799248693704086199944163974391175034115827989428103779277984446541067258649687791270011435391776010440841722144800266491778502076233936970730104746139926941407066023681663553330797037548557562422893369804817696986438580975512953080693439608009
59 5 0.0061441789435404344824575929172133240276939929506079227858206185105464987911529219805744207646589217187529884113098688949739841581959348952068724819342155211439619130080879814552383130945192997839528677130790401184591502223316690383545685428190122929884606823929251387565425383458330525018052
59 6 0.011558646503737704043668947575827638521655967313608988923772794706090736744606781454972875078460322797723582874088369153798568782446887972186777530587261433399324470957577541651653310492675436829086895935654193425331353798690313648101494459443172325225813393419908386676187840483375784981245
59 7 0.0021571635919663734429986781229120179086999272023330712236684112904914676521483465758523164467288005476339444317014978160587402509096704517922846357657063896594016140517337700981336069476846537575383974995615469626997680901375634571936313391528505743519983003874287581065834645507917214292076
59 8 -0.00014478912346046507906187005726222908105826450195993537220287198843714825100714767158962096771659789953148089721314290680130835456650420817243499830674680898726680179667841524623904781535364803928876791607748193332451068143577788082316991945051879405542409184327377054682446072571756191468607
59 9 -0.0022112032449150327564150633574070195287522833807944363706708158805191001899393236288121443901121012396035659613055955103550011361409436990850575021048352438660308411806327067800513146256495751012459755938087572773873119971367868474106570159265615785264078512432449070057280745203738364367667
59 10 0.0030485697955246249358701816239072418970392894437572502939215515340466722403283852092295170845589014119242604757226661402430768455282494188645424929568954160480991939900119612391904586442669133121173146015636580226479994251945651659581825387234131389019880361976575473561988567522488617572941
60 1 -0.036978027656862871167449255363818991929594689230710379933917573959589271971657903338206075277652185031291463781614013092583472640848899046871684349254314995430272759829467516161765598430651961715307998413268759912087077680504707411845394963425370966497514205102589058898738615513177803590479
60 2 -0.0071834426632302281919707375954804623243614837756962761265750701816320222770745983973453773610705901341822391312468294189618991995122082100688110869712204836116835546383550691599589452736311587880117462437845390482033347694027831771863179965860915864486830701269564581327613331443671091239575
60 3 -0.059246874458540679745808503613248307244224012888124430733218106743787615923792653694716324170623873965194502618466682501084813183046290863091651138167190381708613459383561081546631709509340703682840384286564883601532094802231314261006301466702668635898500431079139415658010860195672538150842
60 4 0.0031964816289663565387797595566808824507422056490167833292996044092968800474742864080310999784784537196102830886662429513026593705125395621055226352642148215909332757741938009915648271630651125337386933525436543792713825729282222882788173366111289363660276961677364960311466430962473923597236
60 5 -0.020396026939219699341205596443364440007176370272618059054205976179276551530166793999721071910137443835900733359687484417381888316137132281193108134326336244695596277237981627054300549127052863021988586555442126488760651428078467048064704396068507343466042267489263284960158747154156424530908
60 6 0.04030212406127033479822590219178153997656209813691534529267052538655837084111820899152669287370866499888670644437454925844247364194402260327558149127147413418056908196359790730344541583814830394644374577836939161106497245553620678443788366698024274886261226863333950370173975697317764728013
60 7 -0.054613202555885517599384340995546683324212623477230360021791895984900543790862161762242215228205669947919013992739951865145703144199430804788438618515361374129741270930397380393128275851083946449009443886668238448976154356181371003528408899374830921847378788162304829436406876221353187321127
60 8 -0.015510231885765027046968188227767419888141676283910468640049029716794997082614235073828720574750494505590234358802140817087193696920722224447243291748533929451980518276525074935205009940509289831897445938203176149757456025361390126076096815557991999490498129905999097857857614171609168395593
60 9 0.14231034592973083012460951338754457800884086236114111706174416817980606308153595890739752243035104284792048342827797077608814882833655744469751678565054024951597459197015089110083272488040929057316869198732322754705914641883575120546543133043367431549384902721040796439195072817425676479908
60 10 0.11198326162945783237831711721924286761023736602871517811922190339018695970454013921113898390019330527326592695838270230399444339142606666576683189357018959030817721100642455233707291258102947541315115667003133919021480502477096580198415367869840407789121716176030673071246178187979869234659
61 1 -0.028390121096386198173765281153593274695671804490908874960858920176382296896176291131918621343554663867521231979205330341968712441493018241171519225007242685312867729290941679969371428158329269871243531918793107898551285006749428113302142668637625024136431939514041818625526925792498324507063
61 2 0.041408411231811868794021859616050237294162350721679608285903791429560866535872788324253785858673217918897311652822919136392020577191851250156793909036984307097996304221530685784433290777206505143862749642703342679001553663274817560708001898523688902199854717494092139384916254170162936628293
61 3 0.011047132343338361557421517696265518159383672328996128038487119933993915680114472755162538293097637819543206956185241936112287929285333054358798072493137198982900075129123388323986989482173773685769024324521194975244898710357775578785996436718114438144034066607015388768039486736207971105905
61 4 0.011997498688412732889221693563988210413219489739262309016748994071586536176801322388861817379569435224189169118157941482303292072994156514079969519673138577892720016097247576301013337213312190758704507133421240533701863692907752512454190922024456620825752928981376483575397768231641420154127
61 5 0.0087740516678876341786713453939479037087900766078420076032692527536449834778748564552398382093338258294549601439609368421990049486978467708314885313151778571418162613899263307858317568424938730841476020069532306615766486795727402734215702868417720491277619184103249734654467494379176873437529
61 6 -0.037402083956473503082527050515592833979487792098558218087617894474180454975218507968211704879808515959502817114010696165070585065958306850909032292378129844986686945485125994017964521196312991911343092257204903687424753105204483650728865462963922558489997246652386340613276903430381360433062
61 7 0.031690746317475099666152355781766510857501932103938757293890958587342155382222045232428207839907906855826996500907999772758089687775954243132775859348452764579254865780317921449027961708017599359239157423663394745652305138104892534050761672799417537823751163106038018159984090417937320808979
61 8 0.024774629576851830778285017430592246391294851541758736667460376079729925612700134331537670458690420954637718112334163200811644208190834638171801358778069341415902636899850968723856914311461524504790773359404114938168144142496126403932877055880378716431824335100023550128778955033481757140223
61 9 -0.053003478357184818698799015349662898836643966371650172306730206360409713334055435729137654911365879930592294560530132333567378612526148809307069409696017860592560960698899936276207971428480377760267374654501065520346735359936487123710514960762618381454475140160713086170883174467905894960745
61 10 -0.074658264676804320959426412167313218666926004100591010138416528530805917707394419753362713389273170953854581307799604521938061806655354862424016432615091587184694502196035899544252321397811343160682224844952402640084777129743252892770395902031330192122418440220531798696615999061402557642684
62 1 -0.040677809161319140024420716509121529418867694897408618446263908354781360443652797962596391078812697161038123768813557565480596244297412952906233482036462453964247071393967521480013637434794561083298859358480286255538301597969087592812409165318703230133737039442031237572407759976180954681904
62 2 0.037365205933770928371552290723053050053517336536860950076544370290464848873339014979164498299900941099653892139018656271204101839265302610980571848207566448244677809849551830570437947393350951046060971019609383763267111844752947737413395557665576189259564160916675842779162755881032790767559
62 3 -0.028563860075987060597770995147206507447855503069947554950845428473276796664961065275070156374585355979660033531552143016676359070080022909455613915128352847043811266204150077667513781746888342747689753421857343127152355173675560505475464925288084315233307989756188396700040475908725782871272
62 4 -0.0071727063111096521378168908513205697423201884481112035185798287377468380590517675134400484741701795413736135866677153569526213163842701366220905514548160959204753174802626248179694010285500227964045568223073500188939123073861251201219008257743635739749687334624977972457417407516658594462797
62 5 -0.0073008945130471464809484575521336135816830157565194944838682760958334349902101830998853574060011266158974321657049573961594183087045283304392517274823652539089243157052866242100759662873147712689080365143895393659489458939137923924653801179965068524096030064771201611259728341205826870020725
62 6 0.026927844837702926306994818360507767997099271617069237125995756197439009165426492154882438679503547892298550520677851852608577153054120171062074654686416492077817075046146500938944973129976369968155773444140617635224476377218842474326665765765813047522732851071192060945412096166429326562223
62 7 -0.048272593786865445844582220483340579186495377759113562793311384490617173236339019064999203249087349297203738860135854683010032708931615649386530070063989115964351246100927583845449825801094454099135461729598331891608966890275287956526085987452379437408290278942195107320107343363439703393422
62 8 -0.014559380374705077470277999984843130334485622857304697133145140810032534125957429316637904974226426565991508663227828701290803129786291413524191604131837091054587073742104800187497423355067765503155809011611649199075642684491232252661643910982396095807032075585203122481694454634297880447953
62 9 0.079050949638568044135659659606025618643255477708612068427947113246968911828283773380623667817038658773864157061064517193674242166540784330942876204709984566432306718585315544311347686595654749889976535579015659733665170145316428710959086149117048896406899309390834134691061960491772306184713
62 10 0.070527194875575413280898174462632262180146900949806563795871130564475660804760716228404830186205116526692918670879212441591009709019834882337760875034989295500528718645552663123643457108344557812359456672590046836281004806240818665715936910942031773531628202612897007972531093372992644380862
63 1 0.0070085878818782937888446557417226131920171645328335596373978959302340652784136027284116607362513965382926091474865536996234009667233718632384311236845135211506348599761859549069101371563929151604673665977528343212790642000001052449178275674529612224350020609556536496889920368419765232250982
63 2 -0.00025571063156656757504805231891494866510177263321039899542410109940382086875253842151397192863585651799002974025494995784559358639360430822755101626195584129275010065210111081253612884461723227134461460436380101764514751375904764463204430046499639739507359955768717552471249463260393345153987
63 3 -0.017233534026521148113682926865134398846267848680094339527184121697546858559704985054027791393968854494749734998332318744915186912267691702916341166007957684473289124738953025359391015269844719145828959971101218669372022347257809376618880681219019463160214527400821542841732848468194681767667
63 4 -0.011288546129573353067899018222831762910597170735557827459379593635076056481768604495705910594014826201073064090805645249373474862910616012528863081345936687386108637160164744239370039217436647533194577619765778656619446454634657969860648727363033492157250297884330058945128219224486737457387
63 5 -0.0013588066550424346495974229441659941226091454427774842415996757416154197330021606789560786478758776748541591470299233000633415452058571248002854048466836971973321889227925896559325565183475845368409415758798792011263676124576227136015555108572416162533068131659445373667138556336383828223878
63 6 0.0069780491463458291465534166626771026983195099959443108637235764277878658413151575864426020531535888123199741923228048995685903068098783834928358696768181153179834801990118561580258413763124855306387443414674785423818806772674109829931448863279350611933477796861210114920000935946766547534225
63 7 -0.009549611204332717894277854076302431192466894037313614710660406914226333151579508453026751074461364228158815658360271376643881327632191592039983692974354972097806941454111890330805770617828533302811502564601300435083862652611551831097853935526194187775361498754489662558678864417860719298682
63 8 -0.0077013584676645637541584220821208879594322281580656091585133031806970625781421121724627641358426284859062497117094190795110845307692436779974023345881597858135976324541146673396779215209903707185758810659858045881314070153949236337792225647358701048631990776402589842358025195860328364575219
63 9 0.043470978265549126684493181549935085942928151071938526879019925554207135132094354650118470995312313617712790411387557627599246526652698186274875363596639700738209376096065481883010461702326122121856417461089133354083742473688854011616095636304561717691429186497556737743030181513440884831364
63 10 0.03880495649926640171379684611207290634951981490871321076705086033996313456273092764677822303363114051162615007893798438699015459006517425493475250805206065940087698285826509120547349210176398150884493017918417880338644872202674615258055440034064323592572948608376738109437637115812925787409
64 1 -0.018436718248668492585442129283681642776940162111549328038634194598584244684703586691891312956751251311433508420020839933058591256284904092893181605320434134882135812993376329050075550957439277582827233078173226749585882928390060209866480679779622059341252641236688245239687964018069848423859
64 2 -0.063569394504287809704747792001373964599587531978444902860295532148781321383269010133777206698063874925118831708803924032896143251944255356551214578164248433821754888934685888574703068620630198245159092361914679871558326290686959069841826031832635815590833815419406446153349641277345706317079
64 3 -0.052758697480016994810027736632067617683313655682849217600184890530785623447330922419908553582734493089191991896265581728385222149019403172852480646894757522359209250580519997353923955754484200397144842111790477562669272146520677049651306913674317537277270725805176470115904563511998198393193
64 4 0.038871701792063423537400917396398308667641934621741784069790767741127770810370285649795813690037834402901043921410018020333102607594592113700300878001760692207438089160360621200406151032072341459504757417010035929210164105217844856952956379635555524486290962411106873390718208110068585622422
64 5 -0.032242730677878193085792127646308427977162967926187098563056483294191180824660692671768095358007233421585392647041411034232490302078271766444647694236964661005754441658731887820354583725516974798113853792530012251197944593948657441142229899256450316888961446242429339895693935481998189810766
64 6 0.020441575409796957188790583843835074249043693159289161558995745083966763373665842651670780490452583049942148489232353337939918136859898728321576234573587113589634689798480105467161385384578014321332382940542099215721112395989223833802960674142019212465814506914836967888025381984907932976627
64 7 -0.027214713103488810221530738757633426806198354161794965037153383936778791320713030451731882474213233951358455452696032344380463953493869980980370903479601269510214395447649685699064499930626811336269111095024869702031644372186277348637617718162701184569685759418425459124234239016307147973255
64 8 -0.0007440552692536344108991895804524697531524899921091854652732405061359140911319035375147511763531980532243249220526694646811563393938702837769110271464004209807927283916548014088712666239560878112727526669220778165477279539831153563748987035420472147236561483466975253073118575707790382720626
64 9 0.08589292147054359449437395823807479361468770926101625081023449075461560604558693307549869919599980896376569899058014555628353740681823991159617677050591336199797987301134078474369746674782742639595430952741216816871830864018181961170888490341561075017421550232024239040850543530572227241221
64 10 0.047519964761554250656581968042888821574734715314767702591049028275203732585530605135135261310068140528282799462749629077152080144967188275160600772974470059320227958639739165610172996043171337019968724913022942118686290870497983440658726014561997221800193486698190223823962663642695323232722
65 1 -0.0059858403370881834469062323057069567715004822996871922562581189469575266534968105356840956211712875556959695192365578771634717571669197943364813869689529199799745126327669646214447150198971371829616938676421700701375959506965081385001017610851076425086070922855240242104100725116830957135988
65 2 0.0062082711471132665132415894277006625208102407251441855973339846085098395515448774774463476366799437272104544148028376160234677903468006464274496524218308825753155105475804893943395353848701866839667288233503435068043839867514994690102214679476807754707443361230776135424953948851401214198763
65 3 0.017905801940991227725512849799705218349750857330972098492822919692024019820578228652778247477589735312148610607762863155929918104889841544694208579722660706908390055394475972834405610288314512192714303643253485747338594616440487608247553942044104083325114339422992548032059268403509202716127
65 4 0.0083387458935259292010258877844721468389710772574747904892368704616958321732378277228501512844539378759331996951977758911018548946592297636176642699032001753496224660485950476261576162551140314341220369165809248936167805600088162201609198136233607867069802511007907471543157570937032380244462
65 5 0.0042357153511354551301098137458633988041509037686119881366075761811030053686220231421464745995603801097850504172074643589172538792389395917869027281016066579293120334195832232164513728789611269105716006821148610680150501558409885014743844316313227366631769763816371846866022156205549904757692
65 6 -0.012775821638415813993890809309049192474589458768172035821553023665893183205808352012082862280958293832425828697910380450389884457015480668997944573208770857463501163666674360466078292552177529721303244302554386386117286608353452874960400802055816253097742840851496801596165921423487999993392
65 7 0.021682590609922524344443720941526736676748566674708828242874348063070436910961114103695930862381405214826385354660626920865153927732755342070507005142161223709631982714436024891833946210577665295291283824450763564903071146591775454620768811476851011259269670314730867600995264073504041511841
65 8 0.013661040351207465421117115220298686336422939471103286549694894480840235972446380239447476450840570595976228682609791889991199940095742858148063904517867638256226670628906571090310908626865329261016440054145870204070528662900794762120322572196581488008307515639185436961896343406040584114906
65 9 -0.053874996921007803519558312225812945086926259948390153440568331616044620426723155326682988544315959236499180126146649144042352561777912919714418930973796257501421896444038964815004566704755648643673318676006348545224428819051333895712846847349743430283786203478366834774963868215082702611623
65 10 -0.054634751118773527407614098181298517679834820000791334404373360235242271949676766841125637560844824610101381581253286067277617837858750107594100996016615671481194222986347470835825734969390452805217151317177050105254472661432681720597629182856280537399476461211205773983955613352636978951556
66 1 0.004782882195427638263335840052791042331610647057170714573782181997800505931686880741901550693751029207184644247828155823162591951075899595182938797674188078366951065510088357658297587651767133360265703702791538271455752605750385468696266400286074013484581623734047613984438068448123029691654
66 2 0.04163619947486117368214255234774690791603364783154309474468182527166819201174229316966710799890049527043359425551718287228626118543247318133503860214737121126383064866336747269606451081456947864979875796901122338360549205038338284201427882204381556348907810926916049048448657786333508815668
66 3 0.020899788955293157835354238422107236554783233313125394256581714348187765313077828806544365320223331817923522300598245148697053329491744008429442653698283442562079521503460965351589916975220686618389545822280415311860978669479499393470452995292548352031757799214896616997147869695131074301605
66 4 -0.022812094587434160572449047733278545056845803643702964255436800399096030985028517452970004746520684578181874581939247860647943210856602609656042872570134812284764671557333432437322470239498863012938468161880192788791973011971241065623735934350746454465486350694268285880888606043358662327463
66 5 0.015775873273305691917436457274817738712048325308146168410710763508854744181320649726543976074129773656655107082637127630564651090991155601786473920376870752146285856781569156171507551425191607833831337330905381210384003687555790920083528584325458153471373293271266110804027507600909754192019
66 6 -0.011430417810947369365190641467490593112476837351316734318283410242137339516742647376330572441030607862991634062432939749040482819355792551082724542582816653979981995661994917054920526425621828062479603114628016428112984527817716496479621490855867850395489404109047693971649496166938779982167
66 7 0.01277755553498469502902987028234741808293761019024277790249905156657031200354111867051596878383614557352131574387655902438886895195852028569070465647251410242418742535652442094709420912889198708400548003686364808642791684931976823922834109581694315442898920793742108165426299041649465874581
66 8 0.0021690124476311665484536179039257122660588857326674617524289311312979837353953246189425604487424629110200231547874512246941122216201995796947760688974045636127389559608846102649028460753214407143835764562702541456629346466634930737043458775779458110551022155717121281301089730623313740797969
66 9 -0.034902871563238133256459183712303810411935579488999351319098294635917122005440676330919855945559791266182200438305816137540582884990010297911298318117910542148618703342884997276724832966504201811776005431832955488356778283770049048751385232469081460087908525792327462240071588039151397432494
66 10 -0.020833900149655931995714651488956406838419731245257664745004220970271760596078605360210037323864299563392906446002473675618724545389642400897682960976555000690690910805719085216405600784698368709306978375698637720268202466571568437617523469768753116097852473543522812488032321661366914873511
67 1 -0.014349628105692782412740597280378565516994435309924293299798440467399934561201602907459814933776822792656870911187466428755783304827904660097959790538679133157819425163157485855491878281728907621689856944396998370269891037042842421267515329945797484263317957834641758348364242763377232344445
67 2 0.0058557906728772558727752162837470320622356373441886776664216702799077800884638655913370563723598104436306288631040863156258562430826162309846015589379748719973387779823519963999658378498380309192324704870830906733369135135083243094761127778423483875439448171180141091244051609072781291841111
67 3 0.015721177122790244913609530752045951645976546328763377487350980979633243059254318119776010575075583023057411380107928189129850854000338684454103284515352753431536227724067677997864443326628072327606180720766948790085849459684328115605752487570427350808005015931787295888866089975025222765311
67 4 0.029270116492054102082785508818616200879012065365649489998367149432920626701286229684793268211505446339598528752243099040461782600189999422702386534700306040142110161819518270878722697162182604551378804331544040260451279670726095293513881003148712258760388485678020752763736204359258988375997
67 5 -0.0071554650750556577343217035009197435791676509139637151914681209027213008655130076696965014081430480186897120272162738149303510494770682858069039807948246102762394566001507842246275717928050670568606279697336690818269009773037149205331545850792443742544042090135353362715978120054550080725699
67 6 -0.0057615395421561166883017803326525371589469615060576951641923764547472359822813047854865872078380716606940822425161708075030982043566145167870967067301278366153257054421178011843167130086928011916031017836750296284103011596449238502963857403492835752467089752547971712211387687518532031232309
67 7 0.008117828830600127233117630157825174214340200275603170032680324637315474768815304618329754450009794165524699803054079956855384991087205848268504986368032335658424526383507999607723112046638401720420343100623167324052495425754658181112674730961406700130447196873703457067557273312603035634777
67 8 0.017678124016572030439190524975802333725599207104897540436875938017325690865496532658879966581763050494013288626140675905429929846230343311108385735300779178574492102436704884793010220820337211329563944053225857698847333388421132001909693058247542198057809448614041235811243754914611701743781
67 9 -0.087861015598852084526988055431522858562576219323887496796681289344357456210335259672093212628101584818216617303308426018281394311099279704502908454907937187611118902418708873559525993783084187371836533673179428134035763341250191330504267096961429031751498527677656401969741113724387459774619
67 10 -0.074413790084437945110485701862710033351249973982666667352078698320508371607830757105379796847205276323370159285353079080036771106343941502373538133091301209211191388400876951016086938589002177940942094481293359849993076575871326760322431210046200120214414177279926406754850035103140159854782
68 1 -0.032989686145699081572754571375929674587459240616243855615855954039261420417611841287794188159593396590999080878952102126599888111615660449142952028438136636862085121746941801861999710165030397142365499134971520020084426271416494165900173939623796346034053388467841975273322295029014662966586
68 2 -0.072399078849493408493271892115081388342237007604803548629093891802321443558527872529997100043731332130061855962565212370001625929872120623191915650054757807002281152225451057911998375860437251029709391399803603474053638038566698759072839465809183274449335890938237069801274554254056990120092
68 3 -0.069430359230793132984637024381787130406763474287026248897431968098843177312529780517825984661944450345494960139574186058865309906780083569902033697138427119717571374933918907614396046030350446342709879737881997751581306859932942793483612244782332532752892160900784200902349390360763069819329
68 4 0.065005641221699792799370757713006417659045824552248954778920559453534320926292144872096994193035419635107144075261392735749457963373415354441167404445109723738311185786129305365647971068794966810111382258476231585186339236686891624110175473505122276325574536115092762383757648529078890383425
68 5 -0.044612240055488202716623537575051482755032483256825960936946564040331237335946725776197437801196610685731472934994753754384086514550970835847887562602867261398087458538412664823955275306462527971155057620533774048434317111452675253345239485576533496782863783514871789133648143705078853444397
68 6 -0.0092190556835612669813192437332179842639265462977117042618503988603629059753975478987487380176460398092197706537655960431093107655979849524658638790322482868442651601656497361392252850869049301109892979713326538801082616547713872216292292023953498734033158131850477260910871011311892892529852
68 7 0.0026530120143967241650806612339990241249608646795382149723620355020608697815060997918643383782061681645487100942701574142273860594929480498718879277808166119364703842779194252160407553016655484206261613166024988510620340629505122959352029678827678793686338885877244015738026224321330592006812
68 8 0.024025040163370678398127077704590367870139705843592112019695267989832035840733428608349642649545844675833929355735375066733923824822722489318920359555965102635815696143628499628348023454315157353806363049948807801379546526128822714665922861615907962234020841696720595567713401403194017211876
68 9 0.062408787946699311999940222903763127564496023930258968037421029480659147659271403601173532210385042471411306678348314170075888682090290426339230502131836804857272423118510774322908299602328676523517810643685352372998712713135087469957876668899210440611963875000781857134613539145682859708103
68 10 -0.011159110116540573526408899412844842715449615656654492294545013690998571333525658829738186332803829752738680397613674243435454323880346436604243088588933268239266755787944803419759944703069482482268384981399297320966879175963826097816819277257926132726330791618456332964225606946710988956921
69 1 -0.024634329862136717423900424929652134515602626166950628807937624042125123273679797675598281503958623021563006185061762156660009665908029796207252511342245865201467437731475118676517048818444186169452561669584756636506575835432651862370799711962403223051652963069328863152682152077535603140695
69 2 0.014664449282210810739076537082917375526312394706900998420136364878010225316038496615164044982769066999879891218185211716613806294208376487568387673792483975323112668226354982500591087226509299654398470028950829319350398765735150656911638069294600954890846040860930291019406185571120819796756
69 3 0.014965488578399341507294702028738347349228469336952023626699580357599912834358667793912377257992019131577007831250563110626728125733121017124435839011153448968821961613074012916266801605983841018387720202338325463409278311781202408318758932088723237199077168235211798335678695698909467923333
69 4 0.015125119302003374941196478500076005351301722207373911117928381338118734736908955338450904203831057565596394027113788688815616540318819842272367442193493225561245282201218036374978796092876631908635013756886093259333532749155561198723032967204917331709821715193562872747316703114220245830445
69 5 0.0004958385735591705513154658811834937051746035193153747821565095394313818513415804360409844906706396596290845969910692948950642814315819305208236587705798920307212176261294265857720408944088214108052319969389036211653555345717282394968458475617206078435223621589854922431818784957762638166991
69 6 0.028871264179570213973150980017283659601739480192337133357806661170217028967525499350137582620396863848078409139663097541409637834352017172598523490058553797360524484463392923285257952287808357572181955614037502070751332969673824382805645914741094850266186189299398577068930913909975577429471
69 7 -0.01712313060402065810192271711486275592355867374921545713084841269533886288316581612444106422328307481771670796422516291396387062545584186696268391843332072473331535194466195613045569958102861558911924942453511896461042359616223909343429815286268364154543821563660746630345030256169863707481
69 8 0.0055609210468069451435866992950614128954801566281930748936282005061503956870903235737963333602308004434961883710489728847562107547467503437352684180407953818471380213945904795543914905394324343826128525470763399915974468033432193661024131002676890364168533690697112161253199215853419557844209
69 9 -0.046888699726692817453681521493930814512961552043233732802892319458990348419552907383516227063586162709459033110165220127160303251312048060606183145066784263182369551950520458237848901289270346379443623783828714827772120904365100451903185207663191258977046617166105152118878210658946295801367
69 10 -0.022968858639492319531780204827179003124070421411664265683152345521682409159324892293088528270442552820114920666983815113384825004173133204583137467831669086070145945428636829116595512751318561768948624587297828493529142936424433116295234223639041538856768409370334992067548608755382045525297
70 1 -0.0032473690373417250963232681564147367435427332024838307279922616403165965845439578125713558527813460926573257271183379013480053403527078944850281381353294432068805713090176581352616730364671817504747941972480505188676072164585088245004895513102827726958213795738754763080203963182722428576287
70 2 -0.025084268835515922726865334113086467146250825987681348456301269033441745655229713803385569762614045481353666519051680998250017285877149026793644716941014578207839023642461356444988369850402037991358293202541666491150473043909291874534531584193620334471125904545575115136572508846245084637344
70 3 -0.023077505606396852846110772883478848135049637770083194342667851295783005398843563902507860561824230011952808330719239403257135152248704948106231510700919478866121109989874618386181245164599455026043693003711056114575152440977334696435186560573273735197551596162814205293200392011708097434451
70 4 -0.0029925887163880117781084958753040359349794979876771657951182402584493254068728369835399827816897585895292127893082024306232206344803589147467579683737484198459526705832976256303787235627926041019259080637782099030706354914128500011332860587021303700048814407061517307556513388065719302091
70 5 -0.0034467987388336985746913260756468305788525627934812141563866427681674526216882599175968491532199384925246412947734881211314621106624932698799947175476878355701457811604618205883190658674162778222587169058222326020612215265599991247002301994816820123080549525881806703631351001648156654901029
70 6 0.017517183382280923400869315769742222884598686791481281231675713753875639920300442670324273749938152529421300452487364988402145133633970574316981146459054704735383546578341090225092911201172848788625945100949961785536243937608735852554369013111713363652702324018062084493386675382976067515051
70 7 -0.021194692149480961476184919881414143824122937563686842190889668414749919038351721930101796882040788782269897793159090734397295021237730772411011012042356719012005172389991461460209554135302470449221771106131344326078227657208218555855125386577948651498636762169434188950990279123337987940892
70 8 -0.01359072172122793195942928270786541235409764491849208072837120604107653050577353145243461338482564947767897305916736028387208881660498838186879528417595389462939516976777444602669986744662626394909118602380625285131967394270000346815855579707688069226767755702777196020828217187769262407273
70 9 0.093873136740951254541810864297323057397187984898245530817744690975569268480212823678527523709068602679124722123269459294889731516805063356502253484139615786816773661021394251740807355204376800300398418589356349396487483808809420530881345485710779809522595065359928765348782124703311754918754
70 10 0.078090851183492751109547538894779711565179676960625743644735741700249343001510967980154450515983066462264188129131652765494983871087381208193136844332817942643819400541220262348401713972994230921858468897996497477035189945578622215127594682471768292797148062800816959067765074384840981653096
71 1 0.01376939840385678890171999293778308324670127174719547001251175123514565382776318192443999609699798554603465912713265471295036197134194261481996979644632828123625849876337013521745572793419122178017767915302547835471108342307773083485115495916963006931234934826640463583544212415454997683099
71 2 -0.0099603773102061127984963732644597959806890013853029592623591589513947572583490609618037987349842979114201760834143805044565588732142291079183558418731207342266233919948168158229843622479857328178923778407845127620642442312830661217228807922455948755854545543468998196555902539305008399560732
71 3 -0.0032809330889494617258088257599796123152103065894310464490870678862269844151536191266398157835616817453487469857273543244032625035926545120383451990187325013815565689078196678357436398731430817128894218881185531330954482641948825562326009312694598263534304708954823688417715951048339535904291
71 4 -0.0030193110394360002651874475703026157384520732594136749264430552695040088221940615998582001006234646952586689369831569342413597477117272251564676765140897361352224483459901992971900036641734984867136921157987378882745354499793195949323317866189422673840880017974065052759667747037930834937073
71 5 0.0067801636639140328837266322548020797862024481219551400034243599643615080118436623321273387572051774989219116090060684444474123747923757281367747643024941649741018734822144216261731834082062374329613299980117366142467314119448126482681255355270662686138754555705082495296467422811623029306144
71 6 -0.0068229608765445157241411753993763153369359855150441111065410392305637890033544738168783180785673014977594258346766963436382359809760130820254559676306401640008740051065502926645392143852889141862003257195541172219764347841171765052239040612760713860683978144990298268962473099814625964694875
71 7 0.010471075535650482908482394686719291457885767827785808233594523846174428038955988830417076693541485151769829845398291437362810195365609188499204070875505837578733825271639321239469294980305285293128700976456450779681211831910293336647390767025220267851700020898364942385676822874406419316915
71 8 -0.0018879148445055062227389808527464948942460895923235241834279760514587271203970749982219598606616834757195422630485265913397462866221093672897340266571060531437617421662485820528157816454546155490141752613647198014115663420072397144470745340339654269496285752578153150756315545541248446546728
71 9 0.010605074699645080795730823906216102001130785932380248354437346247822061023958742840299268176476205183035704469043200991799511509124828807116886776171260053869829295344728348197458614762117893858736426637215595437007850895069129654549644774032522351692635800865651095357773894053209177581648
71 10 0.0064323037030627635683789070712372729107279310030253732547097325543440480414875468718303919898592511019940884200914711773855601761951126874088215336692899683389795808065678995804359418352823663673606941370776033607865919407614271681566028285583478378421618602600879636650249806120723884417602
72 1 0.0082577792162273189183650852842071198048490979563527415309767210869239405931743141400392235920305282323761286010182889126750519160115312029750167029160772091668806053501183470103771971757625769985274518065297608834331965456975110077678027425627388755323306924642216590083946616022648788260899
72 2 -0.025197851705173982864139096627640429323804680420021689036117526770182903146624000379718283288895070563007310448746704952361498360571501992946016049210700205635456747776062297090282583137888075743009110795864394309611456536745454101832749854784687201662726039987444800557581793408523643672551
72 3 0.005640703321892950272739352902679987976486221166509402070671878768949290608979450326421437202327109638782229007034622649595262994500458712585022938827950517471217562618815019294203383744585557361117328442514924469604003565433038291957883312758107799258355394068994457260541593138876755639444
72 4 0.010885227119276745540845640304302575414635294918079817775863046364386111655783809316573324505435059839058662982842575870016760776527905131627629386549347902530152669289406519094142753703478517106011033118506949068115260267780473929337855917918881419880629518623527778138552659576284134418683
72 5 0.0029325067108784944466476903143153384018496639422597076713541086705358634711560106746173475242358519650422271629594891451818015282817091893239615392984739932754226893529253777818072338897645300252480444208496390218740554632940966624708608075860004663295795447975375329547428400373126950346475
72 6 -0.0080308904875681561011904316761547200889433131100227306748964086339201907933620613313535076796647049796882463737946029931737758541820932697190588538306644251278707517568560175552799645742335793731683133009371421310884520603697696645158418136117983618069411301177954446293294367779797079926689
72 7 0.019081739887688975100609986535542689824903714787653205852898213720629512834061209450700784177588745522959247650215284132219924653789272348615279641033336189826199377369804078977851771924423356060334565462457875318419889656628826660783013763872595003564914385901083102639656086245145371685827
72 8 0.0077359569256940329941228821088343886591394954706033457942450697932059293081336411456471650756596810772068981591041313389668883111819385311946902207320759029079632127419582330833756881363915764942747112731290838765878965770317420580201644694929738120693811418329061806050126315847857945875922
72 9 -0.017769198724810473559824624993737580802506150099792100835639844962227975155951254643557153798119943313623477094000942809743423835109033496607356810536758165549322832014942977597946830840508227241963009367881756560029052541773905638798117719905001473135534471833823269330759111973140840588665
72 10 -0.022652498880305329183545423437680285781875471214592083617752180936280963919532478849318101123258291650424629256066390417396365551740540851975939284859650994307788373673447619403026872317986740764783960342043948322619437981794657559624829776223071790944047469370579571248411985073675874194035
73 1 0.026066904646679757453521018147409129424866479084256027774907737984386334142802962176042685719042789905591890469687823536014443727962060341707378535147040604700437990049555200446502674164545128368370694665262028783581225133127088706797363726926575091710813028081357522415665108684400754536353
73 2 0.00059697550325211569115434885192870069993357674251750683581466552306907960204429277585228887763415960373930954152359795934999261630265888614115684698260857286919987190953426973510642649497768186673563457337571470812635440077501064035971781552532861513968952694469520974016819633023441845133096
73 3 -0.0010886722430364178180499477901001925645646214037568252084909627241418889733570046074293380788797797657958360185382229082054041581405593403488574395986581905466723545972869652479409582408816480716876737269861522778698735164246324691216910209318323633231858917276671668817157000346262686981538
73 4 -0.034591507008041510384591331063300805683987535917275483562231528903602227871654372455824543754326469585590007821006604599898739300405862246452835628918092613674162451596519706187138846457633266331881554761141197448216357979346820537773526979439599894460414295500307110994914310094026914465492
73 5 0.013216657860073894667812740144538569664279012311464953063200354384933633179299221801945031055698486201320957733939850131678219440063641585990537101778471734653433840911041744318261200329728491138355333539946500327385802968498640146262618617316257668825601388232522840765135277084977489231652
73 6 0.02172438982259966175361427450831027824973916976773630777107614892570015539803025867637372009106419220393852234676802489899783674952771278171059726233205807087345376332799638484905545967025168124944981682866084326008127219578398347756204324595233165213370910340948187910689634584318446972865
73 7 -0.021430860678585547684783623070532393572821927843289068033108179369562733746857586599004508845711324351301543933196531745567348282116649732657465672757404264395576059934747564701690148272430796022166078222186782421247041883557392885065329238683175117343183390149121381410508794066226290749968
73 8 -0.026181204930924157553233666724423231671089974941449447618090806134029692684069982105729772668506270902829657748544043266707380149888263806740312022891345592234130394999158123152181539952912711294231363790751040210344698610854160880884088403821639963697897416692322835431833649769600986946837
73 9 0.068915675488651597702524688433999808851455795517586193496438877572231444630186456819488804853429516307512168105728387524967586772717993892796606738297261003331814168137464148461419752871011766885530199010733621022544922235539398929210924934484046970806493962627415463259122460430882026886822
73 10 0.090431475138194790843446721455684184397758202978314118702816731420360951268214358221231189958356215268458930326788235123503062799345067676265825478232597732349113704095420785829369546902454922861249051415221811390594714985164084777011589497187012065122566388887252610776636418529224726972287
74 1 0.020345120831787349739113507737534639065249227618420239868511344662485459409307238029909781685301116792889717871910447653049390168082974162249035257137048997002613426096190769406010768731672286789266116273408496940103282545865797071893484115270858391177260005095645094254974374758087452446575
74 2 0.023364079572257050060877485877245986308711227825262483827916331148097899705111316490309557446329561166001292112165107765600376709972152502889388304862129553665113877324296897085775420025478689498945611696353109873687504880278206311832077441660089268063852591632725337412509582076253864498115
74 3 0.043760677375430372722487759139749660469443396802269386591299142217989422784056308016112017060296240756114513331705380774529888815569122977699536008622963837041953192700534781617548525373898583434222524208700158075436266847860776393772974974061868130970591325151259819591212743610739401261743
74 4 -0.015140112508250166619080836049175670861328974916311197655546838634187512433119675553676567419355633115529179177760578720647049887847720348711381789747809017563049510249055053673496351896667149750987062629837630892445633599647837785107793465032556235794272237339385406648533224267950155669697
74 5 0.027427871099239363454297761048101002251294678368844879940922415037926982255241609217815825990092908077855782987249396230649985682641526981518661169291166954360085423118899965088581742675251336520670218643164571271372886985157555570839622246110919643338586290130141075633164863228316583061819
74 6 0.0046532753740766877250046667499396945434280173137309066157750331676659645388328101212498096325267544677044197278511639015840152566400170352259418752222975031799751857556384690061388693256787179194217210569973879570850521718036141530697622537853652788656634828281588649604793677182560584312698
74 7 0.017901420189256550669155362581464584709041608137373938973205225648129898603384560772378122163897826144372080627554787662595425422794264592317125681115062841163492293171627219230840866708351123184334934601206798932722620497756993459263683463574708313333614686613527428770039657796276831845172
74 8 0.00070538226918418569813298586219121392352312390150851598152722906709825587878890710894955650001161177245094751131906777156224453028386674681435369562227247757680213947159756789047690514152077787071400137263665706960159432956695706069521963472183870446054929402299586249328527186027039009101302
74 9 -0.086448400424706380047875831058699774387412730609877533812551036221143922831843712107931034947234564589680974661739944107954967141867094881658619541237261595949537172919352925817381585778367329854372776168267349983736761880208507014805261871944061164419230620424832912950243281514110304961072
74 10 -0.041576823604004494745262606055953671969122794747396645980897858277200745109312326449693074746894031050477204423612382406061066099072914275257505186517060477568933408459714050731952221205237465070851322261594555989688020777251054122262905221092664200789237571005639247982341131514868447797035
75 1 0.028321619824572278311932499843898470452672143041157728208879595753343367818741551957214727319213610991499958172753936102895015963809192239813952902820074229962800399778968791919691847218968848702383369506551834025295400661883670407242278876079759668121027417742773491772842070966632013631062
75 2 0.0018016030067335732344945945965904692167465924833437132801468869277453073251343666263334616881564463041421194018004825151340712981558620437848122093751351332045261492717081251151139374995771597050051556174498691868673238027361631593658853755913359267605550229504923607736283041465052011907358
75 3 0.01830816036078691169925977973872718754398048677774522520299028320483790130888785515735174308873200226865510935326045648378112593783086144347298963495227503124549947948480792650072309464879065818153382986831990953768177788711529360089610075531178464017102540837198474155642951379197152055046
75 4 -0.013047395951191494101085119819860513714472346583706538415298551931529113215809576147860729069904860901979385687553309855590728601270651622622953179870492426388094097707355086290878325385068188835029829820537631622668711168926070019552607804811893642612224590761107464334407707359574125152064
75 5 0.010785806096649829806233311322398416072102521630070668121558073923806289185024321026044278460768566294696008069211438876668264851955449206447024665683403867413936417280690662576840858736005230980954553238229400626599633725636318205317084883566960263361475039765832296835816394395206519802409
75 6 -0.016158803298065266122411685100230465703669959969213514443246911122651803822434284877841105676383486189692021808690054116367370859890754893238706899633531584985492175132380889967087263334371810398878319509519577394752393231602341521152228089716829144479025994711161486530862473962443477739021
75 7 0.017000418147388514040708287136463459985233819898792335626145866179089683429788658479647136608291434604479856774100001555473587291983538304820692305229702095325857862371672001669822809409049279096224487327991599815479026933152613977119898198233151856945528803343562349821844185247281527829257
75 8 -0.0030601667323925034320637260170279037914311422939206238317217351533472404651990725903390422010111101770153313573160528737254887145016766772534995983514089938128014455376753717199533457208563358989234293354326736496437624166170617172915904898542376156022369174414097825105452248523344680312383
75 9 -0.032874687155730789006578255510149984093794347029714893264968001422469224199173213936554196468931586592259717443825415864745501254356321311707164862128959407145308644072406830155016679929612581993920590058211679969687805370383117038243638333778145938251130664801597253249411587355050287774532
75 10 -0.018604042487475069681230329520531905666040262254825086394671114429150051239224443906347579713314126859291529431751862446980583682120253444643114297428228021859373199759178650132197038817218171796552310006897164369533827256365114532292814466434286458833423305066552985444946530082156775119304
76 1 0.0055299827725200873798954505462437743717004692349781523478849391353148225607730742110438131824016497108887028204656583811969738535483649502510695640924946796669098986608840120710969301136746756348048595661945491927337292582383748342001644627824513283849424691034879189156448042707156645600588
76 2 0.029059632263295434414590829943807255330405940149892040475541804247550553906598883297765510543621576645529245240395907689549609691281353520348728488781614179080076881134826394508515414441223075173013686472996195719483622069086129763401966616826294930182558837785128845022192537132951517910446
76 3 0.024242410640108943444679277275686219873306190755093423015694981773431869473685917616712113116620766775263422221895615247943071255574071157827220109544577556771704507614118878388365651860930138206426871111173555867433362686907616673558332894667379460058443863318002768219140008977682188139855
76 4 -0.029625766641139165594854155773650191856712221318177252802804755665778770962273289156712521447516503969862067881477848195824044221401568495243002348750895085093049597643915305635093746114481673012126692398064460750071086123473081300628033881189114016847897083305698336247978396853005312042035
76 5 0.018186724363167666964335793967049142098239211076688989291292186970259442325584361099684370399561463293086299703589205126650314161890597061891856720280121107894004198697145310418004900853407762985630283593632168314274982955215314180049374334871789022641503475895826550645861886564475413567236
76 6 0.020793574229393020141053510678511006882912483610019692990130477885077919021095797336046940204132951844573955528099033729456833061722757558893060112459872057335898416037728776082344692874566740623412998834610096652305725080770271597093479882916669843214893603125692868481542027611483690142842
76 7 -0.014098043223364808621216092992330879735038178228836981662343821811162392205628113879807105011775956920843076978446345350189255721323945647761793945731948882407954900961604016216759659877774505466333010692815337248841239002772895290686559979445811906181203654344866291770758796690148373664187
76 8 -0.014366977426721443503477106698750688066342340529633413999520024478421860671478337887213164747477379679179793412104565921486901502386811367659811338756903445012084320394464713227712348423684608070917122322684756478705220263360326028785581724620633012349280484044267945384767319347885007771604
76 9 0.000919082371950799314745955881900744826032331043579265355167384580006178081553092135875787705216467150212698981371799689262253854996243106931372489117207755461702025239529485460230984851856303574677825857906188041859636483418798668006928356159793061217851398187457647003734958053012318584215
76 10 0.033173763713009815498014201594109204734298224157054938619454730148505386934093694099784910532235692083169940177026249455233612652120765918418559516834633429487694642253252403524047559883594747760403268492023551112069547915099180211353386631222665996283214636241456950052392243506349099416539
77 1 -0.0095960362835696649841359752930980751382203672908691456360111809244008011477584494757199790867086548461174906576167717860556181015595454795989589638299890531698612271469797509320053359471965441600983499079544627333354158869476392380484172687575358346102675533036788628746698657012153534499528
77 2 0.011846861455054127623089264735950410973576169166118316589299021889682992075681282872468559591859482223913100706259128542936653846132167102005932477099961757471165029753463801090882861294702803707145891596495108622898170926394518788338676714214293635405296551084965707692715220805868007468875
77 3 0.017405309062137292343558395014185716415605552386421786685616549949293358763609944279134130076608584974082475549031101072042425358976583387557053029163507782643473112777713674350786096948879959136404746530885273257028413926120754808230222675525942001020480749367109599378886073781466977490652
77 4 -0.0015945450636748026817401644658514849031558120218676224051584805757595098220065548168866071320652871666086246639878787945025735328444470691823176992643099507811795178405999882992903964587142277730606493543876750217793079094312861382473054552101165778978338521288187195748786300221026078055817
77 5 -0.0028003332711340010762994377977938082960015514687832175926899128686432503251152889049939103882260725099648435976551072929002934976656675794278080289772831763977035306772167568628390925482988024974284027391817576364715288755574095230075647070939840734987780660934650602969806134694045506255121
77 6 0.0036247919421132179945941616058914415203474883694750559646563894774658996202078039098437375937292533912551242347737043020811314287063906191332776574767144667321424143970930510676077899296604853447174283771784356563430581915571857417473454228447522555383117358202182754557557950358687074950093
77 7 -0.0047510014280955179851943743703661533598874769062116521587473556011956423640707051031406689560172594327235420446790373604795594068149107510225235429477189998594991366942951848192539527989056436006774058264006126048339724255771201829160356468094262678670383980337095257424793296876218005831533
77 8 0.0024542477009613137592288574580903257443127926321996232546740524078972704175637134901053471120567509937560749498272362015070032212549185616554825718017264495879422808748636793122636591846455372405939298064632249043598189619709923856363648695384985639692301395829783687271011134420194043131752
77 9 -0.028271301443970425959560697054360075946760073518624082603417836884557283187755394707749865732267204776664936565979312482254176087015469475726650450155647200255450843185836195905430041020892169224492873929140848267631886628213593875835960205760310373183945491518889749199117651382735134940359
77 10 -0.016668912598738719506630459774420769628975988181034725851925573859219164869624357948609369260111940772854027621416016834102710021797674513946059241900937172063717792625381690900162231672128740500267024200052555597463999032431861684878711840387428725833089922541281350942813258838458521787939
78 1 -0.029198055136350567494877706104317935796125814017645177764939826246117028300584282271860396383345477518651525945527053619396437794377316870096177438110746040293930937206054175478382198948773727369347415020657180990169472985031208539629007196182083154578503206420639238062680273883868123015229
78 2 -0.015930201008606299628885734511156297330660599067128271700813244777182031503015766905617244239977954380835882227529512788274895836811950974963881887684036797068216439070867479785031407061790401695115717457069417242470380044433957872122943424298063972297600210651515005873968354804608751421587
78 3 -0.083046178975819294412764320512325606867633674644446476091241030360675918909804135889283202933885251918189275731808239832698601274260573677925424458564573626417442191567338002068002978265564537105800432429047456361003389839930880803168305317266531776543381970350120454209421838555072305857126
78 4 0.0038016583782101825537895666153197730760926926283293817542691842507598414181460932120118788404625326066782899933938015490170533712739190477117292608373869652442351914641747251812266938068954986424985980748914008996120155019091783163103714284902663361554615923608354411886055451579920538646171
78 5 -0.022253900778939256803376334468811333416378700048818652409550403059782580405710415882976209929653108936027295441655867214210205903084824645996169965672275033627209828340341951096262834835784136883129693588230013880045946602780301942675712242721468680414868106179829708421735478474005875123329
78 6 0.048227920845206750570368367908678239399670328678096580287952718783029353436295488174483394531623714751554248059406682530763489989943304941558875916027498959608259401083377508659366336062609303661820772584483184982574389337374067723372965865580097783896515457719514302862554892938337621205365
78 7 -0.060252526379422464241385152831712330349445364361982643825026194300171902668082797158683418173127406066573750073316904452167069514088855629325677642323054268120783900291543863483910706071599170172573239459209831704829364013774072495747008252335043115683144999249205794490732153064984013469614
78 8 -0.020377749424881051788523169802666780685440875441083082906295042285113293990565012155250539841667304596387457767920305846553662940142413434834279918059889753499716451545722267387627133929098932127204266930160936055688568425010481835563010348561981750985076904681839187587471503218666022083574
78 9 0.17259196842893965236879523032221901819839439467530156738158803883982641546171898010237613670305740217486375393461900391769723602057644534922323662686770167708694760250487443664875449691202427595370869232622136760846211822952629475557548016174725615599595934633709273032837966760117651492651
78 10 0.13413819567232786564619494243745187404618182501945706065879650452407878611891050854163371914943727948811304178256286197807319477328410515846468161995641052280736135061312214050008635894278739884249921716657505674921900598102673531157306499410566448503063233181578881813489527461620551390804
79 1 -0.0066246210983256969970257799241064696563043096085384736766007674534647684401508823119456382734813614003921953450101911605681569473098950827524133442974620975878987992973734083829878488469175124235303998308164332239480675176537060008091164727264667041028060074719294187825569385196969466223362
79 2 0.038098666577157254677947783253292456292607976781358517958671952660284927889263293747865856438584062462886881265475386992354665334974570043567469224852176022241204035390066802510836449360296906490292009564798791928088121868156688202465217380769377482858090869336756636576215575626321478315241
79 3 -0.0052442308070519151323262211020835579697573438290347811224107622825961835706208980277789997376973553741685818845488662889460670991123886293500019280214928500003910157643383416232928989430636955988905231092470086083577624829028398415354730419481544939259301840932242658792069544780512042566886
79 4 -0.040660457757580456944108568351851144062095674620041533802944391283153906341438179051086023026478458653950501611671084718541953401464075360152327876525988344925880197741121062567544799844903818541493694246302140945264013282423613310917798419734672908664223288777533262745526618949285776051687
79 5 0.0071876822741057781295354935586571103970603331553414150027316201777728330550011210890816316404475010630529090549857588862963887914943511583725256351394979003649036452750190456081371673227666740460634429970136255257343054857068132335804441422797912711755071223937707707444071431269205931729586
79 6 0.023532318684261625820318920987234681231261727902328423101478342477979794691918890130584720697354071436359109907045919335987234027491120493578913137342908202946424604682431560003098384083844288471452230108934172904385474781177591578049109566730880488663373316047534467884522560094661093266494
79 7 -0.034200919240076051911088522431664884268775362888467626394486569690240901784984576799709927082949369048307937194231080379502896728069011548463888111713158388260084777810861690280773742973964580620595017884790675568500363791208801622185657987064942544064303704926868662713731488004206417124529
79 8 -0.022405043093832954766295578405480845135701499107856030041205344888335388552850332994660669377874618109177531362774699554492322722366761525365441761611986653975235113235987404874339296816098794996939613407766828711956829404393563878861643296130196032460313719570519774075116559565425339792589
79 9 0.076639294777017905039073546517302284836402429039553648468709236428019126098891846132939596813615599726340402507070940099378973039159315545094712355049213751089683151766146855863825049181092755047090884463179228846997504122831746290888138140319248979312707444522522216068864206896308075285886
79 10 0.086104408383166834805293448565400533901251798014209117050203509615928475063922950614179244292101448202708516576957853420630497056800372954351953020120813241497785827467183191423574977923308275343407681522901592145356003861620388513450457004451578375505695871780094711642462691579314624218113
80 1 -0.012589615942529903417503826908537333973347199456237642965978633960167391501133135270344079665605027885340923597674262867467362843033642605457687871815709156009652561108817967636046529818129322291896787024656990063452743320572268780032693881907713527153526165265022606590642191018079640900372
80 2 -0.022587644355758591403477197547350654141622847212346806051692361191098827112746505647493679603255458184325722775461277413419266988681675954034880991489010547810969523932585743784009751015452534239108471405455784870832828149012841353624174231938090184972435310931251463077505467000060264084731
80 3 -0.022052819671908630141715544049476821042787301730846298659762765286314410345536501606436457215768405946582483355456767374384589216778636116136432106572533318004088965533510714654874004274702117451339026781161103694662023198699204585880781423078005793489443423061454787302751016331941902001186
80 4 0.017909346534387580861210924182401419380852917532250121698452646407068169164885609525786502539003104626056428945268967066466098384562291048227353017027767604129854002798502758234245481593213437979158730703641974387614087433678004102111630558188506023452857551775214578482771326231162733041348
80 5 -0.0080563709023207519541407142074436433530357098237038313194879078570186381385953946078542983760808297733021924476035791666654563376543738275391274924078699296629455106070392995957292832723127047574534892047065315810306202125616742939781390477989731784067342644147030767157976557008128251817806
80 6 -0.0041227635159314286909421019249573226383289859449243044481846746117300449156638229167436486012357664053595208206046263197785682594335279290693638358427076376083109054250735122024499219314123606996773959952280473804367827278424934109123768784204440358303454080167164138894733094323567527252945
80 7 0.0039869574333782686312032870331488722792334743621582939439931915697154352724497707094817241519285862110145702798978095395348437896081545200800504619030403290822244725795937060826205553927247410100169967748896473104363238652042816030456118682703058170803315612084284553824619775525638129467215
80 8 0.0085446080689335019840170148482425918650060522679849163835071987578662548026735734441442584483163553444647267034320513975069314113040356097589005043203917622039659787973370411760764698802482722045243588044348278937159240864553466123922146232152961979847707759378995060964889829293704349152846
80 9 0.041483247162598296204307544621147966392004318462657009623712020918525954263034682217821836078601987606661379213145655686352972134326970200812197626837596750956731458369854170422006292064786143938354426162707336343688408993032904990732861991522752587727701641095429042229384985116519979121173
80 10 0.0090344543956764501643233365307407468420267662304551091993376526339698598615819409653579208631906937663473156351497664068986505023404063061882376066534196348005922653085025297572151808031256186515535928440662825051077672921678624646542739394510479517947995444331573843859558637205036824383604
81 1 -0.0067645933710422336401682087560777493648171686674854384454588085909688795170932608725667875133965548474458212707606593454239966465823436878321825632513531316721501514728950265478144297769509906087645668987294771481742170196954778818064824889475963262250384319552726638015623450338880910431824
81 2 -0.0052839556000285421794674334209624824847836580198393665847928605451221757773687054949715064455229404860009291481514042354285861771309551652715504395304565798685355297224206280815170488123113605955893469835077783851633203844543814702105363647456020658034964450998890601927845042718244659137951
81 3 -0.0085311749353554255836342842104076582443941198650419253276502546588993779793964745800653640777764640162708835850725406008117463254774634416972520629442347072042465546963393995106370045710783226913220480984657632696336906737434659027014759601194431701256604188178741041390402664746855529035343
81 4 0.0076970024883618557682660180975118029598925322377218613808900087981238007661621232620182976226136706872708126714912078769001551036955251749271069517130873180483816858144916468810644118551185979771257054338841605355134679581157431178222753643663508820508257900664779900013503521016447586791934
81 5 -0.0096648181364097565874881277139566846594348546729299488930777989592959643418350093105970164250023279590193689452480690420581641347162181764794992913769348968710088420686172434380911254724303556162140763620198694278456804916914214553870613064499973556776762538340854577135334370499504368643376
81 6 0.0089049056423211696746531381862919863632635310708829261634182416124107439643170691144017630472837688805766911597495922623381408799613838793163110233041383791043220084555578734148920440352052124217257390593640787352947785610447622116334697017382917060576042400898360302971810131922162591171322
81 7 -0.0096629093558535291411821724032931667389795505384165840079934375116648859276358764718846539975985132367730788311296423918797132071953991995286752181608769255370420743721850291336918797140869402151906457006267703068125916218511750162167673880697328720354668982003618890578600718515378803561113
81 8 -0.0010921606633717404390534740846578573058767634125427766874634720611402364159984111133287149561342597182098659274547664002588631117844345491138960760187318860599311654659319644770011707152254889565518768588323375776228324866777897988927404174805334483955092515375947673221531848902777641256403
81 9 0.0018661153907508121674254767768966976877984109882209382696157072643391979900930405182092693245293333144697198880382537210766917545290975650545960021607348577928436444254354374941684891930132345813538210420643598319701227998498269802058221333859457053426017772961695313476826277334622175875532
81 10 -0.00019488557363254365539615369002829278374138212956496184833625145104886566575987598547829126656936927150318708395258918892368749377842820711223154251777265374870367964815614352060977371533297381956799363518193414811416399046458932834904512938437404034563819644552318458681978548263571677699228
82 1 -0.020366031305777818364388997409903991334066210267097314068529188899687489620443451581130944241276779341599503982994340529071776119934709949383712777016564615527866046598978009555292433485962610518367427315174698034695571686389970695717163689270455196926371532979068655083263514658328423228173
82 2 0.01568013951551487654202806893963974961441576302247903835772495299984513284474799219350651533778495238372509981423012902184571521081982513720170919012999128620587317228667694469326754070936819938097579003932779158379187296238932682371666351201230537966536860758523936176708249743743085680262
82 3 0.0068995973453388065001728763544929645945400795137410612758521940803036069553112179226950113525432884013173060542588742302021951818328791443642355800305992652540353097210962210150006183124664851188763947601641747369925303231359966110291772282140963679146174517191425373598413098387543262107056
82 4 0.0065219910003157085773226511156955755369097846950353563248663341634769160899854545684333381985448489454620800108760048741670772562607114877666569265274680985195108431070558688994114295443661002864338061915321932592078074258803280890860263575966255870447992479701895693264376087768107609207683
82 5 0.0048900097298105453339049718248456516874404415453223288219320089517864504896033728216791367529145610809023570109585510277700126894993830821769821151227130777009672225006532189113342860145732540522362630636384076315004039409641665106428105574765187463712069652002062305205383034665338891711812
82 6 0.02582837286842350646445828206770021404980910534027211718561840845314631195909081318066285104719291999513556141159916767948912206566075913307206278787313209055151787166963419228679477943028422795299133569030887304756416541365887131533748262555274004295978585027035569343330573013584940277589
82 7 -0.014196837748998464472793400519066344193795712747392696531456404855170229876537618164573651037503977805472279662040745665331238628545794974285143475806963387170824581928126326937188799963042213343761709625240646260808174325550532863776994223941307823825521403180587406596566975308839026945619
82 8 0.0042053794909847741394371433602380954371771505282288887682473112599921261025301737788814425574978276816872221011741063757313900477884329339615187299418447823259025659499305802039712772629673404341333721330226953513242147880510220845754659331079928651739682742037708270635944201391656597454241
82 9 -0.018976062798470019188873921813854228504334902678492539143071606476654728622770585061688620879173223585390524621488502425867940521398579150197021835313209363720170809938286996786374622160467273768560286695327961044518430706698681339593553738676419654360847135557752494316861546850340916098399
82 10 -0.0047026785690301191820203819198943149389412778023808874716000365597429024402500860378589938950845066728302196963033745088233215638839299195601430944334779423372549903648946764036211557645129640499639540248306552162377779170385236748487470101806017654989758917534151685685334032818332348877305
83 1 -0.0081844403784380929758833615169043571760520966326458958015740956288311288471892872403185270819408400597235994101295388299035820845872572390533416513735775002863728115551054715392476227096458046040368730330673962311681057018941527688308789670676153598486496359325085740357961089479997344686736
83 2 0.071607161987125959354498463686148186801375335574032853484780720908908421674441243597642537530988621140709251584009875704058521791289322656037393335184718130138637447466603896110553335776323500319990098012839494468579409891358855626206913159827598620775964380773933472927628461763327942916931
83 3 0.064090825765296285282490352995452283930445047976942554734069071857701423167464046232450701971469834400623916197551355053553441284305984087543536876692298144782909598955837143522822841822501304297522936086896335712722196775347733970390257482838875918910793153754576042730611244667394335186438
83 4 -0.03789330926672404781164184052848129606719494822269355206941821292756882433715942518487361019518631045497575364438071085054023773110469025159078572430207329153439663836185536650713013264100203353117466701867361238063216442537051185126781367671423280192269601394695843585274284932376459012143
83 5 0.04230294721037301623910356438104890839079604373348118332132950816340499523148418575836760676670106663191386735726757148170732379410820181297120091353059389819007252378350569423884222446361384015288087184184628190058275400896356220826749207618445904328588302753339686011994253745233801110043
83 6 0.020266156889894448262049589316957042788669109410002751814933043792666897285477121987035253736873626726762829642576391206218920435302817704327420128406144571675006895288237702981696622183967902671366587421247297964290703111124397351260038896712000174843906560615093729952376396013662129097863
83 7 -0.0049756730478823898887341212416848531236004483475513210866950779559382851307913592584749635560810223902663194676825314102258895658426850082614825454588484309465758734152797085603356587442097493345647983290777161820662543365234438047674567491074270302741471672371140143743963337546455298705449
83 8 -0.0063766843114322594264938470635522327504904997674493323129551148304114351492380625160233375207034606671878409370606233137724295904002440073214522773601312034959993085167420589152831597975637892613361919696241886091956869491620266338679746329290572005039869257397850159359585743944740164252248
83 9 -0.06134971022356276008611671746038918607728389772535498579678314551522187239633261282589163605540383249737046502768551074927525982506712477983596872639933492071843347983364251259995765614748745084486473802147886854036144993847985304126462449328792118392155105236911835027926137522698476426413
83 10 -0.0047734422854352931781234050699264436382109170768867642083981699787935978297030507268206068954035016846947152885824641300632846991921954946609319522058367413432188516484110355957859131115979489892972113996321271020414774871517107521283286608808720729252092821812002508271165419162137836021736
84 1 -0.04468008996611846475452574641755589238564299871393577936165756652092931550084112732323953977976476122037099925267181912948013363364477437068861160425891538271886508007187451258532956263958751016004961507203557620530669402955167723650953622570960527166441401663920426345812425748594765930249
84 2 -0.063388591785221634253322932349240179934368763455146666159593158841285295349409944748023300904685375025984464205631430649206860878310352562110125419290661881716969678892470978037810792089225919271722317452980431649221407330365304405786577586522978990762384017052669369119758088889344718532851
84 3 -0.042981397922266448024328701596679873436754989784467059058974761991130177991069081353131152190170620285912631072489166903650015537256480718939539839277811976285729514298488165548906573093707767720066993149340129478907909288018768066674442648868110176674447903750306680331405086250550009020333
84 4 0.073803404347846588694275535144683384753712727707159897426016111160851451677129831896024322120096166159129124013102219254361303925460492642551330912665737531996149463460725361495900933887604070613047833453089201368915682226795597563015355948809171781308869729287997469726131679772141557417446
84 5 -0.050167215258010892653760681401812250485261023178928486357444963077758678257390032463805412622504906263213521436092523789164335237138148641487171460251285168992546005506248618768182368265030358307213328997999140568593197197842022693942871339416676098773905547340507971748545351558883689660469
84 6 -0.0084693296203498268281589755674248524613261315209100675013342510890963620295597897104351155640132163180012735325191382442085693384915608904966575210589179288373164925707611900382682921048404324810630703057972441176335787235293474236112434217562322104045871071176786496429409271271156516841833
84 7 0.0032384817633726033411284994894825759931245800794128773331956398500900847065028580665343547921292617643630024795220241081025100038144310701944085590234689044447627297173796963685536713199180060259452283900248291379150141666041919007326343859285530474335530407019277227604628706721243945664051
84 8 0.031103471945112558645367638057626442796413701751145071468500539326567814342520849627162133501521046531654389749003637175641738946858678816181486642224389213030120037016151027652114368431258322495958699184292136757057761967670373529485960398622077771278899508390414520450448949123323465315294
84 9 -0.0052892377591489028754631661597920094086392394265190601992377806266239864783067243840587241798551490799469851699240283112793858591868336181896689722531699394686217143001734173983550873690428161770810562152078900708746896983797132221000857511631154889943080850903155932028116769530242412628581
84 10 -0.063281597025155626564400943432622075979262104781499760472498753108823433763343873017065330094965007610168113935229793339053589720573921314885703424945995538340273717351966687514157985563216363830360589291488293372550994716958578573022410489917105206721932405077995233428198809527685723820038
85 1 0.025846687758849959475942123702128254482604229276395959435188289609060390292153868022257774865907509155315874944361918944025471810059307195856742619284586063029950597919797722409942016352208480196610021540452684750914775362308429715562511093933470212658950710473524377102671361724701275867892
85 2 -0.0028932429931002689873448237412108682790623980752579466607837113074273298519316397877320029249897033707446646510853379465016525395375274717505025429451702431708063363902099276947762172864649137202821288330867256466567011209687212374802968116274000828655635381707187675363789564061536986025563
85 3 0.015344058541257566241801139897688410268091232555599680980481053997173252064443326601374260943170600846963037464383947282947801090620110967143597346582694320988838936489028465627880226399513559101031586951813430040974752584497426229840805806348006486131231846844856917428986984051151886786
85 4 -0.017049623852448457790773813183316658567050947817408594867656101026263701393262113631237994050814657749489165077008066325774687083722066758704627768935015037703692256537192138740188332991807728566618778782815148626886347159349446942157289066196241155594806462647203992397971378843306366956644
85 5 0.0060787025984311568810265025542520551363411102940393284692864078697517790333824704267732178251283221768459457261994927113768234051351862156959192140783010042992448759604135687972974349674922722604012631902362877560406152950048818817193027793021987504650252271361700721554707400214745285782596
85 6 -0.026896754362176321619934608205841970910307020828718246798460715508997493731373782391508048665439978118242908207928760683192247177999334810109317610453295166860133479126200852132644828812860633673211175323177547732739141984530144314289266568512737309722186071043163204923001261394973014063846
85 7 0.022855890723357399564325465439373301675282206615427584106019069875870554045976176456270669434826592211411660875742847185988307614178420129053428893928794633124405297522703835453846683290464847485747829741606963101682146125024154873506050150182334197239014486311834169766281237284379961014688
85 8 -0.0025254788746276145311866500337937040958323226133919613351665842124911484354533463647053664366410865586411108028098168964640999796743974503609923151055850139613360208121252954563326058880588751956047204832654637657955068478534875267050565208078041641029464992902746179498458050279971473580709
85 9 -0.010072158642331141382011702566259525672348833665553706320903641421861821121883653877152995068291448435438783901605533205128794705481255557774747222628757748101883852509649215555759231036307134710809021709489105630367054480800559139417761615000459897574752925243653577717612806235712115122781
85 10 -0.010017961739369740312170389724002289571992483687998437325150722364799808332729962520374090385055429494267611130529814703969864612802722267067276727800153671380871980349001799907214161854052156829435496748711103674421393157105280750866144042577916204348019422095489147345941755748456843589449
86 1 0.038963020218216406426040721054003132680804923747125357323882167397599754064258150329497566414989068145732307825626686906231092304997678246106195033989108610675946101299038061612908483717820836472377155637125560943600418060260175460584646074385250101946308679937687862946204270552763281548121
86 2 0.076900379188739895202411153096206789716642308407685006520066768746721826707992193313574052831384813543354277796323852724996336166551141902552432656835081551957195947341885533831895210699232588104179107664144567866200835847108639253132832835377681323237807702763903749503521531655864113319472
86 3 0.079167464279056177754330894658129657110295398996780329293580673811945028150678874426376764058220333540926705690625280108054981126586431888454529587513544202774025446532201174725768207210019160942308860426971806035568503512369203667710732885742967533561461434575841976793983930398948250013677
86 4 -0.064492467531186376648470711038779009559394106963372196739925796417883448078850827670350516135771592768163884935467384587437983201333472791235511054596203249029887394537952149479547551365728123769802765207047950017664382938355595253918348250353931924000288651039136957976590714894034505032067
86 5 0.041625990133029191122044585401111134432303798652519671472939671221687029434197222089726064177775971334229178280854333636626569186846131237515126541324551894417121025014949870163968782520171082789463436823569244948838162280068585983411166541074758982908040048763964925640693114028438317629012
86 6 -0.0086889445919048565324337418681376965167591044519166352711911924982765044748784883647356537736605864668790446165032026010001618486311285832792872173750495364310409892668970770853083438885546349757769671162927841709568143553652405286695561095322734658417446702217590972973638868936974115130341
86 7 0.0088025092171997629731438710210597597465054204932240294063601400205356562041648835899235907283772253681844271515339030353031286122959114750666969239580564314943429081249410777251727125101416516300925484418862495559838264608648174159166618057031473222061140205020573575659038584099538853878789
86 8 -0.020312717060036449580741141041268826316738875080781450041185727919707468888891217270113710695120373254692978297238609637907273110737297797973277016457810235837545854543577542878461702676018162881034133145923249901340464111589075582230328604689234805303855608837770227297872027872481244051111
86 9 -0.092083010905137013272862449642873649940867803628635448728101202428142340836500410243422978362036120685264648709116041376557387293903296502471922932365295743330594002728745247451458026531058324934606242250158334818621593620184980695100989251613526124930147040783785545807563249537151166468322
86 10 -0.013613228464317830082702355220331001743814328117996371025458383845291613379826208555502539701613216427417826385703059130013398153087912053617926061191503307506245175327020224329860665361253835600253158559542302548851561899692193891222103893065336625652597437806829074818117151432939387587391
87 1 0.011435757537986318567604511152759809649500027572227152787408143326262668324939445264829184173329572148856337431164864187443578952218082939089665378234596637145638405180168883671700467229357981175279754896491817998851844404164721849681671972192850791455418558864020252199957269012572938912469
87 2 -0.00068407882255873515689799861246416627993191565723047074044647493480725085210340126279956948629341400097418516403303046722330442553176148176229227241075522454226930088996556505182295942806585928117761259845581925444072106752096701896668434004608054327673896629074638707532365783408443816685208
87 3 -0.02853924286883197567655887161167648105749918962223419785754913338048091379882295694559222602910599629057019075181946410018715301921298801335685387596929997615691523723720733658445419323068963777699535236917059873934955805447415322355548761634735570466488977141742356928547522631041068776533
87 4 -0.020189432374253925372703583544958214017428644838207307542454893223606361318271421788472922993193904354708040490404150719326211817648533985218829414490494627524609819671147785235438170213573558574529921201928299114221489857999044549207942640286483318539519390130178103156023177509841201048617
87 5 -0.0013592117243859502762398133287852955458891497336179748845079011765231136324563706275228595599272255488317662783738406460783574039069400080799427770446805547021208469449867689400893040384000356383478439996189010867383014128396684269000418995691666296999554476166645453329674996381579517685391
87 6 0.013121435071090687933360427773195481585578526729556789290070662335034789395084683990738633555358589322205906995259114904501786751072059673643277340769981591094300248800978628579956096843659801375354012626447866903931128701945015203820931737697015307301153495275810795016040358000401960401963
87 7 -0.02305818658935961838770766149128501914476518470557915849755959067871375412454635432431867648585339919688955348069875488173533784970534663139603206736949240010411220180237011867749715240134828393485729247636645728006810279271408945331418331643722342082632277438218077849040848949792027838317
87 8 -0.019384664451264983539138659248979227965863791964335018776316326203039086635423771563988466076119777560675415663352085591428724291241347785290762670418832034931161977008991675652611047301913585535906465103789082517207414576609445587067467541788860019096009296045157606030430723093090792710423
87 9 0.08370619686726031507968850174484057836390202723700904992876989341658735137368227459434366215403629384162786242506588325407661053777032315936781074145229764934341321881233006652979614463342984983456228321620716569063787058742766449992945842619009219135297301447830278027506374886155547108181
87 10 0.079919843107144484873606782039040433276575588759433244279903660662174639137340650380093804312935986928661862772695775313555750563525523313786264058974996046094880407917020402567211457890239219551785522598949637194860784253546265001445654994490073769279012906866017071140699461006895962545365
88 1 0.012623896995136136860027168191575974002624372194675298551206604108296206843064241950757171541909076329601777806657148613665251626925975470125004417007325335346135885090308197855454532455438508790594965504158013728375765629952607214010208627806111260064492623644186011651283446159435990681623
88 2 0.016393800828784164143182921198936764768059462396619609498376089886653376649724845105494444143529337230698039159300497741413485555544289214040705827752057469791053772387082565072684216513969807332145087428925697059011955792473996669772279620515747096077758642947375592267736191917163702437155
88 3 0.016823861707453352930509046997179377979880838424938994651421452857948686222152963816585430215920697935450339421226674566744722579334620208722512065459908829675395784753716054931745025935875359482385603716115160770601094910877628485783520761709290750636216613937747646283126492173531861269877
88 4 -0.02562619871025063212772535763347047158367807591859195468495111954321893900564681706655258488736028986474778595677666667772160189172764941394543761266593800638085783079965546507801947000679083075022845228418425925230618250104495733418304653291975053994083648634317714192118646580228191813574
88 5 0.019226468425855016029960027102535985431142929632145270206767523051755421970830965785414523087550165872918554152692497094045551481440554735281488022751053609308628210115347681715540275921905947533464426050939431775695929667923220255080920545420255507338652556729477109147166260654209556805285
88 6 0.021653123427910476885789294985582666821691114139071133086930723617744899157871249292559705814050299645117293996067990874691917219315039062238192653133553546874227679281533621321903958794037222977138048479781111637227892116567446346839155198928170948265439062001396184216169952882237162681289
88 7 -0.011482117604534275760463096274643998088637945581885446425852608409846879546635360018260333919051971481302932080354133809725476372919012582559382922299678202091150264762419248725418838086229284922093643165849347527658624467125749871716099601446687147228868368892392179106276058412433735882034
88 8 -0.015072194883600921413783581855062337271946527247319310998719408858558076388552667778101685984885655090055486225609375372576259195795987430837180260569157899912043322346691544402373822455953400665229509609929783810290992609077360474143493102644454576258224131222280621634761835592496083139192
88 9 0.0087399188841366182575593371618933667559754003387673798617918044607930228705742433473661344645931280414334307128264428776654401148210675808995787978188720422278955844087472627200307859671929268224001349550324429992590025308900815382557864148065047629875437133614498471619155074333937536796728
88 10 0.041797020613492402796269271021805672814674526049375165015572155496039204985697614432292001467596417033360055575331685226329155860114580660581874456120890846576351296666742327289130538682419980960986243410795654793977619647474755975642450288011627939249913293721712651000705850310431857210214
89 1 0.031649943382489648803470926288796090612546489363782139560694695593171788786490374578360320865526694635861440451306782046480513080302104589779391188117772342794706662720102587150014268451894477422523659721340456169113984786755614308070076835374438407738497350619769262225635484014759053403547
89 2 0.0058056506856259765773826592234969302694792541009087815127103648226497756873578507011895238307284036914659329646805025733538313643887275927676620319621171522120783909042687836195488287999914023427204661656577067506012187432288358022012580010951447411958303858046056098512018900314254007695035
89 3 0.029844305902162533264267068090726627417892712727724863302640544764594096211142239203724872826978957851204844311772902557479985978894129104696346332733412986951427629454855474433417811869230679413927479541628445054674223329061975845700572261126565916131839311213224234078674356798633710517384
89 4 -0.025997574605025358016652767820131018692368534445090780195855677227474132032197662778372773070635382872074087874065719695493644277887675894329031089984060326906633503908312977211078729811916035425003054295284716363968147416148370478369750916133687222792627037937484738405230130096753486385815
89 5 0.014872987191548911997058269593253715414521414597384503841601007101163406443786845886649752723835040555002263703091161927152909257001378994920078840868368618072275582699314589601293305554451939260829209077199593823844359030513889474845250863184238843575024766350204995321948997953730702328273
89 6 -0.0085589155171214112487774919479614135288010514541171773667341194693079527614863611358604300363382366429497151943304276285666485577427427700127636973336271997867480670121692456509040852743691906703126237569351147826804323068870699885849783057618326796694734589517056695071562821715729259652551
89 7 0.0082129097052257945177125922575712238419528220165529254956945264181970057691329174670551371943817059612655439707279289724050337463062009132828345047147840307299193410260011893343003845899990440379373416576260366634182836706428145423081335538372691219468569433329576368061540181680064855079481
89 8 -0.012086913719216839006765348202883411128636289787159544347286876399624095851460987350459471577409819206716354702136330355268978821259713698735466031356186502895305041616687816074646888668941137713203599277105142846990806544216866516682209544963057245829676545412245425117378629394855460822858
89 9 -0.023185073608573300600304692508933984105946876016014088286176709028162278450638139603861219709407467243095156377194680472476211883419299167870632910680831691594982966792718051883063025484486877164624391386320898131789091687497254974756753228997041153142617500937322561749759895327782167073048
89 10 0.0035054094246564881107499322493853321034950992251653412060335816912460859281382230318471633559393636066367448101868588224784080972789538445411544902233228309658534328745008467819863242103072757169014712897761378853443449933300668562364388738822132746518433474595020061499439942994156529943891
90 1 -0.029014501185688548852896753489097456207233566987577669421078527429827305889349584620656363970861568459448106728905393897442532056052538856460514302885888217490942828458068720192902407292078803169250048011767267406128575966096202591439280135346137799170886066890730798957710944837768922862174
90 2 -0.044986722070397063569964781212186394440758789019559032005487999453420590312259727343711507773416562065489289086365202404506053276835423478425003992238985304283876422651633643766267302187793109059498735335426823520981453493137411179556147749057596078383025187792958194942063975923684439601518
90 3 -0.062807042117922750602892711147001383634385759226322046421114238968639953053746574661106685930179903144265648783851842294881939724046812191708084514185774559946028506394635585958862006308040176411757014230351054772013641772042102258970236459260663516441817186105744517420146424520980147480848
90 4 0.045796259136517919939238909878709105446056803061012517348496549007431455777116235558567072286537691937708681175500632762512504936008157817348939003412797946328823122543088755704130925747276782144104882012198873513974578562561459710950427584602828890882523265788238776354080062201596285117494
90 5 -0.030592168584448589815907943999391749233026927987171244064981169104605378482307462067585738182396406245597782011970939954437418380564493767571271990319895480428657451909108655790909917154287536030848019806094263328254784071119692340987500604226133624830468240705056426813450323133992893028783
90 6 0.010123807767689076278707124691198283699662595872915002404761733220250961972644214794095079972663594867150948730771497934602270826624131682599219444056575052946531799974617029390692731284828198037540650828594100341015724592913688067242658975070076502221675283286809267291028597843385249542952
90 7 -0.018180036316079230753295567705456138822521847334403396529840344919434435864708201885277037062201085139718990734508013603329474236586353763263302794961023297114206664300403120910273424971031048712510580338768426133192490284377911381380268829464272511725378030760470447468411495584136384950955
90 8 0.0086018081751419536570894266400736979923949794747636668534445731529059731536135115489767699126688330863093668015360541301224686450005369182506341350464315908845527227511953979109661641989637820868684724255534703096691156281470400206876204474758591382962418733843623125932269673371513673784395
90 9 0.074420425806022488849455759412904000816568515125090153676192798554680329566392835067117635087814671365553789530660801692896794620379524453444856784207281101765263238456007170455249698625070776548412896696222595324501262243977651836438883677642561558721025454760003496924316253231331463170052
90 10 0.024517654689225827545253451374817330232433905171442900282168246018804188369970527032064236888641609576561670748819598169724258628802915099277121890197846878268622968322061883195277743648603371246691964195583936296530404040118590526264232577663713392938432991203744953790512311448699349125934
91 1 -0.050100989249180953286110677140324133985461406230254401672809572812760375828489372420827274735611473202327538461336782923755085816104353279997580533076571555728956408346921176985677299931048737144343153108071844183190680390262139897911876421901015639275342097551564883087311052826131372589691
91 2 0.0060612153033008244680891776518926890979201881950013056496104048833805894332527680772262484450130539401753889378110295146457128204053330101174660443183983920225137909901362640029108131209548584466835928138236144906168185888401470664481349437201269306455021060913679073810041721276776253884469
91 3 -0.021529139478325556526442415059795085675991800729504916361695397567273871758206474912890056589215218908790477055633137003402022416380548018562426656062694180016514777279106710891858253836547959263023561347082528624098581280579446870565468011085186649064649925755384804727886808611009768294478
91 4 0.035480548104307534359528816126864568566324714749448507421623240977741018038560006650573638750916611118418185482144117774943442972675758742744601138343946017843096742782295573431358043097330454799758277198499908722440958133306998952541173619438126931022435372516681543796397792433895970208881
91 5 -0.012763104337032246077881997318642376188790869819926571913421665352418275375701434520454769515840756928612609195348282372083425765430474022212311250261769708011865692369916900575814709261302001409750186607843234145617780319024046046720284068540098678702044943192630514991246050698885863446218
91 6 0.008824755912706870284130667610966982831665719687839502876731989507137048730999467624682472410069630684117555134203421668957680411792876614316288743912846388772004648444130578329305351579675757311672356182318569532210254327463308421135618552698993583426101943605473119944776766043076396005482
91 7 -0.0087093195498058976105261998812532787142901317612295733296327381496491155885873505222482085995006628058335271104345563886658673658431359848861112147953448019205469288234665682610544744485473017583068895735139254898457116045496398672083374752424950464377098672650279970278667161494505838339755
91 8 0.019298726545552997864329853102395378590685206500147475152986067154831318431676135132571110518762759972764090439879940990141690962502669507834364569181603171155529814515562114714205704243907767230357030317796730524834986953615614566154919640912519615641732319480178783220629540204388679659152
91 9 -0.00075278512934615850353975681330788074933302757666037613792595865873167787063216762252863192563685838280375314493195574593666753772926862728387115619449523647811006813628639437428199345243708600821010065117097892748979830325386944674134454997474887591144469627191665509357146870266461631019185
91 10 -0.025647512098030902548511569230100508588174294747721554818892059468393362039884691806579715360438514839682718201924442234148838309929093888235769543488542262120799770842397644095214210707412080517637372520781010701506168311561574929972014854950348090161445261709424356733186727581022769478708
92 1 0.014902896669561686066484825565044457049862580448391601574376676973560431289787013606715350539136884939377551753303716581969600205442486117424502311548305234722912801534150009891583680558972742801746338472810737726950244641263395135703794785290423359211636206711421908470964525320779016822663
92 2 0.00049440917775002198669388313886592520273924831186021803486693538257961143419508321518807327381559328182405491398652828392775632821216147027444189878121172886468604532285340910393436848282331141860447244780385884008837720707846882066804360771384640480029953408511210543088840534519613842270553
92 3 0.042984992475548911870268844592490381521371279203686513576054880122280076386813096092972008333440724135161521608553528131744889085609213230379667046356569997649822079839724522829900457186813224514845938650592828069942953188823550346464100048939683098984708100968253094445807706878326255509593
92 4 -0.0036165177049126572008909279608043247080411380087092771698543166207435566586760068989606298462013148001902331588671092965665057601980067038836010176223576549918173866570940393191110233910816764803117865517917443949685167375746608905734419952906865392882714829268137891115540918819023477127955
92 5 0.013647099859646304772959457071972775846332189967385105607478130159166570590061330593038507439508666604032416452087704551230095179267030731486415957430662808887224379304095782695111032118845192087443669430955003198403465659332932359297617110704352008455261162636201239171512474139542054054509
92 6 0.0031762578701419547980959550702754517321585635378758110220423844687136467559950317958604838499601749476095512755770405447204045155312595619435231987303414926132826924898249333448567100751392214241283048528691669853170849697190388835340426246863105261689460650698660732076032393248536215338261
92 7 0.017960882081360769177316434814968429638436383890750080632641017415359519976574422439989478276473183139233581437290310266023359504850169923504265929203957297423888477661303394965798136082208012819322725181486065321365146181440578252792401620099240296035278331264723601540435594881373837175266
92 8 0.0061932177603204845552374542375105765041137502119191503002269187056127292516606895747742010820288907795681176708677302454799494113248531457768335435658555632336050392545520498950107470011720735666362310120790038428774996567750709251094803326106618388819356250468097858167950463461054221409053
92 9 -0.084014690471813191398775691155196562149908172611460069760143847874918710617775533866045212656261769700737044974274456949042463324795118007346010300083578828436930045011638305437502719957783317660818617206783069945575477253883736183176494298638565136994910074673567869081823292826170594402002
92 10 -0.051101123760280027701012286504764995115256131632306616032589081998577935188038008088322592847636053402619484222998720235531408261830474864494363378066630192868020155897452102226652818844934857089581462222794411190505658778289464791883142188831527704168731320383253160227856052898528066781084
93 1 0.022700057414213999458399033960089470621761423453585466866189864877460333265066278477971834947504718438621637719854455550073215278739529364639485365011429833131046613283756721223009042073693462837657760680049542482964156413312070583208550038778212132547348028714591721871040016597032107753965
93 2 -0.041333603425458449995215917331461722069592706886048432586671169840977264746101651696338925062966885957050810978897567904145220815126585210232394816828274854451025880569114138919967859263051190403802241169600850630863748180111317875578146433454866417525596983447941329133782535474045853881348
93 3 -0.017328911772271842789354230334089339630535379034741084888483622228368786935989578264148235859630138315481730916040664836441429330728350681150606830326769366255894650304659940361380132865321923383877430949826320950603226813704784082026599280064878189413114061345988983825322636032526287397349
93 4 0.0056012922056211910357623582626651449878985127400740467944109507920992310613454892901395586561349682487181617071389706516003564924657875270287920260869603850592477405611704787817744231914576124345912887627521491876509835334611651347628360533454662140071381061773483958078083928013110246343678
93 5 -0.017216448258401924947368728692330242821311283728975581958909883349915556426765866430536462612349386950648514724478624118648689249506070639307298823617933412247711631607471577255025156691364920754367977553500567262774707952678767301524815854175639222782770864819584136261999864033255006117352
93 6 -0.0054843521665984780576393498107863434949953903358208516673073628467185577104390751919622098624644377124209673326673315906303214134007090200980860420382540734507853145211586453239772930378701038124531722955639452414523128347485334590746405908459549235643554370462582283894006078718843882579117
93 7 -0.0052637503449569451979235071376385561196314639880559842026376219758301520963541916242544403640747466106327529677696223723355958282368317528271854032955962364763126744432484900118906213601972900727384774260751046184450542476288917749025864883987367880357725720474222129512229221063060449197393
93 8 -0.010674731013760480316596018769139881806758819678507467865555848477057608008995897235690883372315669573665165832192226555666770470508171153295415666675293036667006832249006067043575289638873361546811866769247139570906218809519466841676793484720855136915842826924740688931318765641634247142737
93 9 0.02556297184627143211989846539688477061170436517159363622513987853802833433010860849217915247614581634159833986607715263973030147163593807273240672168459325066164876520866410144020313959932815348520591404552889906856967583324779988587814680453043820011417786617243630469706306854859189430596
93 10 0.018314233158287929687853504576769331334498000788612256820272253000366796954894254141583001957475322914770964372353997661796275856099457415588483886295048467643833244442292207332729759845507184744775554530903260896786979760717538173204099316224830949745357130758097385746545820906480215413942
94 1 0.002182908548167697874276586518410648968346665843413089480688053052252015942487308052054187502127815462683273587117573167539744693474588527613899494422326621196628451817952890646275036781246933112308572284007027394851624153741925912743782101080168368719753266913675617975695964829174380553736
94 2 0.031565032706118404529974071013921231222804620734300069810223400198215568718558750927467457572645331619433213692715784035663932723853658800634138324896182416670730072119051772436024160979837387877161650747508142423274990089413538730332645585524946278103941332869821049006812498483586024061577
94 3 -0.014554224852922048389433801848975292475122260780818838012759472617870794506286526594792407581446032749882705299495147914639809532275428498995193828801998797475143814198167567089699736864377626966689582054434071505509938724270353338206819275384962496010660677739832837941162484940580251241848
94 4 -0.051385279871425646889288031256096183967091715027822330889136217075220994830394178163592714902059703397541058218400076185953913920450216596638947122023771996327426240235622673198815081270611085566697673788427943209289136948310627556559762071670328164264373723101994013598370143607758512344589
94 5 0.02059332567176939737147333955733901677827306121017762005310444094071783522256422691754539252356464676272645740191042755809774164989050824882139492875371351832754874700610887445775301119190596305672310010335451231262597414318549925547204115243662503258087692804843788759172631391452429869502
94 6 0.04727085071803913676272521143721159674776455482203021641810530822464818771398361840549354121916839834803546424464835888466240362182475853734406105166173119637359168199726607954855634783528503588446299197614931298571185329283355777973921625350780120280376240984839681436046916287960114865229
94 7 -0.045847083780709598613905622803156353159185735262977018685633443624510690390078120900757231790430066319662251493523817760117781413757873726214643426742978331243005866726408803923485722995595642163430835805495428320623371956650158447684962847350027135959430675481661960842211960070692981099666
94 8 -0.034030632647064916672065885366706298999462119403935504113584706800406909577380911850013989934570787164793534096264036814619089494068155132394474605404708891385391810192448008382617904044222976324801654129571024998837128645206336929140881664095018636902230474314643133664314089837082813237313
94 9 0.12450074995309801534760241366327849810196648043316107660411392086798990365207548665171716099099220996228318054082867491808547416202827790572290791097707308923865442704852322751613539373223502335873104031766102952766051481559117510220091677493799007927153862992880357428494912566756892028679
94 10 0.14235782115549460614406301524987519772972020684844562396044475718588999874805371946583491666487123224584264564140239668683786773187151683697860044900083214680039187796457453519686419065307626182265670366879066941129994985087126015479033135159915909684581123845053166217055015509992038522654
95 1 -0.010110324827643826473270868120250211666055150895208279383908601304204545481648556303220495042147906135330604579714146984282662014888710588585536480972007658838687124124358314854749483081541478713735349748330934597340646925680482732032812848575169013840924018469227436008316306140583482360443
95 2 0.015065919037134488359492191789135291970734345502073394069679337512533972337699911823010759033370851500503725319909275109770840079208179028784337458698787888835019618456866934077508944374290188116125313152587628395828667923695004478291235939146526029587079710619108858974213083985860590854001
95 3 -0.016265036974427578818924152535523461090601522733200873581874677766240176160380370234980833796658390234046683639333721878301324540447046948835314775679196901714990709598648214898659988755590054377448735289806232259949718142274416511367619530301707199403518751315692737338189612295160599781903
95 4 -0.013082639562497468771322389306481497324385060813537285672119254247028904455883468398068847722780400618801655790211850317660632423046327572216304527292684562303706165972371706104135713514911324760054412836277242174950106249496517876933506611493564447635427581080448175033980819976638063596504
95 5 0.0024050378503068033251731086252462854739985594876829027160548777563738698965778280314259501159720046459079244582834879721332032966401733412158004031316912528602255351119756639947940591206048395723424168473868267989776828893328404359455437105792261348937241067447422133814470317599158970824744
95 6 0.014954028269995084219793174616895073888362866569293633636271978388754772778877542636102907998930878826169660535471840397779410547999769894841687155251231012437349700539832613656074752293453357649360835976767982232034677158275171641877086197679650860293358413316515994987955455793805367040125
95 7 -0.015134718477707377844601581236176318432852769939279230718517844974293832201946509104413924534588645243377980445854328656068139822510911741234897545480003711397554188144369886499947947130604131865493302611530547236631266450641798414210863847404756011798670691056037263483731145924767813812185
95 8 -0.0031761002633032971294126663686852584490642391680394234606825752002603722976468194196541013753141750569468665226622471410056915762925671477112353728098214911970814221283445286283169415343821520736799848894669679830693522579145044861008429717693340718850842150989612416097059738934688166366021
95 9 0.057543299537850984327378780785645711462655219786417116351755222270890337618100006302157427802452143857267149256509276026198926710752968204209901375659368810297344465137347405390751773729711696985261365286997981708600328094846054030353532134056055127369799033053332511414098232592478485131507
95 10 0.04609925185429038436718903418470527717225507338117380367862505986988227882675170144056903206943905557403236101390183818600624664066909570025859001782548804458820813964038977047195515531145257273849850820991545134309027760080215686879476464150677701992317431553979578816484656128107384923234
96 1 -0.021103703373642471190326623496829821486642704785198551904952952322475041359336807475236084141746164100105083578661179718622513995780052550909795433614937833085797252414957377849463866274836776501564493744454815824515825157245728830764260174987239309503546451761057522567976841380006298619762
96 2 0.022078882628195177051352953698318747541679241783091622410252229517331552652691506357546077142933999898268752778187037776196116328279352960983069072344185687440294936803336458392422704790659443329157706805901409143228927056157700101703684448666554207012102869515917894209875373990463896574581
96 3 -0.01206280556558338501649132275335046647102972036561712368719416200138025322869967523242015390149820584147648128520086638886287804065274010738113587634415116883776527623322782194347326455344219929883239673329832890684009856216526327977712430854726763152629138469258923814549629431345328716252
96 4 0.00034979346784819138966666224397942346742092044225772471409911058186596378726276401699294067010622108042486330131444324238523777052623540818890706254492512344935698177435037755471038612728750803095938402502443893173430278036353351543741431102168792197633621181611139602512687380134801716490759
96 5 0.0020212077951944977517697936679754760407510730708826891038031550446150614618828364175202391616665660841538842657537163542903691120157334950234939591743420123636847345102319903647852994267647466400293017796650320976935873155004223351265229065849434011930474896246737009100820006310686223375694
96 6 0.0084262172691725938679807667710653408965783587052640478259332287833948390977061635610311881542218521651019987701764387246992192098776369828977655412861227521986511860230196033794386695592210444628826841748983106569514090145955631810693844588068386903710439191462857197602291318944863538409034
96 7 -0.012388937112405256126829927553491528995519656704458843614800091034677818146965190617853939527026730695727224189882673369200984451205272071316766357252761417744452688734168825215977776021627213942906930737376061155554153756001045113273623004931762753708414196458312438276872616918099267982031
96 8 -0.00078824825813759169595643819264702760641461261880955578364326038297142734408200141263643108895517006607031617700026021627157474056123399672654067485976813826537330541689762054342403850468639572263994076560031054778740930475548854011995954509588408670121040929608365942727821619632441774185917
96 9 0.022621294358921223645129604213232050632243406640405306429267729690919320595103953381694037701319850662933251525288661349445736718443689189502328008133876195966930899401402703914093544324106180128627569094903749609378151962814525234183998697145431009934356762189038249169115378663014688179929
96 10 0.015159357120930967098998602937410985842034057340392903932017672315314455135835167825269464083209370479105870854603358003961225550038176206163604562130492026774756310447386003048764583740806297241486341609569979585652529248042541347188520276281900486149219475001015088464196974490485375092884
97 1 0.0028108504716568953936779139583722257615269590714941394623165406594739060270657320326505518309020707712128326218377267522568498283884909908910671898452393599675026940034940275807358298675575631804451312471876987630247435569901827214885957447839022705061358443740048199120825783496199082157961
97 2 0.0079255887506141082595930347903943571503335773253620601457031247684721594284466921952317011000271772229773542400508651738923901259136954223843911196316195845849137596125751387733389439129763145290539891533139019084090177724227375792364652793239449516620910552034976308847448861761997310823097
97 3 0.0086923266026761846856150192272740710565110102493818310266003454059550265918297298401500336467672666621911531489934555830205704357812016263502327359320970128096298204795777612926837959474395114275343588607058906861310774596456559357459587167274199455759750006046572308309499032324774516071013
97 4 -0.029495875128133950450762402443369913614889015557543358461548137170881569319167331229588537224800393483760148043781163948263982685572741185661286279988950209000557368503858302999851206151541370182019925676866854549974416941535395625036286800220974067304981445331257618462478443506763940355917
97 5 0.021482570258055219473634371395110837863428716270055630561190834850596838032118078648757162982264826858599947034214490478724697358109197503205350685774920916505562041782415016974602939985994215900141925074250623595085876862348228852003405605227557208303276822165721078440264018403221054645275
97 6 0.041643228202801939159646783251940859210965255310596300591916799672347278974737325009909234227042417930666672290438424346734974498105022535433379519566686262612083775584448290023209809820272344621450658960340739770005730880556963931141781930583090162021476581808640976188755105805668750384287
97 7 -0.024542370775228539050667182205074078297997752420211811817003717195990890466207773052483023330370592171977726065259355503427543843598649540547866341916922675404254570541631104419144302480622513167417027627426303429217733372904515511860379528381504228287087612094231952594909576931594615138276
97 8 -0.019296681062072206315161916704993099789250371084615778377150415352891089128229751081612225725400888557403885098036966441800961670014103416974300101369651574856528377388691010133837178458426183963242351284969437792327598182215859130917608092697172489719035838142592360826093739694159253431731
97 9 0.051626445496099115756874775055248830430765266857183015957480894519987903279806905696163501869328043300598890980985718781212912726258822975852264899713618956176283939395818046523309022570186129693084334362764480903107949925441739475140659165794642051322678980113998509438072950038474726274365
97 10 0.07762193994223146313322632770243686533324031936027251587189101792482754221248140098405810361433487192669708093725558152174025888697548954058358664286166260498460196800278866155059772513233821940131148228333696241451486613706709440747228004506417996552596650214598007092798793514867039714301
98 1 -0.037094551885990829196844887466642474937961270994228150196188095343079903951300888774602563634460921740878086999816946969899006089949859328997532369836988862026293537734645101820271717625782524328106056690006385338737646078388450048774725661721807356049361174435363204949242362221384842206615
98 2 -0.019160787910134068970026764427343698961413502876702621006331418901208650924725488864456435240254057251247013420631845187774265732099114354263685888369435297944348293215937734747792134814137709628754080350742669580892319774100031954392552073844322275673895782044303028032024782361273849577422
98 3 -0.030860428706035280976200454722089616120097624321204019320215542669560970865551118059741758518027234172660872424133342530525672949763343666664918972425072016308329682828395572004465252714156986699507382469846408233523231544842617913752679044771736519701090642462186947291799887929071176208538
98 4 0.045358159099986636006919219546776000266279879085535219973040504382541888747160997488285704667300831097769765686238632609735207581921857787555932942927440744075206901722690881442776994172276478859193175592254422060819062936263052099986405098975259099846479663114306475715783020353229573772282
98 5 -0.025239837592108217058589474644414515444925371954460365228912263487939216200215679354761471084717219771899836320920430111758859669946777863002427918741159137200481878543081750802828258438473782346224313279117594019007291598027013754080449906588231312271051174077970483465669089994025845500217
98 6 0.013973909053852816945673907711986754502502953910652129696873084377954114843925955471700856899829440625546713126406020873123073772818739899645386870321054146992917159002185985792443881229432416065102893130613219074130646806599420127280309263301992063530615595112106870554171471611367939515182
98 7 -0.015426205467023423901347677403511592969417298881476193342650118218325960134164009804538039501230141101067916883897627469039339463364325757637804781756211540717238990338389166627504805089107517026619275211014597936161154116426278227811032521916769733115177779231649460796753965779375710515917
98 8 0.01437336847198583956162094057102896023596972628050466058455917503489368486115109441120113327337425660193216195138151053031177241336061187941921355341517990415087130506898031664871520085774127168933333175624028934838290625560483960557089603418937540506352462153647559680909509700242242500314
98 9 -0.0060306833386188777042863757743313467263997679975380317290047332913152598843618027901048134802508075723402991945844266555436470418120867312864027496830751696023403033965111226993167833299182380079106573075916694460835922520567108555784745657169592778110004099573263233529184024265170760289243
98 10 -0.028486298439042870790778094850862225897757670679539027984721672120496886987971696433905658011405639799093176159532103022790947302067310295067676677557302160374033482742150749559625576342190053422848089199672134636513010551689518920520189433058088665541608680407849948330687371440564763491963
99 1 0.019480463641765045380810823447493084378288342694375155455668372675913086107419135139005024578280885012677882084839921032395597182237200554932472880367896702996903364975220687497648348703671862167548403778483512509884205443549782877835316986048375552842705145988204172301194816795530137138009
99 2 -0.0081300634855558984122584891186527541466656977556033124588962338220329281522386913300969044276790842570593365754002604863492802420181611267299958936962575781737848924672248167295402735288794248259207015679210710418037384593642218048485219491550194427476448869576308635918827209669768029608513
99 3 0.03276249881297345410913455860081475335119633486370436572629128864730762584420432753193596203106961963399265989128467477213409456740427481245783896974017193451002923559250418179823587993418209237041466531544283959881572104651882285011321022722267656895276945130120297935177891517483306291455
99 4 -0.014314217532575709023966877008359447873360554563476135143964280074874971848487540121786338428334208050735810209446769219815718216197580687221279182974290423573841332585624125927685600131601145624389683424208314801009145646744428493958750827788423986099344172440583751705713263504101952328207
99 5 0.014684019980097181607713837681590093723621814735238774747853635289120046963269672863391098967752991959012443866910295364282630728520941311722225137525621202140682644402963013124940416863399468733386617782391771395451038033935585686038569568264418904457826264978316274779540743783272658668026
99 6 0.025247208313855812790142395795564584871775685924804883459762143997244993275633002239861784407901461152753992634984548656814092531376233492536252055089564617907839618469404153757400837753430756650640694276073722785238028255215795430976648283751408057965158665229285831493240311337203246286331
99 7 -0.012014206084233395545969206118484178857190960864651063684570266025011458200662191563759460954033988222325866903303282068524661464954488327107469489591564634691556607334600075113142050345813818710939570989948072217221683293838993020116789759850943606934624985481334797378995859431014384001061
99 8 -0.013135018556811192922992070523504419900414912736740766481967166008679921601752358509353328120628320897237903328139463428734045706108715260367627903829898531608208202003095959195101470882434630143527551033948617934508558545566368855443703780514041747409256533223658264347707705745205124072025
99 9 -0.020002942082682586813074627624440384016289813496824322806649597648134594478244330581423686703605590984142986956919680350157392470212425687016842820092211053553455477887516501108101526639995708350728955890975755485661490503049934497899017008777738983361247770498179986466911180069914912576915
99 10 0.023972243408213240527868033845912500707833638258677344553807595550617412200432182816326398650042989318823063766094068519018302552090883457620883291757699387808038799372021752497966686943071130938831191573430456163122210289812609356565997816151485539605886873194655506014733091831365322664548
100 1 -0.010791752225030503993940257381643146324776271645397214042623219736707666656996609312589420642623019410749945044646826134400355833214763838407647049136444046031024088856150457510701953444970382066719889480259041707136708313819862364089547977437202163474304156444377471626696616509027588927326
100 2 -0.0013581599755690933455051836512647111088848081001784680536608169560592494903539058156455689903432360950120468119213193973356002205535734048869509256927159321365167706963361028848094186992310535929469616878660671224424048260268427838038639569788818453281340523502605800343741470827914693882201
100 3 -0.022466432892250284677789511845390346660715164330215689129368497328336418977419243326810931092475820530583094478947430995087055504366177387831368689569835979322882260036751095177980878547088538922668696453489020922782275167110657688706692119112430122915196891010856306282730284055896292081019
100 4 -0.0056550156917276262637270718424651235304309321514758017120706426465870599725622288540763081102677999733552644177005162541947762609810509502956701340806599840631000517906006456914986783156785461131065780038247402020174356629381431603578904929079458959096274944918574688521534538734611490156343
100 5 0.0057208240956206523253301765179142400364184561999908720467843398520066643072097477308338303069418772074675889687164805059596125617865850641408095346336546124514167160307580463999489192857404803991241236596452829051277725437239541819368139123140931383171508381824305083232389188496010515165775
100 6 0.034373411095502434103189825409570900930421630626623367924465917290013507452877719373341934534288994139994965268182711967619243989364739111606507523618985492025219830321722994610276708810451078254801528932335397082917520404912889415007543268560041611813944438690614946174529817654829603272954
100 7 -0.028041143169226102297434952839661198272841573244844233507376614602575169362356462981991501089336830144342699601590279862023826326555131870208903622573212218667211079687424225109764589769221671329769385166617636211625010291311016345564519674275186293875174422619562111002619566782744433238785
100 8 -0.011717641351559745602894135978425882358223961434781933525359807167705105775504036118295451896712746525655388985671410979835373712259396588255411971811690359568834357300401226948500683227857003903008455213918627427961549799239916443397648018002232041696599213350339772434439251859693300196485
100 9 0.076143666514966768979172527561808215953873990538631108703094494245325132009913503563867704003606950747593258932597594152028891014588188629560005811218632723649296009137825252064201412272618929301795415789360056075093273230003111503350732221073439355583093807797314492735917825713913319492182
100 10 0.075196873517525584318568060029023059686991842840227667950475844677904207383388251773949968069074002749914850162657202320110390769430992183461915619169899039396414818735536389082393042301380938290105086605082123219827183091824269605434537412026610646844417432186552229154450238294036450051541
