100 10 1000
1 1 0.004976977547780262453672169331591818986280495899778536787980425066045254374551292708797996603143636950028878336198935205117112365128285421295535521590548898700063670600070489003152238243320996185088151047392894603766097586937826855931695499657401804890068171110105118532403002524518664052271
1 2 0.014586442079210350401981897721320900441995849109235013443657207352604545045572596753907384001690175587394613378942722471368005557767065096759957821532645504824963894196331224308740010956635343633435478938392570535391880355575680241132563713433754483513189374604171912075183728032183947310161
1 3 0.014950448744011373409134781379931724201721865490111443379671489478311969315476251980239411798727824377465808837448250239236802025227257675714961610690727927931955810743641293024070510922998679892523414598565528109743230283863961172209996063105211312722074495756515724835739596739551463096289
1 4 -0.01065664412718632522682976500649113209979363423578610949709224990088893427813381972687276470661748986862275899712599506180788119526408420273056379423731804164115019694176815906301307570238177417945366324645083922138484542141817619755652560470483618294650577995881693789747637822957676602508
1 5 0.0095726740477200356994823896595075169180009755829292678578943187276154107317809529284790624607929092123175563887620862084774142195921182056850429951446238049167169539169896261507161081656297333350803469617235331465763138662502346001800372106823809570686367367672631251618472759843075287911082
1 6 0.0006935406421657090026383819629728504792456846030408027736185682201117359966209472463085413281805151550115365978088005249265289660140568889893208219793905097636751523461236126042444749572680586492725095886664482885477930684677627442719576739809367489652293040601062196143584433378777604612583
1 7 0.0027254658243392836871517010406333666013691543772615877077299736214399755369690629809641821074695494481623396802518979960693834474262719709607700273693059062035112985057860834339820975175721060963873071357507271354490355777709790368157106380383228621842747683281517315592835129177067527729249
1 8 -0.0019223432274644971697042396503537841419815521089350978137819434016064907975494485693087655355394084505394055373876642269190237301782546817536970366356034162810857334934736807903466001000049276309288939361223868653282909686474237838853451845645314452617747370428253025196939112874012074317366
1 9 -0.018369545386514694620928740401478644334440481213792895650868041924906710536334383499759984205671579113790948483177426310409843121413192538473101071824635861131463929039887872572044631328771671920023732885708787369099492237869343649332202950615401719247088975322349287990644359528227385831205
1 10 -0.0043223754632398071498829134848757482388543707753055878809907841708847056216683099921742416351441144543961244869199844008826105997884022124826831168807263556982955529557627800107740009385202256638123717248011189866093395978565170925846889693950064638009581693030733034636575486052576939136148
2 1 -0.0089981153651369550620163410958764863396107278639771469914780280764263162569563145366680138412646560026484045531082708845489546441880891602440193567569865432121785667074336422929676094365907491674439897013630696280484716793664127797706194511348458284030703827093858494573427449973819185569798
2 2 -0.011858832278475295176194488852089131943773924486461660393469708792732040761354506251284388605249190705818058266071437154507177833797833824908066042014523226696641128238003339947526916219885998074939569564211847215449002175815442328299704563713781981404926476513652024204492056464483713408897
2 3 -0.039090253662801058831056560066576214916150487125703510527200606254684060354610344522746176648103770549159366950603606844197125715440133943242748828935980732569720060447216208170134600548681436526936802785638231364158438097163261800537276149377940938129885877036023555221699683274873069305074
2 4 -0.0069676049527473522935499700257628963871225763408116401987526112208159925753896020391531728726839219310250551982248940837849372705565575755103450593698720092383428782392718456031181762253524595515931834720926209459249265890125580637010071785693126889545014185145939498421718549293984687365495
2 5 -0.010930786179468865465036475833641563567841475165393846369139744253464832792079486731395691238583465043214962973969952518895484120053453094964044114940717971039900542866008389833504130571530798907447367193930222843473538803308612897432277994646634235635077368540157188974821314537912741514129
2 6 0.023595779812856447438288693896764859153507798175347382207250786300507324327607885119891210057451339840442862069787314058052265291156141106388738411026338504068354861088580462848785660465228795000039472484465659544087342660013860581588658123120504825193273431376476712738461700530406863369842
2 7 -0.035511673856058189824599242429846692238165186776294977208169441362231900010179265650995928231092693735052309885669617206438902657132877857947564740669189557954977481316485480265677089142600767985445831759815509185140568577200785040897431350527493456430783604422700764276544061883422691300203
2 8 -0.017083919422222113081468058684701809095617216052964598995008908081866872953340732529329447392517483191799324478552011003006994933040997370781053390380510759454837713636104768753441874062299693802831815655504052025412333004937167089593746403883468096263715053176537582826364134145709696621005
2 9 0.11056772427873677614920829001537846599485966881048847693500820377038576765085729297290946682961052518099808510286929573489936329350395742120587353131693727167554844788349285230358637792135530449058499257033349119148247811018406838085079383891845280556146104569635454902062655238525192117253
2 10 0.092481076125273780116233159466542816410180861611982044558241549531386572021481401073828664557498949913893592444346208926203897243197696645695595166440792386831321944206356318694706317066543494058547846721544994356359317316086732435260626727944403179334520759102565960023982503286958792091174
3 1 0.0069606405431182473554267092901493439117210162341131978353109996110430116364455871221902466356434433203547351515693552333281270521505392948187161407347988526751987805844377462498945969878572792783251845111758775760101542530857976925640964862893623163871267169108551368322909386058853594379682
3 2 0.012459735812515731514964078318790647458099407754740366607256519738645987116821405747277221438171579454487924318823866310487604600598491946819370131024982241951655069946937270966054815355686336227772780654331931391937428559713247568170231353735500821511906926092924396892506320343168593013342
3 3 0.034944165151254043683239543900387083060619442342255154887806001126397843590740873924088671997861275388918779721579337864287770485100021797895120181468524935354265714631668506027547151014355656380348881266053359698196547329975002249216378823230958452497337315635054746897110170503958609627744
3 4 0.0054180366008248425388286755534689284923261269075691085002991435231222466153050138793469844244182597079805102601719638381430826711529534595882625908925458850603601418147881887732533212029343711725365204775048563177593627329222515016881761581266500049919801935562505345681885827487848314284384
3 5 0.01021990866988431194745126656846553812250420007471615270435175848234757904190325759841537740877187159865030488072189741360394243113371632097052102631392806507534842337161483383128574394399920013613560256732144724346281544425182099173961668980801998524028797561091668867637008365247642716807
3 6 -0.019581542386817855369160628482969165159311859008341414470072778418607183413437193348437626122336022749554555452219587967046138983841790423885618369158859802074306583686395023316116164827571168154549803479796823761322925739414179941972337194477865156158844529999304353151397664248927244404488
3 7 0.030214566169665866584792869138673012057086286795448039148525038506643711604166446847756258566415454266530808231652875056912014767670735614544304849218667018762386666669021808953835778040402853293761256962477638584669262784077992368373953000774063888070528579873043508593579634201596822645744
3 8 0.014774696437487821542581007004836145027060793901296350400577126758325495351841892176647883577993935534397470165886717741399709186695371937960055780360015684616142843238011284168909894689349999846711993772361649006041564650729938553841536456487810008933169021996798461449048799494416432936172
3 9 -0.097203827803365370066953788517582896182555024068749241226058179343505617374835361054059969557278364063248153538230710819428282020370128092879309345621864620738793388757089419822230288113945360968061348054495284171133764714419998206202874969017523327254583246869860713885898853077211215869682
3 10 -0.080287124247905502722039758811536004447955241888321550320787444027814496975091582222180147976789152044602584558285594761307415826707810271183390272070922092857851311473193391751479797178053951574243733445682740500480108230489057512175363542927804608621006554832345269140553552842778983970227
4 1 0.00010919925982670196334441276167400670685930497365140531592399634315402821871315498945504586977295747880140938546086249163746449841968370505610810940110905511936657500744292384645557060881891896435835876288183857323506057980808756572710617222507266755897506370795352881380545055783696181673284
4 2 0.010371629140760594498576778768201792295449234959858211421285467703538043902830741108536094777957435224681319676021454587749190091284627449053605561092846219078209413917539149193296517598134667954236566105040959113914556614979783169773051387462042243154732887539823940887594212117624328998633
4 3 0.0083309620199193765678150590536314892016018088901287099287862833844182304432617655212706544478124207516449294990479453598133030106922626927556414867487727740554718480978018412390213596346455709412667390735372782981567289694795302865001610627970021235605659112310105909628627768398694450171669
4 4 -0.0051732991329330947324686041736505335854437547214836719663858647517392561289125596929442997565842675662375781193743448092816714981082765407245486567537396402523879034701682221941368947040832194312937873054627026144458550189888025226886949771876603958795060790109768634419112103087086654455912
4 5 0.0053090563675359853489939739110516626982077810953123689758214899739588884554983042882743742398830215742500801195009174888509514131826815552369620191805778003297651127055906064076519360330075066236775286022278751732372717521522016686329702964434340064724205345719277501791427646436822771392962
4 6 0.0015415620106446327856319990902203021740704182379300887944236031215224801017537253943485180737819680646284245636161844068590285360812615259793914278751563166586779416774005366801247262996483478800465448170101371498134663368192423954312516045784821645658488338409875673753886566439452812025744
4 7 0.00050522628155675152609960211191381898813461906243017341587271500649892984886211649496615612599680664786430737300767326151013532472376541733142954689780269614701451225500904555321769159783502266046932055810021657115985167229015682218700041412206499453516688044253686591906888313690494328698874
4 8 -0.00042769580926108146397160490219585799251557085189366361149140080624272177212343221093587254282986071850328335458490382615880616945851996840359203657099289723203535886612298783012057676104584989208808129152791293578428232499281442266432433407120752037987577066340233444728158899362304351715416
4 9 -0.011361268976284213624425414909216818618170315873679609861711505718251229362852697575357042733281894313254263899260652361371363169867449214015379665318615160110807852139350894283389265703165425840437798943530696378071513800002396535426993780351373123693779731564455586627278551295127800743182
4 10 -0.0034663247009921938392092665603955363031196251724822804890572719094212635625947931216420237361508157366161660405272716283653682633037130847583616967998106098678802228677252740030497841623739074532877803129005479395313447821197699659942033498489970167523893168943230126989933547250447253484222
5 1 -0.0032137021658076392537806601072987123792129048909029640611221471390506042376296130844855506001144976338381556768688581901216725600518874326565934871009850487901389050871435028019745487965620011109649917966870437593729909755868135035190065969085641521230376579062220030388390117578975475990684
5 2 0.0030374540296674321693711065578531582894335766634945804746032133420843918617490937420079487044250575250140353071846911769981798675361357607890700619408372146410633834882560450147937522173654692385918804644573238346319605988979309370288011122064574294060334932662657979123888244622985506655012
5 3 0.0017008751313273926646041942245414961007764250424119502855124338841125655964158499369923414766447570453941402222554510990252466440300254788499289623510060245307189585244317074184457542868236109457275441545051009706802589632472710374444093600388974993598555388473799325636166023429930902071246
5 4 0.0021402356157481049354830229623987116390651447050870859152904610650180172842439412260853283613047553394163183572413440686226398334068945470947811708262826263915964911024162452405650677098295252355713762619769746155197270312018521419429847254976145111286126178366979686202068209402343209955867
5 5 0.00012653315030196755028656917200463852337189329453388663550308522986510753348901321174347354354176465332869382015269656943172720012428527793352974370454353084985947151769752605008019294671060066913536224091370212894211577310924667287734567287092197280220692669651288892010086143827170129877016
5 6 -0.00065000053952820761118676854294498640061887016452751689237980724743352087608677560753399089744431218679989738826971071229565765843859032462362698394049800432136824842053678660587194214954654071112107784662244461153226327107812259369044310753847772276347492185055662534041272707227261204615702
5 7 0.0013340655749815489305790635782741515699062958518807069016282035198021380202738787126228857663418700515695009819215949263282121775817719397241891385263290113013408130546022404863373764188064012788234186942295956924566255235587839925127099000194945315199084233727315993325324295844213347379707
5 8 0.0023175841930339052986577644716365864753106970720000565500455620349412627655963093105627889165272945684535222085553854246461272778327542211304445396606041346335808156434838098504001133043127452300206137223762394802422485210629467311793006355598191467713984378906259211345626545133963185181831
5 9 -0.008088216004417825040552304018843072016334731283070928782105256034498256724503460215256020738563286985440242220150908528894208130474042333631981812741226998329616673046486097434045239963901651316660751795166996567715286348849628946082526709136255510198159899870625848118973047507329180914105
5 10 -0.0080058132290500182549698373416928176485310048137096716126562311459576142026792838350026551529871229188822773530192114821448069146600793172771493448295520072704099792137526624732285337393752722947349512762860585833093587606485673489254995986652319921367762978918289027342920212893418324369997
6 1 -0.0043112143203418942655783494861949859215754325930781651277216542368521888382670833313621274553919153672928940411743845782689754947120343996543030672730110475947794444328070494082739395510623756857832612004483797105859329470300799893793766677976919881017097355477674194643393836446003722087845
6 2 -0.0021490295618392252578314419109234184917194373208669869175029987724189148516122401593400382919169003280571159568853698562974140402161352127814519710070614109163389575875599623790381380693682674066288959848911965314463054797807709222702815193109088385888785263871094102262728831326441859300241
6 3 -0.0102894870364443066804133534024241407489301935227590617972841459644296153235068640144530047968831992944517243961940534528777192893815425007444371053501794479167191697104988335589906702353056124068044168629874954840712681053183022753479487539054135803543824860179158426545661383212526363808
6 4 -0.00045423375440154901868458288308578209817191678058709652657982480327755701451940113827238628071820585569010213949514290638721964478604192931892566238255724717488330136152145124733893204031860939063240941292680789715913042150535875396093670148653025313303678968918720642658450663477609493555237
6 5 -0.0032231339570422803372050551142375736705691435286345097732595434937470626048331632466815346721033620292839209242564103947133527624383450623617994120160259471193559625087905353987035932402161952267555266411950138626460818652625899025015009488588945442221768602884007537966456607127944994505591
6 6 0.0061891581696307634589178130078535249564851256341117656055116529040206189869659842496665408812958389155471872274403732454997111124672690593688893852162271029894409820090108597616749919115542847121341094681171483470753636191458755434706076675571379772136808300510337078891052710874805207508351
6 7 -0.009178107175020360491317203911753584592735915016215611221135751399602571141732368850707954349523451465901748174042327880288225306784439103468121838449436369228234109773207322225430655779059610726583355373145636943292120504735211137313529984080027375633257654637496360085563782408215355102645
6 8 -0.0034325055819088247407064079001943132519497622048300449473853886779493650598688130321832789866560742591296341103340250576420262938749112466049066520679505530028477344498614161426681522560819478010546610489507206901931244037454159675433954401056383882885238655285445814326112441658014423725214
6 9 0.026703090653039370954392989189053446647073107089291458356208560331865272334458267356741268618245504402409940005944577126060210134895731464238667341476580906087257036435337067560838731848908832411247054675339198159455420082277693130021762634803871968461628656574580083110886499383449655956312
6 10 0.021392765833939174529285748057427500409802714541069467877180450118260919093311783936977948537629694067496602522297596294161844677497271828221930707919548690820927428910730072314963962050948964844676045359011048261115491235700145823939776290686293599250051933446824175212385036369727407608733
7 1 -0.014978669311331542312348789356191923323251919667823408117329949622008568308841823898358585188540007840196566485258045278581404203755078408690590311375721283819261197876394823148216347829088036406554251254359724053769251473547186216193782542165387233854625014416033981184378988221917837526953
7 2 -0.017494570768682100640660043731433997779048223574172353712952241394873613726579361934283076548048861790937632327976673634877432513983256257576557639184041321888401564934852543123550355766163111095936610343856091159704093309762439440765859694577974603810365093097321352508549693743892344568782
7 3 -0.042496275857146665373434210740018261505953673426797132923717259605360048096721058223724972623122423147814027023869242916303791218146818376640882827793407069631149353210164627036271924096694198462890416147243473692471712357195278478239340734040037704914352778455798787321115471745544836387372
7 4 0.0045121882142980977727328926805702085060582488136753770605938165421756996021436032547138376415229115743699075066393417016734336292287428273347338029865802237948807667631458361892122109610113859041567349624468465955142702769472807910713535733851427104421545007568603377027159188421495324565682
7 5 -0.016379517729809539401948630023326922404097586023361240622450755295967810516968260524582240506260121840312515045634516598859001156508096807965863962544408212981309024391052815625707823462502315405265021668469973012744854944440820039254328965357215932376883067966562975308096401114414557257981
7 6 0.018360130369254914956376331022920364441228279957979118412014457642700889488759259271641882493178255533337711083273389416483770776396860508321838103634872228823450460912450370936198859169738057019079040758700890491700010417140712384283096343291238572960050246132594546704095702740660846617251
7 7 -0.03040731736819911026857150800893534850879307039067297005044207530044162436259628551702406043207293432657646201067804884765372472139865020274473368046607094426602318313287692250570539993747246283109763038033770453632792289955898664771583943733905769473884016070896841283767032425476128455545
7 8 -0.010327666759529893849155040929526867406497653305107024610102215504107368850647682668213663277143574639816304149262650386913104461225772021867924540393552615690551277963254071928807031228236593626197918667808488522200162225226384707324561016060516008807148204665251294227618612314169430077471
7 9 0.098290152232276244872114344579357712892239464878734441490934637164680544230059829456497748477075074808143001897375745501864471604695444921982100739640033645046349838033081539344259892991094323381680434509478474893586467038953490575723368211588108084614632754419714489169008161140505055841535
7 10 0.072242536064015269215630618724554040799295555445848514501620076557374828023894700853004984322091131272373841138498204834221038017354450712037746889042964266311499088889588566266795556891731486563901197922859300693073959674424999724668205611423718342072299858724670946267144081376616384435907
8 1 0.0063190534146205420758685502076499985860986722441181653213141733992379119136357166979052667602746904197092539315441290677473458525380702115391442054249268885170024220182684617349283111646189751090494146555941302174655449145423783720058523094116740398995118072542215618325447795755401824767244
8 2 0.011929533807176040499296271805335842588315924842621902614586115337818661393664953651494842126147752767221562632644722299174703180426859611561676531174973878783991752782730497566193474510993779362127127253961499644837302228534159951481471830954790713820002001732579963743327409762319007324073
8 3 0.02081261853675658323833344124308443231143355987106450797629297199628540468977100830114255414635828167659186814247102595717281059712048538027785254448645498227390516912413904153008407554218827190631751185145609910898797529000217851083570090194700247765213583210476620020007414731027920402401
8 4 -0.0048662473170084760803397714569239868104623623803978677660062060344754832014180093852372460475477672236070842404046592034801523446673497519096656988782558286777075140174514411407669440686189606274716363856707028995209202687579947976896383928508877968573820698842709309249188751522722389336626
8 5 0.0092546673023531979382406120115766759934171407446055098709821710829037232182629408929437919603506777894782867431115968600941434622072179566110871432777109361735522097729320697847713060567583650427678746017531707848796388839637654823251760091894739549332493555476517287351935820623188645722308
8 6 -0.0058978327542122321445917695022276388345543222137593027966650790042907666381876632442814173827090579010028116920597852694107878877036464467034181738967370860928082670597275776267122994345770048468684799486581761141130096741227753607648494333579490024007378101956142375354465333900519071899686
8 7 0.011681712128902966252036139273186675172028054465522029069365945842075365312795308443125681330828522957105300376867201778972297193688499084723505214421659769513637594506362767619219226374896709594744152407889215277586833442392810584511534288618995930773773831156503003272355363574797860316537
8 8 0.0033630861951443987054382055035795422824905326322261752051114754639101439582468846563893254449267685679683124087439142560044216849916304846571389308906484348289438680144749990703128675741278285917230980657502420537178691238977183886538659129570039337111108715536727922390298173677367876653773
8 9 -0.043091565060681646774582032492568995237881771983153422081934227236442528322848500430681783141671770334378053015597852834633975015670237326031019919649017785724096143671668881818334864717756533651096778526911770491968213209230699406632587149310606968194606596209942805935694182300531144045564
8 10 -0.028497206026776025851056429234619240031142131915935633626061816400593043134179969025987241056865511974823219175259539225192701994978930068034342977592236181352714632133948682008790929362799654224590166264979328541251672003195794384458480844004426567424365394426271992246314243872316703403667
9 1 -0.0010284699779634407414749031701061212119295657926328087366525056229289073789636998472822352491683387513163272849283715113006356341278033912391787360827788520078449765959585444308669841216703656516825083225813891213721958147021277529942782819373938040995819793327322671635225127503448722029268
9 2 -0.0031402865238202321415505467336003575749658150386318777653151552080776173100782460518525488538232041300264260559539087013393218686055065123537440496255865319486707779750836514597944309807279998315275825132876237979534845178267891818620066705359815790479730226588799465278729320643437627569218
9 3 -0.010609975593854445241871561259315991843983506156340183116268521832103373932643852018263590164008581115097854011405730451838980677263321019911571197726972829740477272549981866288669941477366706711067583956402275560770982806621333937655872359052373137909791952658598972192945917077045410900858
9 4 -0.0038116753297748826239627517194396727215227817745152941461419364712504115763886458738402415174006157021844925308990698155357284153850034937367371292432426099567931253976838658859719952845136464094117020185699317294818605824340840651411185138950595572457296392874755159538341992848489438757997
9 5 -0.0023137888663994584999666421059192306902800751285471556525917830035834085140184392999205063342108554317225365962608176544463691272263002029512576765759225111702980183860075994056115329963082525793940263969322078767593585755671612072593470479914010603540939587724433337880944516664179947988359
9 6 0.007228094518096709308095700555833219797959666627866420132722313985643699738294359312620630283275594498401960413357389461027542529551322688228154505304245598687048885251439929583314019264852187825428288860054989312697701772904839012622493899496724904416647713890530440508202132897702726345736
9 7 -0.010608051893441484100391460467471026201065367807781635611712494648091161603708769092308178019209196773786010385257607612295480676788053605285356647002848164539934706797445453296536652001997506237366904894150648853860872714212342147224795535599218532471732942508532009159799669107480752730493
9 8 -0.005999653660980362675159640171493230556108299792185755688245559916738432132679626994373230501931597723786131686357980697501402880484337313193919850227344545422241309140438526190646601354317260655087659852715504268394642263350284393785624465485469074102802471685084775525734647992058331816566
9 9 0.033448887952137339179447662099506706111618805533958060719914234946170334793127203809476651156089966804980179950517407047637064340282613575096628626603220177072423651426431592023883622547277382078095427191670675127830282910623958280780080331719696387594717698985764898373696530575063784321238
9 10 0.02948463443202116964288435252307719014777902014098866687854859259358291949409368522229824315446701422564261542149563595355121158682377801596018255730890543816987110965982137004465777208531331347596639901040081849213266461746942502845111783679452971572627488880946903498337344910888404438388
10 1 0.023664347955918679170964887835327064765232432000184751177890954933945238847878770573887654218334596427724868166121533893257135272579017496315993628791112208895338583611856327512845265870684133741083323658883340802769437435574175437713706947810208358806217684880682078106652322085727822932112
10 2 0.027730752840708682985758500556573434450094374111937199411760325642252798885553742224416600504875011166322407561439852730478180786055543216476169919536228723304375062446037068964954572705515196070750163215077069131641801360117333063922755413530873174793196193312642174672121444703923235226967
10 3 0.080293422877252434952163513762863387908268374092158345924153087557224800358318079750133723452729819653532024120958497678647051712032740292715209780581653184164584659227561186521992992444764031992452091999398675837425594042419066368750952421208885116484619764429439889648551638765716864814172
10 4 0.0038038237055696452938319980484936610726949926608540877157952286495956527340979019187276489904075100496121281905394221567666496365605058163552890004292058615301663656355103422649318874421251330157364404791592685383976263388459027263246602275426666852986990128659291730489635551650119932126184
10 5 0.02625988365914826562829832324972296177883494261376782832153660395030312652578398372296080509014182428973566671472780137812649749702018880409257662092450296761447466969880465523297371058330879909729867057351900414146479893939786265765379063270580571021773655777957296526954997551267994089065
10 6 -0.042832718803544172572529989238177748908676938284791684372609279271984145726358000093959640926982408988488881405313415842828609227603913358893710953348276734454605086990463431117958060421425982448641149730798714936617992590091273951709090621587031705940493303243173940510960697728126259459861
10 7 0.066409869098725831254381824084601185967239333477823216515313133782448899044961683537647348505599422176511632439371272613228442136642237196963307403044103525033031049296081723263214118912544954782688392397024681295347093891094043376982441393681256923097046139712886289613757929541756103472679
10 8 0.027958237312553663219151675428446904990484422069970856604493669709499386750869794587733921064166345046269491650377989531520262557396253491003977894913717678963210125457150390492951181329277597263401482303812103993325976644277005167337972521906580509161032262562412943453676526155988629572249
10 9 -0.20828679540035737757043680708166663923768373295384212779241259176795554209176597315295689069168908267952296087690703552524486724321888843840541162700991454507722012122135548747531050074112569049694931347750073823270937170521923008827486756746861131156096414948350300581270423199063198583037
10 10 -0.16585462973367718186918592926467667794109151411500920285600561178315817497480976224706255873422859381786087671969959351065422581133968699525068445380822825661553819442093767954975298699883279845328238646014237544880471944170186702087570765993716278862156968206403725315202087776398271378983
11 1 0.0033957145125720346806542002254165437799359312785039757511950072230428241504298296753975658098426944184741746194021142642998851348174903441340596327229421006467082192722605386269583606073162695708795109113380859246083274344048748690975290037887386444893764324517802250781885490907882454689441
11 2 -0.0014071861192780850238032304244745815338648785507170851963143376162711766275247460694439381956297157375760992214545837510850687195271846679512809763745792294145407086676778024770944949230911933757369340843758752986535553776848547893859178051461996070163902179139369033017346713910549036784814
11 3 0.017808000120109998586390927554114718072353880126258160496502009260902425406682162888280987551773598164529961916922873364471871105722995974938751897867138385714051017436817520459866199040427571901329227265299820020357317457381641403770700143149053813575103780622739439491204424938010847572343
11 4 0.011799757288710586145560991599685053474775518992997611607616626622383578565625232268491305455845435946292778893063871405141252970246795691201744949911548268515783244312990435859253834496429265424981400210440140944564785897912874969024186070631056649365023393411369646226239763337089536833878
11 5 0.0014798870278161931631601116380403133714528228559392091662063503372630081321213600924128007179517956271914043452421629189382825637453854436889742977656714362430165505908168385593738003664681344136926426446324091741443358320514885586574342863203571191857277414625607794382645718016244055663388
11 6 -0.017274550323374950305747362905422533315883122279124181781720408597878780150293509732691397206745506796272286068579469415999459694891308445087055412293757827796054951762221644853518444793832844553170716056099308835363209854969160962568595412095254062195360556031691449492774561103942988675443
11 7 0.023448135744002113436778013778897286135360462566821555485838919906165123000349603555376709100052239550577219188411306456079934374392314211885301704564146057779197221013382462806951538548295055708578843425103666105556482619213706205889539960648998942488624313822452250271104969252365522568906
11 8 0.013266017750948224676390828771754752071348647231882425229281965760678366122319632384546055151250822939485828035313572603804897764746764768617051326572373969896536227694850118337960403166286558631686558065265542788826582310919492936067211974078744240883966846692474110689974514506433656713866
11 9 -0.065904983923153605305138971608364811615499831299135846776242199410291720670595554023997380955456065850141845782031683010809102614371848398226054604107635658411693339856222749668512588636033689392829230988957180381988420337075128384478935674103835594174654624643480948638162660951487324285685
11 10 -0.062370800646410621888867897854945381236757203622113233725016971935838786493665195780092379193138810795628127046244763088549703116072918206874308816169556187079209662494109682112840192754320127955648688436932491215315845593999210000478500822876740183503615226853858273790153771697027978197439
12 1 -0.01114663665557338160269986454113654609060196107016108359170777050000001214002731044904261250812555654325622630396301974092114229706879322942894350455697569338619169515968484024182846731550090611204049087564913735584062091831160164340334526322910995935471557974021509279135536006891126086975
12 2 -0.018376465818643887706513758909292784502945078687716205516061136446817059676070245825314315775298244815674055617438964917809620415354293707359403943120395421165051982382370098853292529748137994562993277846506536322277255018768673745317259067745558818849297600747979790067373868542952189457113
12 3 -0.040048673347081992996284403129498818905340641693831316180205493280734035286885013256655540366353870744645332088793953477302808981970717598063042662734603463348181259334013356898728944055586777226817408254484186275451781413030552533062563097958947563231186369642949303257807295999865374114796
12 4 0.0024476051495100023218177464007095977751589860061498119413946258413399216022408525103473125418013213141356422772714031038806476587143124524834411980737672349573372065039837302408305107696067538424691914040212108730468019211470777000269028414373363981876670472635737816162457632185967904271932
12 5 -0.014927802437161988952982692346066544521309021431506176034648987442837352303592717014516290389708081731879110169636243170498692298520475974895983860365210773410223068552259892941473712539216481285415988079730186931711367816981700025548487059285345449919620284066674349699525780791878149951624
12 6 0.017427791017600761536420919080563081984853336531871215774273194799819526713125841523177955780844172606501089515045735790206092132163252428871360830988389954383547955138744275789860155173356767095585286322328909367032430581210737649061226204847221824989728812786686458919953022485562746521958
12 7 -0.028784391016919225521848829078987443313008231537205338612389751909252392955376802248077704364485876069817612702778989396916347495142711266166811143257598542123505957614227490472989870213387135457306609117465295497033839738083781653481997379649122326992870620262422144228903792353558102883174
12 8 -0.011226934178282628916269070376046809074617293653328881819735709409798742021112464270537654753917432136421177665329392912004502006058562981680562367174392471122233151569915340757389352396926095413588571348250453953966362337379335762638241750878356300118717116019909715065643251095069040885099
12 9 0.095984975515174928796544127913474390496268184883322989637905316615145143517975604276920373179028899608258423948218692458745202541751835792845356438069505500084470154210406643918245094154479721865388054248355439943653449690729413280781362648240127049618860838608501937278823529533864139731931
12 10 0.072253517053471661451800802327227554612713587229623445687605357142692218063796699253690349424184572149567159351895976631685729341088203109218652318588460190448858964901243624199652421039886405845163622898588373463931372825837497006338084775329744700900421035437786211626890234486856484929539
13 1 -0.0016963385151167064796525049033571056601997886455648582510639034205109274266382323085269234583466655390005161162228553271860440439431465114646146770248794418868900668106048204669618789067639354785201228960889706026135692908426781599123801707129660668283381548911816731696350834793507259796858
13 2 0.0028172735246010757034147259528220212270745864730501696667854417863369094769000260991473432165720661661935708006264536502085930874821557739675122099762753635224963951954453730636714581575954331376131910181911349205297585709915994038243679263709624863711126581558559489522421840355379434113275
13 3 -0.011827474411434483353694488832555019613714886518531923691165890326098024727094256442686971667647274740644263987577679522697560513149987679016021848878786719870286284382541905019688286357904931314053581990079987753306141841479774084484438861463939083629480563831044022925542873762467984280078
13 4 -0.010610851896730722885230019031424658937845598506157102380491795923629066429083063106113618674677237414637298744387611874811732562447970074568427560952125104727863545177865336515445426136471045335537051418712821494780742862965311890880307772250388215481106235893059342369557161131027212243494
13 5 0.00011213503503688633256551376406007602373930288082256855481140063615045888735798223107051479163113033242655740443678532197922625535478170505881212944037635878423450458967801001684800898601037027480514776383262706980487098081546088556249266216875560051684401988732763356872748395438902444317575
13 6 0.013186557348259554155061227476325852685799150951640641460233228461230384217527708544390931475669781600847747481010220402434425406120211369750964190337467942708879510541024949385402616881094551593055902444790396061649924692698508690921168856790065613542533882176160135989385763358465685549519
13 7 -0.017562894485212778520864220114047896060002397600975878894462247058901605413181834879351336014441141418837485840055916982831031020162854300219530088941148516481454591295901999977117225898030085716844191153525362888895159963406930323349588906485699897582929289983131355104407323307212425772396
13 8 -0.010533120503963834858934504333372382838375505547224168451147287233092432778271048418617685704673307852218289492737265872853111896114921069141479015387350268235844244225589728613986410698232611747189822589465911795414276843387553673668789959252049586121278593894461667048533194400582470557609
13 9 0.048643028881027547467093235626324777719157506878243637554257202575393478800114311730233967796161624349541398917886701759755827683032487759706388588905399723896794989588031054590237681884400421139581821082208313352713565530989503101735217401954050330881846886389638616287434115877373883498385
13 10 0.047640306363377180822133416663199989403896127296113378480847112624241538034269844606796247982102599415729140300394156999605055534131031913033527227406604126312173115990907038485917098475367130107335400449410894085084932453499406677359268061395217855256481827375029540049234837602888096342886
14 1 0.00051113925997528999733896965138716660706066853302131813114977386551301471701319170117996759003275804494178797602523148082807731037179168191597595760191271491378746684891395273008087640598106602219477214673255364634186227037826060380942129807956728963464283915656810331060259004782332292354648
14 2 -0.0064098771197797513201219428114158178810192689311819117309558897962333453303041003260728294882568506625155367569427857985985395192876760423667269342124089357452960591055888944861674924056213236210931584507732740175351450725862274733363013538296579615625378880442669743711482703263970156894577
14 3 -0.0034498844396077155857025574122509759823478287101369955397610232242053473128989835161819994496465930299334584211178314338989321586604443130765259696898161821577237302275412442834330982534552916331521384998783700531076797716654167760381752160405469110125272806966305681703027232779897309617049
14 4 0.0039150564574014055403855932639382905990814288966968799070091015603935882837900301699076817948741461050354145572561798586826499427538496881127443948127238956475829805213689531933529852793981167215614920907428965720342389328100373189335225420596193045652775744079840423599541554732467918554754
14 5 -0.0030201659757068394093778828977237814961832329798715181509162544574365425869542747400356160796888070190077084514727146636820177090049498530139655592208909482956885216536739840891534388795821801565563553729201929399401128473111313429829343143806986969441699756788272360885409471878012634647085
14 6 -0.0025834517668402052605522323805347149689371946823220451702643084737750017605728616357924144622903846127758938152222300208763843357111591353211033076632909621500063602209009975998401726962256754731294936363342866459882024171307081013191203372436100055718419811682751500363665302445128871979997
14 7 0.0018108789149695089597324018412537893766401883111738944120396557888990380197754875256989596578196936214868340764530344269041424148593894885404709399732384396148595727621536201712597215280904040817747397242496779578419761578212894071984897984538202717858932644647009780854884718993089195034783
14 8 0.0012964369153671482337501526818003198203595799079582914314344527920950796703947525609288388006426022152517960391414499133827381432592850230535937598564786838489145708162805704971557258995915227977055220122736268280960846991706156467899919940579850808471888700408104903623384802739654865090444
14 9 0.0013546190366489299320744716227806022459957513053884159079493657419431639820197200534393519011556830380946703088384191787309167469349896146920190685401385175705745488328092413782485609330624370509989022683087431693334428976739332636182539150164788940852201406170709494962784549518384915321479
14 10 -0.0030833742944779397521187618237991258420841750140683270358470410132582042486914164829239124745085507720556510855908359866646484917279192475275622758162823626274707326425829740861892429006812973924787042054684613038660002386199234201194648257106257109221167465427395471480160387194964587909164
15 1 -0.014975221603130850366885351408151042790279344059210470156450797156252805016900433614658998269240294547121096032975429045424923919940207335420496344977670751287197248048540696378452546381330382600064025798788236988977390512798289310944843530457554421857753861076029691804684408156202295703623
15 2 -0.012246344836522270804627984697284330627107811575174698543191342146199171489449742459494124604925923591962976166002432944173385174649095037828352358780113002540444208925882192915764827515716618789318870517599166727997216905967055326685658063718248320304880695526377220612201528967275054333031
15 3 -0.043191750594441779845800313263346905623348149779063311077427220550825941799398283780777635775631855095665761396579379213787704666334437970221369714992883993873162836570420061612431057842602942895649438486550877811856635839182125579134724188923514581605954635695673614466560263495590755619256
15 4 -0.0020982084497857848158150084785184946346455286214434281534116812415097820029805469753446568590784329658490649651326464422043854889383513285199604836412855119527281759954751386757328409148553180877232487552431341833451594970292395878798590470595792518358734172673799772183601712933865492511144
15 5 -0.013888834024601223115776393074413410595396498654990740997372125909116648379076998296699044592608146142393753843832974739139461020057736935091065043632643720459546764494374359631047073602670419661516921094488922205039873403407858453923155611428754573836204902247345816212999355196368974659484
15 6 0.024126415028406852643405535816285641489485648870796963466390051694770392318651652186015277339587333747593469672882085755837267349763390369697620834017735411770096292080081871995014560189421871234669569858437540712544282214728640487529691884130390060808358376150466000902082962119782296619499
15 7 -0.036879818253241170511125620863170751155426961423845842345979597589358259678501701283879959026021803937994034149194901029919048035925020620911792689976790903892161422864257256702086692371189480099613677814372646351696775607267369464292275925314092808481235619245610514813996688427389780645009
15 8 -0.014794272651608690295875492385172474054901414069852375743795585295872904214452134745445558849783046294381046961700923115455179291837385466216390765786340280303657900590511661792491568399367769369676910384017995400069149122146548406998132615131195946440178117305361587444013762329463980940742
15 9 0.1120774756537049307215962592096814969940712050775351932297846921905653361891434575372429837316273621736240549711699567698540886277520412995724089702078472915026835273828172325851775231792472858651622908423437259629549027453715664327378906577025518436328012739717036999077993674732680552921
15 10 0.089435176260584921261647639076680801229190570312773878305744094335457055524262549672280565498182618187508871189897760672527706673395480371097050670560895325253721053518145262752787245032292872254963385455455781719292471690900350990576240462813808380168168640020336600035404228719327118671096
16 1 0.0052779789910337254265395094931459544135454653518118898271931223369470365649061107354076649345875430027292906274348341688254850814001813347353744723514659603600671695945268255777771268515643291731085599448714799085055062433178136401320319770886626367680079981793530140689655615855219397953244
16 2 0.0087713168095393181770162163878260869610229845836510599216477226425449875111387473024622596878250572657375566583024752458089066056271561664610558610103346231472139165965401299326934582711670772028334103685396707785863463496486451829866055621621185273950335955241842135921050381913785858400846
16 3 0.013322567739046062931873175406995895772367730934410600298030069096422113044648059693038412738026975268827995171419150176135256416020609097662373747340566704409721885310618713327762560824903261102348336469043904332725908065899725787140924875703744177814855661408363515714658425934880178119204
16 4 -0.0058856908033929120069113542392564206576657237748745706825065068450575942048175930604391237742138211770662333643005713197480277609790671567380970668172054584968468453595698720609159904170515399780968923384817059279435023455632756067159870675873973757839974503316989379523220606861925514366658
16 5 0.0069125966639081981814922226914180704058015022300157778209286486067466921091297316065242768470060681492791224973413762776199461101803109923031589363381176069778555883228924262500436213591142225787304073414882419242751621009873964922472999595446319006566912289387137995181523310506140273001243
16 6 -0.0024939064472641408505171752678423256634875323108900776301270206095267464324832804738308394840900095274868591235066557664930621438237391406124879744047242295116718523203529919893676851197251019366305628461837369513406387079657848073495876368575972477061049509220891330291555130826025460495168
16 7 0.0058679220497816814758395971579589476945971439825181533206571241934548534378541841336745948811251193092281979407784195835380410264759423342765852127368285606158295191906176583720584131010314585084472423689754567986769533238754456410983499527690020222973217684131461541758693812943556470765769
16 8 0.00036645495929131878616564917442223822333491325380723066530720438065432141116769654048225010101892067013655113757747536332685642156263601100759948993539023036217516588064005050307247014637580754451416730498188902928285574629249171689444763947682721020224413248374167554894181902756037809381945
16 9 -0.022776253242516554190182975331613598636344397964822308463806166779412538833623728666664078703905973443512638205105099225291986802483357915896026029038607756001787521479847303630733797925552186159008035992194228630482995824214555562769228630070285739479377478742463620305907155308957619042975
16 10 -0.012187316262218937370493628187912290055738905627855695734711034084167557689406306334468408010876970051701222321213464980943231837655205490548745515163371676540826920027933242758935768215858713732347030970171015720816350978119515730084952021760472270839258645622313446580289538887793960006388
17 1 0.009819231179207489020631622654282781727888793195279419612358213249072420655383864596325570966095453334277427279377098572083063272339404071590853559691774804853429646517429072336816321832164930050183782994432435626596256401390615317372808542532340785105569798201215793562741154883234449926373
17 2 0.015598161067385245060690525097947561404364303780186043013675447955996856412842001168276248231523857570779514221950046318306593984075395433860218496380952444817367114268428578257047342359525743167469233247217528325168032143682698851037657393676670176622132354043498306214979502650750681058805
17 3 0.03284927804615962431334353906746437697525540298622238472987883375289544086080751440296842614393112836482716047981895010140782675585046480236503302633784171812938270433959532322745266479963945299259284917479850743174658769698244130735301727344655748562041950986285418073774395753768836174573
17 4 -0.0035699912847573790104344143954916277231395823949282241000702571272208627986288647309502076165667342242898135203666841783982552471998387353076580231171725559122842273145666886829613194626237402530389268396633923854768173009556808628329155934314156370154897986903085696295043567881664255165811
17 5 0.012871399069402348172592997096969247439293071341676429160039855481330172830562792400452601737749465178750203951561716640896846091329959142112940458992002675649000314493978174240058138136678878809347566135527669299673861170772751564715178911080760972710217216492418973574519601263186458319258
17 6 -0.013182922672954981605651181527864777476645072676568389585032632960675348766016736139504705081192721108255813985017163818652549883346508106913906189793839940048598520448370455454084981494612596320369369045329103101536829811687684822588543426366262871692708423255763128237678845836300143954339
17 7 0.022470637239587050932892148018430406400080592810832497117449334658277951145737263201985206654069251902742224460016884467253328635638938075682078273646739492848041282111694585476038272637093955417988816520179341158661062494021223642941974578990398467070756425024120024931235209875942407070922
17 8 0.0081076654741877203312065461052111109607094893207450661129847881636456635774254323030889909056241328401680355160355409938782790820962964818856434167089947037747257822529226283426738712785756017619794019670872979082642225449536721648435846140088878406582015036189003406868944684526944546169807
17 9 -0.075784657152539636273239729902683788360634248446153351543964838713045649331966543887106479904567763280218235151813935463177292319729678525102806882013801213849720033160642087831530594382664480057580862433917624229554333525416351894555217902826789931575596953501938118089673643512413895450743
17 10 -0.055413047292582168145260504509615172962515890052643054977776813141817581624048282020711160030036397128668617727630188360867321733731067116173780392977516976318688655280874583607680557206865064355158075399186955468030718946670266895511286259913348718870293605921869267462642637718161540542426
18 1 0.0021451341450421991071735728011164034320264586486149371347746200876083376085865190115294447341935783398670134797626674951549415015436805642737705261418445451938360392762111347042553503950158908808021414120067526000778187513386646504166079657435706836744526361567519920212884562871079767697489
18 2 -0.00080333848913197338247420277324974731519243497906128724860042150319514625228118974055006062385969412583618821676238757371131463730340289549758096471975329797302692059778208870214663303439280058930220392432423624319768132505320649738077623512218420321335160565399698790736463717526967795185488
18 3 0.0022013413742189044279529203091062712146621460868414161402203342956362429942799539472289430476110198026587569078333638342915347051969117114614090348573432927897990668727234705479480306042270315449072759249054528553255976874989097596467290348837735044385685971947815968451438501889411916640119
18 4 0.00013438219244337808299012711907124985943910222895395468103174842877578695946455705743269965241433272000964521366266054476747161451620139386453030414071671846244478101492863669504944033575925431717312186867303273608085052162009531882743179136334692165666752475492845161294078241469608927932417
18 5 0.00051530479387022142627178290012179285989974237741621436611126264782175281173813490641030551548305741834371622790149511007139859180275689983800020164927541232641443942355859451302000426835577304894164141349975334136082278843199401404040322355686574576679788763691413141543146893671117975222946
18 6 -0.0024581891889442446156525321495474113781090409904559272037595005954327460724232933217769405144579296047469953294600758078214461607266972722014066415085375343510237767105805120069390822321429169667600693493882221703607042800234927210782955624102899192539173864089054188763563468024350323548807
18 7 0.0029773007654541272087922779278670218687665022984684879860992523293816475782259237593793760797422201150427640094193794684037334159037093244991818128036700299593738613701546777039409013979493414251848262019503696855160233865725550078025964224653935833844751760735449620272839072311517790166412
18 8 0.00077343081528821700513217879814917153046840906240121290324233144116175086140787928941491407833008223453212293378300125176540265259622353542169693538624992166514618221026134145387212510249291250385782965917535924311303239692949725179950293436376078904745515245310010665256903340558743588405607
18 9 -0.0060814288204522349388988615486703804816020984197476265554081437421561735743356148674851061442597363426506712243665170843171244417060636219318938228831378372203289483994052003577234910100464161028974067435597442382562104277148687052415558679813154676807763057170427938868394146353011645608571
18 10 -0.0053603613808844873514898683439845555748537169041544542056682350959868489369506572242864341156956455761179954772169878782844338306543650465865558063436121491706444489231601192296049546875617658793059775046568060579431004930373892045795048527969706006428419200649465842618658151138842492978832
19 1 0.0096771417364601882745913150254055499240953279800507073053317382407643364895749598771444263146036077227842890232109061143935405883245852487090566277785603614061939583292057196209433972093775193663511069826264135865981876682830971741852717549130854780024384364718014841369071811354172659966
19 2 0.015696929204056251054296484237624593847539325732684940012993146850138460640728911691371359410233475555790797046014707995474586479934566732411618010048393136491982526235376726284345510794319585681387190910857632427251140393743675421000122719772797491205443047712446858003324813131540277268012
19 3 0.03223042316214448133764738554216301976853858053101781778948369849602780497403543138360512757840009581245137519086936785739628459977605248164685116090541369410036538117700135168041511496460963352419908593868289022983855183877642922105770874284237052145661412205496793000160733370857066228625
19 4 -0.0040424201304245196700930889110123900567590659942324054257396965750328264110937985476102990034990779830178560320444029485360758813220704390316421251902989173512581546691772390369118836259741070999600766898052496238563030780128111098026604502911112948020571826123515476843126109575021264366936
19 5 0.012802589387071868532054925527985999779429569257350476609818831433260223923142586619595119773548976321348454731886885617985245354943358083405219707456641868362827416205620288006503917492299638395417319238318405962552426217536162790935572018362033990013225941526323871385969862497314373758654
19 6 -0.012371813652233321466475306985086433895676410099680058290205416611256403620865121210122704332512740372915945669753142354634451135490541607840163323526152614451495273572754620582992937569394232839959793680298616656943768582663475540151526875213853712839483857131799661460716356100986850240931
19 7 0.021419302053395318088835315470585687873375065346804639695035917783247208672339985685414744925504476648533843808538638448988266727157777545924688500126840107098327143867396649818380254821402803416011665711499296213109420597829435625631782235385588119988050563805116258048440497936489293461165
19 8 0.0075360072054539146683143370254242518653946927794625613684730188662955567986929299154706740820805147683083955134835424153706287496604162555234475270016269087592738052381745123697671733321630651441366083184437476275765905956189007975092071664142183847968755227282280525368654692012234963655498
19 9 -0.073341574594432703010523632454075579175787031944176478809661711432456011208649182467933041559674351746676709980206710764934388511416945643897707307776536973465932070953794102578814055996688421630034550671644164054863781907823741319264553266896562105749501464363390095616409616503370086815159
19 10 -0.05292878797436540452792066830318534322134171672091777498356303192451695985703306069007148752973582882799432003198361218273584042538838962658828810029791343936870124688725906026889126286233154754956602821305470694338047323763612906392821893437400980097894338628353787001858596068318327516763
20 1 -0.013632896811598900998489931474490808870810365776727502773537165818793080571791507292790349131564509103559886041451108570853995935263235469544824951044095098140815591067580220855056547759386912285856926550142617610297426984418904387087570762506362389419540452085895547383672919924520938712607
20 2 -0.025584466440006732995142365395950372696122171611673171941287476199954555886679747648990386985409388526713748254696192386126340924218726346210330477295177544144098134066475505609235020842240727374829011390797096652248401667230691486572681826068057484472170942380696219993331691848639354615291
20 3 -0.04542291717897726653541956364192585035158617264647636075838498462354206955488765264826575207591771512808167028221461666681797031346732057774599744810781080154401537977996013027554371648468378434444769895378592731003439218351418618208319657133684435311358533623659157360511049604365684368598
20 4 0.0093892667802472789904574855284135739445856218434784711760696371063758880168685142373801675532409525277838028839454297742422792243746110705307960219981117527271246464264513217865758509959578786042756739370902907931230738879611425286354936175165198914434163555485680005143054857108927676702222
20 5 -0.01962474539361617922597587160012249469510493979200593325938067180773464577238061481883669948272085790908999360568963001867739627921829175672932599942923805031926236121314757378038897487499370248271954093870714233904146514851180781362455881865508162343125784774779690577584120260883136236449
20 6 0.015067413193718038837759483609881089066381105269680378760510308379625877924595985143684295668406947554233558776099684725080157966962819903621092600304100709075796936108658084855442068177077664076818612976941885166512455914714193500814344939483772881953606646531986607504055764686412139006019
20 7 -0.027430228531701498990289743236213546250480774187735704529599629637478248053059723612635053817889226535232885257399731702681629544592950671704901863056919094027962927900175836025270731747934804902824904500118973865005833134240562127953722654850884756990504903483624145592438830360265232340948
20 8 -0.0085373018339721898193115695098274332344740901787777046501643786300123497037587937409863042309081884416157108457694701761442152572795901145387321266999089177824236687140906593091995245802866807783701015141077911459239637927735201775621294849833061848321741531831498163483072833399033957726126
20 9 0.097010829522541900229168288948653349127937563673167541527762470493788827158193158351342584469925950797087573492571731624087046469490827807039965798601415818723778821145404340535697421738247976873515328101090076494013489174068308323294820578647640713991937664195590001669259939047783028901101
20 10 0.066597623629143476309996029772688661809496921944859423533183304308312900819876319562002217055669093895873690215296017268087471960753912435043350922260148560517697631152708651418097226447101327935612345569065746073617057882456611588195456934340439923926092226559124631110520534404223218955886
21 1 -0.0043661947742161168686685118057006764970356068909515167990086865280078478568477278106569047575557801169426791013433881648201514217107680908789492074757934688389327597585378783117123683734638916218056590462186742077385758779659446448840252204152332734738505569932219531733316993893304394187512
21 2 0.00032145166030082419553729979970071580989006023385153878630806774900101016809081505488664010511890473146204306212057664246498823774672607318877628145104677338556249343993789374138100991934242923295593176432618622689834326385642756851853854377215798334354497304248134536752774105697184649643648
21 3 -0.0098868477631364680513141575402477743981896880252403691845482125491302390862855687007163558214129528809679058864790746057801013747878222345260359031556660156939912740605390637690511054990095828028639356967413450737119277199451919701628642548402883196337665594542988371691171787835450402750287
21 4 -0.0029550790741048694001850344704195453460712139934983996906177814353952385459651004737345637401499436722384482736156927507699821667717656162183233677899392539530895734539959448656141323256424120214194629528998510956458627995909408281085304268952042072737110136671174268184494433440602658177708
21 5 -0.0020809127530612999816459952827629913969003581876865294272870131219095249691633528707789268287221673048357499943999090441451159810864137485792751225417871066200017543747819464138015247641311109279410593235572997714425000711150779285900694588054965183786754329536216669757170672265357072095519
21 6 0.0083762673992864840937167473163749578293215814150563914225190468869283179995144146351029186697267618044748680845690727049762817570660052127593303812570594402558065928616377176608494407744412372023452359546535621679204756775141412678258545306639443007519187020440290605300457409011781343496483
21 7 -0.011466218713528543402200315615388491004021368719874267286826036173055575026979056430841122101527884537474622839821010862239023917753562783735520346752398077100928253027887558602100145508160934656957142897449458733090774471079777397981986639921859287394909578834582122040594448297440476201917
21 8 -0.0049866070455104840236073263628195604439017719045085886470948059942456300287041506411990464411841363101579327126130983655524356861632298327249428626318774148902499385061411493705491252424625995546153102952755641451535775595227262861128927078853596637962283193582329921853745752289466579108072
21 9 0.030343108282505684363748066909092847006076154897704883838954530467195638578396308533295344983808042870909246499693716636878337702318305278179364564646516403036793086198781239972428742310678201097429249413781162372975049022867133548156400901616590561070317672779960276164982067002169891128544
21 10 0.026879735946397738869841895550741650536271573704143423807750911978187630420209522249780504143625046608773895689865406515455625211455668037577772161572985743041566631830324947834043104333336085941139645465999230832341616898642809615216932689490309078848491594201089548368092538363218276401681
22 1 0.01357420748961250682865267100573485749413241528223387705680206011978819071505031453427358015855683021373583430084568944136564363679259519209849877108743141329026948272752502929201115429359167458969871146375556399390165602322962255951387025161510023034059903000278825921222203191762218815806
22 2 0.018193942007099041858919705203080503583053098522227576286850378087330118402217626361646414275464885298607483041303528132727843149789768567314354359518584814884471636049723869883097545552742627921544461800233808592404251998186840761192121619812388139157017677688864245910546229863440662221039
22 3 0.050998125086050261911521634358012461326077164650002408561597368123719852048191199049016494996200900514230865287959730705971697448271091820053639634236330191900721230897298032579375416495652050056864485516995251466955018980196353594797418670056151659033891225753389228982234515074314872998394
22 4 0.0036514749733265543611782410961372670713727226910892840054359285148461915287856298897191877806158604809060036588832702536346111433121305818400871475418374293920783072338662956534941968989593446829460306384409222598187173949885828704605738055488747386267504071444697385660577586998403325933656
22 5 0.016301635647514587881459761820790691954551226676319255749320401611101742104672975252065305637122599739174823361341735278632008696384948047816068583431427776472000146734918699755954909063094055595188936806727622386567670346706083240940547932281454807218579288081061423403594053883119464964729
22 6 -0.027454190602959314214809067705372082858272836636707285468807218381149243490434330416149202217263629683124830484632915288054572837806485233171515564916339153999465659482921505170583064346848192094242557201579837290457704833698660981392397600450006670613726977518239156525617985416548260466896
22 7 0.042500756832880934984394223846687129894260135715891514071097502367391194636027020134931436065013391899767058814025257805664258410837446920386498745452249226514348409047518461611896258996179908118322443159101705197419375871349924133600913427646038500212286825262070365141037320840015260431125
22 8 0.018686951506758009379019064370191290587856791580913208074809390320650080194958583478095553935493193204139826285867333814889756557515179756334487087235250948898064887972273160588583900211460059957158576990622435407704447642094074970578984912369775212416220920209664469222392414707189847936991
22 9 -0.13450761736335337876652246339009183501425863089417880621634984281285924781724373990145643876781911608324484875193803874966759704409694978010731755396261470372603551510952206532689293126971123231574828977758308449970215021898212636296609533130467469244760612828026356489750735144066657237834
22 10 -0.10810425508870029639526973828337332858137559476678075962797554181799464987203575296488862862261450414888896644531052136762097086376104401351128634540105685247270237828007226678512618696934028659318911159642518717700855480426405037896499207870424972557386171497172144175112937777916295280237
23 1 -0.0093826885669593969059399674052844454841079471003327773769713765073574357791441857154626604413454554611932666144259029424119100790792703972652509034246235574202946301583441965658229529639006278530140732942108246650164389049526690072260036456167602578594375979102808330125171258291047064825599
23 2 -0.011196061734495228902620132359093737915019719189992427609159831954999072085967915732882227777531956275906274694828382244509135257773712956079337148588908268314748157853269464353548164180671725798609583258492923444107679422631036833342726437643069229965693684067455552303366574572440547296466
23 3 -0.036134571597454237680871343549791873899210724079667859010131107250845479040318637980590920062035759261949394961035875503734597073845953180450211527097613372796141506064821362505612932659406485211925371303351512331599920402798334618750344734664180465852313081393187100728522903767661202287362
23 4 -0.0049084844582236726725769369322789028950715676806379559633808152537157563249129002069214923568978080930860662423742901135976705876389855155357119856049635834858030007602833994184695805312751590201539492714717874253505554303382955975337261892944909981198795836621059933746629504188036957467204
23 5 -0.010631625827705547682302897877818146081591947101129652651190048292020046737455026659829196278055630207703991238992258098314404519585693648005137439829996568464476669587997189080223586195229440669998685823807317643435180534961722785763817676769414061191714755484044309391530601143794369691924
23 6 0.02144338016059650072605988274322523744287401385937545186779861837743658740093263573169709697379777886040812412441324493796618544704837236852200799477102401871934497332950435013798734238399679332135654784092143596896059882184568141354253157613545367921684500901407745302870138406493254709878
23 7 -0.032271260143537601789184077714202107764085680006898698081509945830337317711324164068992156100997134406933099428768824388821162341398192069055546863238720177149886345274450909324491269863097799818061597692334346896434586759583604186193569124958991329872384480976214545408817323922466805437808
23 8 -0.014821471133262791273018658143543996974663708233286047599917290069889522814748418892006323173010873163249670089944431606622847405217338254966177439242928524715999391537705970225684934717794917150305269559023982038238914929259829150588903296128405112635060171259889852929399904316433253760253
23 9 0.099617825752685744977128133854882018263232882102003205503574204607081414716946168514595807653813759110715947121923358157378481571010294960897795831272160887035442277233180808016066844952097256842273830626652477153465975732115358436181791514944102155755056075836842401752884521578688342581675
23 10 0.082347575468868920317495082962755800727875167515334398266519386081059035176637292068639269317153290461552695786442773268261248375119962936144673702291823305264427597365317048176835403712109712704261426428067170094872713133054030207503923687096851045195840566186867564793058600509096073454746
24 1 0.0031974553447282471598739961637622554864859079836029327837954682952310402125196199630074511447736150790736189070772566797764805411263550239043270423680907018248896794994816183072933431381916201974066364027991771792617228119163442693185672424954577793253965383171042688723428305765240179615822
24 2 0.0069012961765679288810704139724172535170186882346488696303854462708928529089599373868892961881029694340864619557757855888915964747311322157385688225579533162211007591509544438689516441231215874732582901289659027596530021581600335161028816584268529578274573268894606077763732231712769041863948
24 3 0.0072009519147179355869679975098770657995455092413397323048261404878157145440455961233225903595440972709379867354950589929731916266446279577238940217088295293590202010669744132404731229823520541094442342136109124144754650570494719684061610992168893101787289316229289140808738588081100300201075
24 4 -0.0061501593022478334944614332674807938232888611823395005729661309810101608184040496785369264953759767870491378977507653597803502091887012808915760585365205607256106173607147035540867042865574635233206964588249548753195338406195527135724095126256963436828676247313084709551683262491794862733696
24 5 0.00490741490609332630455255112586662289381418478340051599955897646271628246744482001681013593983867645496364120103420204107407950113870365160044680816438427279971019195341375171203113286007291940004173883869748665409731663167397850564624763538614877634761068251320925188301150296571471435716
24 6 0.0010072837983957139477240618861875031497093121544812584202387060828343217383354774377916331384546623626931360297865743887524408670370676641816759296123006520558133954887159425474999393206496736566298771031182413944134587515071288793308192024812492258786923421032562320152264058059121325177728
24 7 0.00056998676968245883513519843220136255202719212186203713940177797144103175730327403047648582616498435802223132089621300255863217464562285486972571026975425630501596609637800326440342296982047877735723118591824873695870194028299205021186965586375214113544205469536795728624361834459290156985124
24 8 -0.0017703091925082054290049811525121832921248402425922794498707436077652062712665192900913088089514318742012315672363735988214279419211702762317748646954117389627165865194920208705557453076382289961935115890533378874064430724263150558182015313628516360892390402963783363578614226616362874935616
24 9 -0.0068629600983916948039312383262517661508198424893934021881141730304267415912149201481206917856378680204085861490846406247012632056443641509698507406506426014109452201815212408310665124998809616288163934491066074654368354395614097794550011795833939420557702218149866528591776176807885650336615
24 10 0.00057962415338746596557122070573853049928628865589008872812628038444645757391115360336939226974842890155128645479865445599304769696987887964135538410156821499350794710348709700447491502068470322960846142547428223050217755516847273286084795478895344946335908472427841588664355388346853107028628
25 1 0.0097913628552480128685061966947649755673783311988370704083127010436967006782633624027385589410836311571886206122845122952031519932542278621926563252374261476745161738495520445464155584310695610338447897060553311235538042815422387235844874396103028563890706387303715320216672641608507333513016
25 2 0.015777423187927601974883080163876211535471100983868990543642548509332182235721159376587011867942239115533398856255698480502720629837691046197128880274328662325744190532365914072553887657757131206921561824083941286289731981936817139980654909984543697716116374269804952211946184988064897814641
25 3 0.030406771103714357320258747007526917044137618089462398710247906732562770522295059804289093321345690958956623810149334865894888804800903380864324798770011499555601179179157073267790260692979777344237559696121160072152437557343603550506685400242072322842443026735310900549451467216746280891724
25 4 -0.0056903798706355846199245575557979390607501912194943797415740359937336313490597032324322375600141301922971830441677793606162203806154191632412484787222293146264934065635186108497756152148527216183374595012830699623888648339325696600138196510961350033192082946630017499112017800061240286173553
25 5 0.012868070516731942139759267869527243055265736394532849625615672545602939295253700750901089334317238897718973728313086134511975806705389401387412948845624871272909642643441088837246112268609529724888102449095239476262252279109108376210654826539498374516812626653258598031599585277033528740436
25 6 -0.010759704706151212086867437217166098281911046130005036544336081848957016180901530701327018062469849672601448017525012427188483595026821197660119670033201756936574403822840039401891446365264499234353460393177886502798898279517998117161226510477628637309568065927379172697197106831685687336529
25 7 0.019180632031503530359960943522991654298928613582717586340283906576300881102350310934003505651291056743797740350568814262588817868118258190362586572791760523207141209660269042113967442214825929375863913064201654914209773042233037561337422206312618771236194647949392351113099212785558254100041
25 8 0.0059905643814349614588705032115132509825064252441021865419924451284974707411438478168393792251139496420106113689021342312164907584680532678007168625046264848362623634003913214410372687992960702143985468509718864551610256224816599075308577135213337806177283837387974066721855436476761570509373
25 9 -0.065916286298103064079039851160117637913883148005943964761062000263069512512573137274549354064140443234953202315538050612436759824890788952057735680587247676606241563357229194570397948730252755299219755156918586139695388784584812934710396817626590189872669735362590070329325754852833515662824
25 10 -0.045888825717593176488013486717854719924887729574775269868154712590479999723849572312824655418632008323247291390529248286027556889991650461588731641943646010232233561421826583186375192412258583968303499793956959165040771527851378327332435901845930783200248225825596577728605385312391571843965
26 1 0.0075657770199173946325236231492312826139501861731955065166860021001574105257558999915272931172731557554907154358990413374136049753224980834416796613838834871526171628589690201966373696029850498819679496065751390837437066897801840147873984594287485131501409536061728824046226121875982827687
26 2 0.0091440888763352823303892905143163254598825529723332518999661791190388457198691916364318398938381221536114054930933334618297647737184966991707315344133620872476002100197043521849316603680151408166029551946954794406725317191081017585047986590168766633443693564510858942238024775077179403649412
26 3 0.033809031150886474080809583484620297918924087540686293587019018319023000036879608350878698381856553849140481279292215143181189664645824076016449577040104697541892177153068331076618709059960293054676192599166100336215905566259310495904192029572392662435704510737461696828043248411784301805796
26 4 0.0074446164765256209168661561430669056684193733075690882716225649246402357439122652273601354218448332877751535800763029669335886751261448010636150356429374918853345498822969985182354607111414693426947427722003366435388166057876245585363045106373699421223994975743323257293243818561847687438945
26 5 0.0088510591617170061373463353133657751223663838959717012267814016099671120080489760426668205484498888590218009076240662979883919227710472670120477355736784571500719248215482419612535767055319823681161631680031598042813085955780811374074602806663847474167555032908075672082013729508934748730846
26 6 -0.021141250927726681769996851601292952390022456065429824439107630554091583001532011426803570362878827792603715751972769517188453794902421955994890112022332590395606944309543323447370947872280041134212708441545588200083994403938308470193886813955821506217714742720345853545169267602516517522868
26 7 0.031585790150838712638494288225372221612081633813178926561597922418178071501483140098076562972479218065447266106439599210061491624470444386260766563028644074840051003889042577980042030852535596807575201086251039170549327821745389079016519935076945883266543025476479056131960962710231357964195
26 8 0.015565691572715390828539941318849965313497534818776262063233145668349264876282163765588542965419470881485754207787220047196159301772630677583162110622459506001312467023530790074654352163909365826347811849759039861820318764481981153054490809412539156659864663334913359494049774054305904867107
26 9 -0.098012731269356349485643315766227850515352808796193712804566946490800717943203299383327413984113012909988517967449779472126988946790202696619774787326180818023205437576006801365645151962923728812733203707424724240021409863869000817589492299143418138827886812542797192474435626407377371019425
26 10 -0.082936309758698125011635092898385191623687925598981237560444158454010767430325041633463340901488667404005484869514431047958691325362181190703539542155517302020937060375309184332644689191057099851422884630703247826684161588963998895876469182571860406814488809196655913150468971497069875964845
27 1 0.0056367831826708167080340985781467944062799013384115152044314779916871596217512588562826333529226828450362418431783618186751223433513255781478462228690590731232782444685267252423639439439517846750979239908291115193776645322454851402946701350247860615188145269148469155725203305718365838432277
27 2 0.0085112928490553630575862234308150176386680154532763038583046127969941705514041776342345983623196700639291860145872900539148748606603057640704695004526416057224357304045115811487340434117635303080826817546559306092104814115384710468976731939020331039920577728135575241936958861380611903379363
27 3 0.021352539809308565143265123532253709023105237556376083515121597687755572833960846501113012192572674421852107480256155153521324665634642274665819780141941930903365319543082949549222540503202746447140847928173513984404508775568626259684212906983396570358876732487507345398282085626729207159214
27 4 0.00054284245997411814527124993316083622727729487815790396037557844387153051537355505443027412538405333570541636023219897906664850185208891798882274111564699315810194744178023314284117159209417203451415709696102427673564725918158607846624668897647697866364540723295699627918432223678833381800652
27 5 0.0072459016979601299005952651873094890756328924007912980114706850221189331875804558624930454894700611174577963180732421241941933026540577196958236167277216466963154111014174663855853166238486062039145960194555148136529712479267883552214323743852060516115628669077997763158393671233330648916635
27 6 -0.010568051915869677011266933797828939185407748585468525415945220143658476633883368518446366172855330455259619941897154236674924815045484119148711704272686642397565587867273949510597076218756432951958484108029696129242462414184169786807121067526160885766320735632268839630439770553786644753866
27 7 0.016813393600525361507437759883738267493850346730133453629572272729143513502718970735500449862030737619409445868444747877532943866758388896355562925803924999807748379661401371576898864540533743419839391342637944013036529292822048219712118948475940214018345852684035124081139350762122836474833
27 8 0.0071754808415693172501848754802032569837838155653418318006362034120735189062964491950525926822460289593123530055045985443525917949959521946340177547424943888033179802775429240623663764595302701763127747375207833704570662201141946105313297508524970945937030849935154899754076748041147235466611
27 9 -0.054489212751162800289094407068099683052625680826899063416910158358034040178876618763505264809724763589944032746345009785785213809470267253648963386078759019326593443408062026227214915390210052705437564016590182270681954585235174153978690104768538099865599845057432545305353741370011986416357
27 10 -0.042810213230606345199860097076246955783767354321013534714698438866753729403120567857129023170130411390804275042249569588960284789865852589324267302787249224974809537101839361351531283329464060547613392890526950890657547806767669801725602341093096288981556414507951114749106134614359725358808
28 1 0.0052210471952396853599813898029132749926801551461645248469886492873326763573527416887416951185035673865030652105173068917078474205221233815977856200214044669865584269549380070119691225529540945996933291787048524619712483704335784437641621767224809049352372285179380281926951247133900084487013
28 2 0.0011050167178279098065114267110848064060055459011957824585784023225855273657888050922576074977574255073365948743323091643461004620887229572160715589102491393160227873822684915846947687554759787228997519452357145596370660866084545953500325119872753752827160540905086876165522485954269247448199
28 3 0.025939910238333510436745159017305615616403946353988913349477785220953941901585928821048529616631803821083709717274986957511362069784456095072420416511302632411393844694343415715604508778553347371606280105708116012161955257467515542292960423152679042122023122088101396248120943588346726221584
28 4 0.013213363773019106130450381419602290457025078673917990562732473830528540489093622346970547061088915747465530080934315761596664934264836704835082246395029095230672711331455826050764945764565327361043611301093394385632537961851174552447634687149833000145638897564626456541724476914332404314386
28 5 0.0038192394189217416243607466359330128187813353693152146535025019958408090301903421972879066874255682943962317686434221626067526135716617614845084094224299156852079339161375748017084166152619430917860688786935519380222498738493136768388423997994879043739651582537125314842690675508879504294696
28 6 -0.022002194660877955018162220310085699723657218412638140172553774011172758006993943468480957192070479479427527545143762531102026796885166107677812749891348691641183951698332375295884122795872333499654861771295071482362319634250161962611891949569309455428827678411988044588665872336509714262771
28 7 0.030730557137992297974126134273996580938103674521207946056383893582500099927419824354491506369887930957853841180415907631906918340972236103608999624164697920976286587196210444795090071326167672629522384493756119780343021974483952388789211731676483761824782749105787812209352762155996132649954
28 8 0.01678346608973554683675192426006544794498801758084240321442647005935260489445707781965900715886418757239810220227899854055226046191394671935906289478714485398181372660134461380358824679826646993019770361618989437671271707557413491292594793574356727756548227679431855320703823773866812543783
28 9 -0.088768785105758807698818984913338667783637552653598980847354981779300226184821578758749068687531065672718856570187000009526092000312283877878032164908163238505644947967734418630122170670426158582298463546898098540987682207751371517140428939017731151579649812992648135568280120527971097354958
28 10 -0.081388532722710106253113898194157629453170162843800905597083605647643196222888005771484804801393168346564114683314969197674679482238842331251516718112924610125929154871760799722064071836010665529015457428186041221067688007132463223182239606309549935516218037760933243873132707026078250801019
29 1 -0.0080834394126266914248455930694542174574452406772465468623496571518979113026310853902519299554259622001554744783327577460124951852826298580688066914386331250104995664561668164215997881395324619979906280730284052212624751224095351036466357136544314664535111419605340568844804999793367060084804
29 2 -0.02002120833599307571315622706418056942672159656621964197665843241757194888154289287850886098932415497342589011555893470602159411442409154294718585755157775896666546782277315926806508469595634111486571314218905706890377228843722318586386965384884670689231392339972526040344042777342949498008
29 3 -0.019807378701850632210013047745456571708496187345298873936925051813882104694719564787032304984378715438939991861616539845700918086490440535613780421760999035293454288498686585504576753790621207756722105490136964494196346751722796966979382831161767123742610175147091337232624027206626128538674
29 4 0.017005343497663806400010683353672871798790624297389300338267890123539407403029163484826712852525797578898255914794480757264213295136110869602760733586401926301615744890633028170559058370079355296547654501311662324541767703320479839582860379095936121370344547436030071324300522103267368982473
29 5 -0.013686518165899179167485670033478497058938667546765488241816358846655436769370876366870626144635444817058870725079224542337081266247615660482211725590928563716289865992364198222657936119508327429511910608341256097257112435334817172266896714973875236429256276756334758442827585097023899235531
29 6 -0.0028834564658790342262584466193064453346150893908786953733203085378483072186194224379015787697457548797386637552540256667281042548376004887773146938722154855714582706206254225253712824446837618216497889843439531491925966421519627899616244602734025948204538205067707078443200311166729113030371
29 7 -0.0014565827216668832369114529146415447765532914546729520496843168076002711989965255258624816310179481677039844153546628429525800511010383638109920340024167686076361771614568773569789668253979379255829013268578382772213299417857354405920020552804186186334131061033265933782534731739601710971232
29 8 0.0046893498710549820057584691809211257769506937218768124193032826226120763138407170190390294150254291357948891320340492509615820924707646411747268471467047846636343852888900923552643041485729094562320506514345476001354143708523808162553673710323652768417110958740512953778869763253077524345711
29 9 0.018925902662915845451655322877705916828350481982636278516378000274728658240276938678378560615834390781118582429055218273965273273202116584314738729355953985040785761502430647695653791302047293814930261360392937134658071458424269416715812417038517194388278734139839490470533365200258545681381
29 10 -0.0014333046952810187553393661480347117474787993136797629379665040844277442907237404914090191834227052536416518538641540777519151304019627536156353920007628307320582128394371738265395809057811184920209357597925187459933611759544264752019914080804398443438859184255667177931156446254121456844717
30 1 -0.0077347268947749633579297725774251624889991100328728402627118220245469215341744457459641587410851192085208265638187883613442663767378173928339822633491649018477800325578643336253086290146421451837862911722901552202675063047427731871361248199894078136251299553247638047216915514225849685507605
30 2 -0.013199785871466658849608052861498932703433525820946624247728119927241624886266202445000146685280707250668061121852781128040483239235695594391546232214695141284804752498703472747569788718758740649544889726348252019699491260432866699042926786988296706710698200561152546593859165808634515139378
30 3 -0.015913636621427445775943105764469557441678606855455044727002054842344422068633340458549883730803257519061029318461259174727731537183448083931205563296293018901393569839051493290264742291609673201715045937831963798257089917429717320356037876442755653781537500628913887262393348901817410389485
30 4 0.01189872707773859526371051180810654757310278659293256786509018785922921727755538146670701704553070144293350390558848451946976042967983136078930388979921161764513550588277364026236520429402013348799393475693520180998156276409047060733938367799266237964931265997286692264687164712283722230195
30 5 -0.010160416002878289952541925898835410137603184778777958421128244097257146763097560344155682824814083487398592029508231534592046435118163456166727531584481229900436099511235964015862734226823445993777548407934416681309458695277313287810765250396296076228111103926669131756598730844262793301985
30 6 2.758903812035734926103905444105838598192846614553193243788654153270409683135214554630099161826751274464766283680251182821781893861813057874881677135043311165174496642213704999916697512280603943422742325729664917676630753276126662702472406852162465203286236093437045838959208788315210288568e-05
30 7 -0.0036460557895242106727845104250876199333407122713686556053754714300595591283011331740751297532997520856867917850433792990678641325186600000693276854231289021833599141073696146545303767900561092241308635142171219762516039471249795553471292787773338761734738644771133820698948956056593997460574
30 8 0.0026817449982359679533621050408893005352770184639484879807420582874445745347575489311556354784153651964189720090578603329718796585542195653111349731170418237314571395020115926035379461768530874071974240017252045588102312053353060584980052857164476650385617512794285491031509989318341615268078
30 9 0.018546341004725459426862646036295810541083899406121243917089837505408963196531690835155763239410189562717707072732789214545534965160117766060816592199211475186919259868124048789348961047871616263186519583546937348869254972742555171606915769281007045305015284310501162298500271968132737076228
30 10 0.0034866884941748842654766988532854422005321202199841456471001951954314310588189194319039793352210821947261651064456018198516597761461356971300319340170321609516565323061272639831623749003246699068436303227680427585716079750855117596309737918679218512221027799249322846136750718340356053137793
31 1 0.0033964930016896205161060271624601597169918577692670958943940845208471134102011838807414584225744924401226670278572015134564237176277386250392780126900513079002159099364703388328059985235380340891944254758339237896042015797861557322778757051762551965592499972888993069344717101921022234022852
31 2 0.0023093842549676993875087217017643833132476146972103376931887447904492612895721380045644008368501633113993121435808979649478197075770657908706545257071067686544546227296653350208938355345840600491227913618506829511447614941860589059062745659527845159152663537592557682585657315385420122999172
31 3 -0.0026414509960628116919791743703740510845704350353293080277223643644691361767384867362636489796337240852572997001404400688373217052230426808543763932904325545028936038191319867073410414887024235318987862794318692374417958563066067357865086059018421546018507074544507894516578177270848695820635
31 4 -0.0090229289263536823651038014666921242668756202656383744990159099053241935067021152970492052589168022023856361826006327022208421931629301109402449299142296839713748640076164815859375531233504916247770345673027851899082481346936596811460727228004654334707124355227200853887585129557573850342218
31 5 0.0023550922270290069212366195227397525131862040826837076477037131008393820853498344738855029230727491093799938353779474070054068219858704081033366537720643791417063098065996212520477845366267702121202624820640488607155206712348041767159301591933749256118692370954782746543818663147099076066957
31 6 0.0059335029761644867783724361177799188135652799924801623731674793393936773274015398904131028801791083504104849248358701181551869114752137067013355373568934791943780745823866456816739660737777225181463500132573358718396049444966695364628816528138535755203732160813407358092099346987756325606475
31 7 -0.0075752370587849793723921617514478882179022342395557241952142364689796862658464998444640284886025380836116452467846643580904195750358738992465552028181845463117292434421748412145375633222736348450736123675505455696201516863750106246620527381933451576944672404789337362858249786144215115531191
31 8 -0.0068246344259875956137270928876439886615343624220691160332941784794480247443419202709403908747909525284893529992881849883741505184737074424918619144584411776080248204014754873712360717358219433724673173008025831231745515490679372803899645749340915640937965122213389141478522276900463225906092
31 9 0.022586407180341769186471414472509566561845771496898177522639014017091835440549593843359421217159253263011422581679525985298165523885479103396708705636374493356788646669146346477314303674149835918297977929612631861100137072099386200031528095345069505581424105174991858545679964534156812535249
31 10 0.025469647080815060298757852893083876916478878216545130076989869428227981018201006224143741695835951638235998262337745057379387173125212978760617248914493705131642451920278043479313802472500753476980066924128529617358346552261114450076922454135286092108979492133386450257004014393147136027747
32 1 0.0046290123812610684064306122163973610670988183664145556990541184574830587455388819391517182480225034695487297311638210009496455115028372208378066369639449066629710990947746894156214503283555363691024697641059531075025001157592258001146871871667614065791913948711067316664530291606239395286098
32 2 0.0081935949150733810977976601839668440371377329736941820395759473433258988699097763890643558759289192740130728720519058093090029705360137283271134343050360697292094047772645411182010124997504875036481505942921036091906145959771230805282403436762543975692997177990048437637047758186933957970053
32 3 0.0094755739758805710055449704659418987029981650580262262618596794448583059497414998572637375616511204818519358423047757423484279982766956229665396838613434938591620857057250072152051778575656959603157414175298479934384941771024162100148236207084012023492162129177303451609418574184135167587219
32 4 -0.0075720851045274150459007407628325969554408194073474574987645787010063060900029819112744098277208715490573432707432761476352847145672511598359099211688056004964367509721406224441089015529138622612032096477518393139464684430359718257317945079280598331328763976743367783893792281591594163000529
32 5 0.0062124830731079363885105315335054693896255278120945859100591923658487560517169934616618927439758367707707766647020292956883677168964462107113434431757717675519467919219017338107250674269243930342351168414034039653923339491571546632759168658640094403880792603387317141373754897239533797871723
32 6 0.00056134593241410159250656129522470566516797742571914115040540823824583715267444282903923400360960406670152833629037697382835599183818166669385822850137643030319152960895862210173871441841073890752464915325124644036930311394401156356630821047759703029610880814123745122340845606197646569620113
32 7 0.0015489157827527108973228417074005684444451532750052383933612417226286147384598554227425078366136602073899748728825639946675059276288944049056342963846895293213371852576208105275861600375429512115320644749225487371363242878530278945354291379450495566498107198113853010079902087947650414535383
32 8 -0.0019971130300577168751836292190126917980257477909074335506791891215034824743898923694453410201842817626525088898169704561094495015212229264059496887520378269183340701988398665135141192904371699488029308591431038693480086743976250028195005922640741920370688736745411294306108256840010904362555
32 9 -0.010057303077700457308135935964912443461403752378735000116801377813777542705967957377350291385094024230732962364776231387349818949313253235709074983513054763823900337465692558764703945447609932088114516518580613567490264901252920240487422083225522961568631501962473155955996999087492445799835
32 10 -0.00067512347371316607204529511061518568436669115297317585881210321414535140101978808406768280325292636658986448975888242359496755262167258787151908275735690083608626697458284484211523861628492619246889460326697553540970395479568305868452618190197421472914981533342300573785992517485959931646346
33 1 0.012512308155121486534842733902811099606100120175008619624263678858976881005813871344395627167776201365112349013409330110329986868842572416025016839836721918560571269104533373620257067296796210960847260684583905017676706944424498375200683948909746133537692895049989248611594751623509678612137
33 2 0.014186576073969128319669800817569153930619004216017357732381379781381597543090654140053902090436200730949693557336139032443610495969849624672799894058002790536197961877656566701881249866000540496129573536038259728533689630573878795942008992212074575528478699270119553904125468473664538086103
33 3 0.037722794216283066008152821009226953267347136728298229096239980971535489598273433312747191323993278694524146897870240561478612101707588909266186436994673174620413048288257859400288951212914490132307223265177203625922961870215520798445468192538868878698746329387222574341087875924184057787292
33 4 -0.0015366337522635580514465120610767594140138895017564052734986135293615314744799477103932563138302376064527816640901650259090803888413585652733777097064345577138577619203403102423741685401639153740167396470032401011740096051218975490444227315495891793452154883942265772040411176393557505716161
33 5 0.013589948733683826389427795302088559628907426994733340732582061993535291498639897777425607989363292605107483913094864518710149473108508871985828455554903029938465824532491378874344640359649677580023612032353306979018535898935399823127462251991410681702772351163913124252180568481779116507777
33 6 -0.017675660867087016036548680445554521807266401572477264819401692617844010459078608094514482941040478007570531559334549603349704661919823630790135920053877676621048231895325558284754583487776448378174263260534396430531212195970496524303675456154511905056503039843028628567471406978808572724855
33 7 0.028608143624280481206502462646260797185023737871534033507447886566641642661481691088987218375560116817437393822619074157844161626461643762622693619350177534477861891914177395387334401521660723622002126239465917809171164814868983660567970701978303997393366497172213636021210699479373495705076
33 8 0.010730771471579664514222273881372162120175758995264197975797035943258695087668764495492122616505396529528625353952982101074755941439878576465762389379565636370458468240312057293224050866207143042097756176998356412403217244857737150133208990829382854900647254970895924234737250188573832359529
33 9 -0.091592347195667534331371225231740738910589800214259678403248189162909368402132290604010249770121173383030018352681269007104897039484302136021775728615214976212376624462494902295888373584669790240254222751617219199737367920840817277357112523347961781878717108170948178062650357147358915577135
33 10 -0.069636579208077200082083435968222686523307598125873783745642434455790595185424323920625945632026873979796442982647177447307819408227721140493771527638459463778881562303758026475907396580868540501750521112573180221587358423925385295669615274065582526484708750391628342926843091829668237761979
34 1 0.0039375871008782311605331975675410345421673173439915973507750330828931435782877348232789364819118651484073247727809324108095153274363582500054155903922070595041948993646879000752565281116967838856684010264828702273138257517219474700928245882718842809778919813125848359613442731519091732392012
34 2 0.0047848356361473083243090305154744023368706847046159839897370384424095494790001362806961687045340051505808583047270634790298649372774090968875745158266422490706098791134075026308727983735448213495834680246399425700790915729738036004298672353207919774420254903599143090392394588772148611630789
34 3 0.010929836961967629991710628703332427237722671917147250266972981917486320328070582654859384682920367888646606939831250788252799637582538440526254467444922887288278445626551703388500295942209475086345814533866796574145841372003536838672183905025210082755692522550234443187169904269522193916323
34 4 -0.0015018125958059719040302363153798769216515780146006883043853711008090878797604384329179092885412073227654913435688426061871511670836593309225295809583054713710809324327179558199265028194505164879174982072894933335817750245348017483348115184591875090490157172025830487876291882329289471329439
34 5 0.0042954903421972137738602498518646874586465841784001185051968449152020028646367104625155384593461922730317033759675075890241721176302344252043338107971843310271996319002977013868979609382172099061653318985419383808866583248911096750365391291660865295499131155780751912267635284571810574992182
34 6 -0.0046997408261810890518606120906810991550718024806430696551324147432784599141602003624190241637798275336942482317014304346789389960565892116687348116536928451680783391518185593471217686062869628236942892187229031283183311326959988423837449685398553751962689635325769907579372660128390257872912
34 7 0.0076690956507031380540258890953684157812586612353003308467136953709640324036629688355804725787107487827446710188577715959983114581411059747323169858877685776002892162584246706539204583695934210036015571846961425492769647396487971426272084940291083185611246150420638338442233877133466143884963
34 8 0.0024792405591703384092190677514860126485298951052118633401208273911105642484899225298008350884096902675546073349454964027618136647578124157845312098465745785464490964889365873583695646117537848725233690047539567063897384257156450428161367551547393252283027832340428423184073532740819608857102
34 9 -0.02480907994556469182804197086201025323719966738081514641766632348715195977237079811968393816433247096800342990446757909678387299428795861348397372660651184666502953859266443314733940724192517179328226765033844802517056381883906551187319716415018076557217148512907401008159002376342949579558
34 10 -0.018027960553481488035431638170136523695270267567191157666195448342612129131386709963105150024053180239734083618724834600097391239661303908393865835309898975126325012805567034420279784284443218934405613855754952456499987910442891109489961198596734199964434096778573972811015699448075894392166
35 1 0.0082813470622089048845524139844881500102848867562131289074511359091197342551643616999943135525843821107378491548187605310390638685046592238558429160377917144835780796662421656535747487916911967127330294991065515099807562679833805301777948636506678903534619189865210217099196339812224314768571
35 2 0.0082298788154047537095047753859485916217038727450964027410538813305902055031457459646917367279486129108565438352343623435225600932470224267628498095147843184558953961085525201009355554609974085491915591162645518896314873894136502161139762340699603959749837000001622302125526716378099857240186
35 3 0.02492762999650898604184848529808531971997380152099141960950996049102225826368115218368812964259068061895404285129604306483701493979339728986561472924351552235406655125194620316159230548765243525826658041055760983434073827044460538789883325602815588864765384349860178848158473151836438913381
35 4 0.00027251987816214623016344792786259123545813476667971702823418136284371568189812872873712321286620968578020399110481177990209145936415833129146094392218433246229014302171674728168842023062938536546997016651177071986615102511027394257060208313917133210219511614977481990605026908626803071793091
35 5 0.0084331827921005901096863380621227476162803844628239506500711549448258144886458445095355532137272991501597017062212070885571379143233889814716364262577376433146161983319876263093266581262011054457617229464788944044203355503665415486392606873545171126134654475774791411110305542179012263736742
35 6 -0.012764188752963068994501617714134729204697798958386944567388435856518723047236564793169239489721386977528922542109197999921683434078804288354964790846271789169123767747744262141100632001935485229318142678060347896494816057035036279974383812067947157416775068562152017590506884962013708752768
35 7 0.020075460440862886056808578887462741500424055317119526971047884719695091128714112745021119504030336745269232385666493546996039424615731021637532343569883467136981143519194596629826630069027494183167071953935754158202745102069790101978767456975994379899662431384535613052443889327477960596937
35 8 0.0079050957834026755966586686814077885245291039556330068599132091951395117458415468398721872500909633822018240056081553501156916073802911106809965025040711694740235713041128589722154497016207834656318034330028108697062406704395742349964498391211348992603729109248327964959947611848027538007094
35 9 -0.062857768668768768247481075609578282743735891542249000633844822777033465392447674045716883895778965592312810721733429907230607886306650572040775632202391281671980453815268445477724803039462977019485785902650095332243336365115397099576538903325943447113204040132996197086718316619821844758255
35 10 -0.049091442355043229565744062967215035087601012673041984577606331634256314841630757108916184680084434414715474309634917221172202143790391433483372292221242436691430317606960497874534272642041315434108829769373147079645957267465182865283672741364570765300798949069140137410788696607180066844102
36 1 0.003447382873693846525975177476999097191279152112564575499590478458464113325116379656343143165314073334898290071102675075733507488277680853748118250553845166124039284206391976853410873583703215564776258391906929293612531702240319945699923355004895156445480734121402106436621897483428277199312
36 2 0.014415678076323412178028862769851825256701816252733746460091017797862610711320589990231090580179791711893702032118394233259394998913619173329282771063681986245241908934742029954356703869006039257835075684341804987409089583433227749716255616810749283306416985919108354444627006259568101536726
36 3 0.0084857088369709043829453777775225377153277194336358012055921995149670664544581118199860418594410753610648384965035645049246698935677410560009609636828067847643406361945692218188548803689866975072611956210242389791186072281903957767079820409447321967598951718813075025367867253688648824589634
36 4 -0.014098065048113192089195309596039907164504619088926107089941033294494340195811743613363438048771088424629382936202979553115688346958533970592580047838247771425945982707392636233195194994879015475095480923483684171598406236741631041303623092148828199006812526106017262694514429066291068241632
36 5 0.0087105978675297398075769765127687334855540266822776621437659755483366063164923783340009172199679086472016509494094979555859135298662101233762199439927702206046920743962663098786088618551534218442816968517731359789992861421280125052373730742768528936025818565174038026571760851422322134715758
36 6 0.0072470676549822833311815371444290780109489635877405362210748922806782049156717085564899750708873947149006606650268893068307333504216037277709500789591853195091490562919781292267319461354810296743573297569437107174286194004443474717809509480662151568927855830068610439815356165331145151644786
36 7 -0.0058390301301080132388304706001119434605981469182142480125818243417221018531354298390170234317840660657682401825320941055324316982868439261525727368055419897202108435730232129201762610100700513980250313272052869273794082838803981393827835448924455802141684674686281486519318472018372637071962
36 8 -0.0064637721649561105270698922827710629092059449228651622408112701560629575336206250575414341344534931475161423322770053855563224766902767391809003579634979476411676003233142170166634317628308106572533357282057305035160803086339625381343444242009921815786536778258743675254949926112332873721829
36 9 0.004492903751241969400282401583917801203644315450779629748741399430145933482312019331141408143045990050076173632645759556841084592005587052939787543505435994403232558543516630347211095915557963115039606166940153409770682482618835217223218653812002427085727228872799370839234449565259289673444
36 10 0.017330480991597172582332299780320149311981851051350751430353330523232098867081392508287611731756921611299088156033386788260734569635279648703666837271358601550491059308672121181250862933255871321039466665158024401846496567415457654975970562829484022417814684675837970703918848131754091443155
37 1 0.0025267529636128267383339692290850403709688389200342319628529066943128684299222804007935522471324687344559436689686004074168983739736384416410296457219496975402425710144015460926332890424737510526434530352035411906584502098356717524819751129976362475648079092159393732592623431417851333244516
37 2 0.0045868885996119497863249641676497590564374709671028762228113416166817983906954646310420843294894692973025495076847587296837312288698378373330028898628142203852395828416141820554453315899458708435688167798232379517344153587979740269578840709934591922562540940788217995319319834883791923668963
37 3 0.0074266893894189923280388991253430843064397051111861972156612474405260177909491131201475654568742724821293427459637949026947592213217596732737011860500097609806746292724922197581182904797119172253089962111097927304321610706135065503247159253111812963080486639272799345897815967996914179689948
37 4 -0.0023277393067343160543399979993176837179300555879187228691841247864852279318132063514175681539678970349751422862899480427245086647063570099209162171361627216823910180946932054150330123632064463747772451210737508037064697405485758266622873708497497091275598885216991611101619022756121140428341
37 5 0.0035034529362195448330156783618044727279554968656179277442369908237253760156895161677142452607587942267507987713810382360527187052105823149263265141329522596018261118921927886311304646338919678841644568816209410542581932020627327086857747980129303310167221605713057504429935811835491185597553
37 6 -0.002143150809614891718761908134632232761214173822911900341134148491014498299117091749839334741066203289384221738994309440860651853622715539888247450595124047697357103790729102672017226454493445509392726906148600927100905287403835743632887171371099001358920889916223465156292091045335624753648
37 7 0.0040598440022960274842073769701452752611245378703436742551645962658971510638141678442358124435654484394020171552192287252058459166143518989760993216996159380964088308047201699688623668156806398985560314230035830408289871423232749268297030031253114505174590084860938660579210861163090618639968
37 8 0.00091798660596124735457304509367380749837490938829596929233363260971292636463198116522941723491729665480552081722478875135862837340331207933935543425289251124335817607905236532599366595942968576505433966740785742801687375029598540517541142276272751565647542151585319916438588800046135368397331
37 9 -0.014506401885608299209863224862950428054710424050962937230939944217372335840890624224902476823720024117875793909929608670320296868592360574522408906648146865913147259041642930943729720667622899032830945623712546477426557471019928486965777021338626282860484051110987755363955136669037165007031
37 10 -0.0092266014811943426674577856917980260022968444612852945800664506258924244636130567747762080563417942771375903847040636468240095164813716597619528085152131778387725737075427769706294268007914487140074667513374285952460106794413600221357452377221551673935994148541239704669224345496406870935456
38 1 -0.00063527625434636411443129844496132286739631092860158968677117970281514600256160877599846904624676958337687041997436894290693885738948067286540937084215032947738586863419833541201742534760601093760826888663089420268663018409908555510062055935342871238729297681639083567784101694771803671054739
38 2 -0.0008572421650035154095166803576339301328965858463302855162601631666610074767633553002159422540919446534984463390134739737220004349346726401807447631416192162628133783731452594803735135549545980591723167895863238089218817854979389949519178054037357384567413689206469764110721064252343162136398
38 3 -0.0015369094780650754299885534952745958488151025351218579956039661736192235953649645332359115385081537802886413520037903051503749812153822850785793815414511441592394271424068472985293793835210380900977693943117398578902468325639294816377630638441441496983866430841207281260562316952179139371445
38 4 0.00044421328516651109764316421042035773016750497381053407002073132024185901403106382991259646323310071010415916860464240762143283669081168305414875118068243938320241805692072690318560649947879305517884257246757701525970751003062219828071443397249178108060345166810474568943023329564651217565813
38 5 -0.00066648510746733729148529863491495581622698485338164254068622279327054059912178485177181662356187951833513167805307112567252426952664150731529154475641313611144937175403912886012815619812483659484222464595926278623691302151066829301987603446113554580835766642111628426821618388417471930386042
38 6 0.00069857704727172819791134981968631183378405491206757990893673424085802467490942755220217526238308607338336562324165210876404211391201766957057838137133281851100787086228399364825923731490278923585842828176733161925960349184471729346976456663880344697487390443178957456322220074528875571743448
38 7 -0.0010302101323399826269807813955564616866206153938539140358715902035210757384283564807573608206132124556728682517994208991427956408580728167101329219730973589228796869574034107330983125309285229276274264464402787755506325121480167132244562480474987309888729233454024880998465071759822472625044
38 8 -0.00024522874261905507807122647980836418038407721021174390599182656192014382153530583381607245128331853676297759696221951338379513628279697592448174162032130971551265117077992357273259876133745263117608654422018664413416821554034042154061632194917574313042241408275236596743262572026520700517355
38 9 0.0031944829639395981015306416902818189499000628419139076335392503709786019341669357081781767846765754653393664329514329662100110346976985253152325955409351033855537763443053960834761778729079281480070828906620159788418440706187294590363179472138747315030503053590411189724426821392346272736318
38 10 0.0022169880587123465668244317587262921145041196659570819878885094316965352637418757524824252542936467979164900716949491458971258552665104586294746042531004949433672557645958849826077505190980352788701108521643482975713658454163039420302749053885708993489394636449906804442167394530301880481427
39 1 0.017262364924291004424436172045165695086898445757921800004521356528846464709000412877899434438908837875360278568429077233711650746790539519574572773730686270891241648173301087236095587915137245830794303085967567786661538519129762048946508267493858190552801551571648541473992790455811396190436
39 2 0.02265301099269479467946624731924632964187767101872267882248899325492051013392201808243753771726253636183080301372859575548934690033488919120027816963506286052674705868143733642794864089352703793827407500553620479746185222509917118452146706587485826026181181991471286085606121815887268872838
39 3 0.054748103609753926902571283494581995019216007932440957442810368018032821315092502773393719573943660245134391644081111807042640037370095362417235454109105825032488013628904171060929585073416338483096848236994619877070068226910467224018373399574209106373866894616446250934829429592172882539169
39 4 -0.0030998255329842182091625032128684195751391646789531791447859277658569810077361470010431971788075338382766750162130615354014802537486918039404111975096533085612594034170185658772687433376344618380320795490242663072775166024729487213794204374558338680879093709241914596251052450680092201957365
39 5 0.020062651872718748031305302526832767439208843811901152118667698899181735546249640768420750640316481487890632976009675449315655649763228049506098911938891696742679154152510086808844414871314969859504008132455529077898398475532162425812664488743266822559521637596489303082785734469066592167644
39 6 -0.025197483699414796908202699180022110654652906042834649582144966901058488397115778136021522184832072680469288749029676955225048669814943594696789564184799451641769943191603653654757117315025609093850490552954432933916907227237138657608109305584245389583480824881443782758441425902657009998416
39 7 0.040699021749524160095865702062934964124578143178020316687875441422509918865165803025340170240127735406775241693940563335263904465061575434216032556207840862176609261658219718666366825513946617946017608530914520113702712303114246080112241024299991085563379700313364522023333430702620301020596
39 8 0.015311408566176188740722245510813389188484240547777049578541565035430452317250642492476971217189695640367119813002625431124580064818249216359278691493744038782235313901246983806943494005600273197656648246426978721097697287110428092775580658454455825032447832325180335245906822943352075490499
39 9 -0.13180727527097445091919228638815220054819802500797384236786585564666694629859020394134244327714325314824097987162612051077015829747428327705725361448291207182008647640990208086685030578762340851462029555991492067251069947536701625970335219770926164723984164383111426791075121687551260657181
39 10 -0.099746692927016166580802042987269677716749881022227460617495833455448775148994517744075861380510549923186749561371162206215956799141663688233107901572597360119508385042503089402879836241708762417794557002856706723980768447201743964608896439897924684182788039123144188717188113648634832717103
40 1 0.016059499414939136879946414021259067311024323626667096852576579049815172519062211455594051783250591367256572116588013879802094839796556217414696229391407980274891144724734668612545345772681956526852439499458118829627588586549408470392708991931527975040285026346777646467472306077446412755173
40 2 0.023370308697688278166335785368189993755307606308913313403794215479075290292355596593263785135062611062437412903950261086664820236367703246483881899386119019906524002024716058190891018467447659814700802228578132153502346799864614668048120168844619335279104896325009135787721754068481904536691
40 3 0.05198159461529866160802344115015451919225850857435552509248815730372625631931462043527703278909614381420204269991911901795145031134627333844043734159148268493520511292475318495059349652997265522116122695984788901388110264294324968430115825251140017531498260618232221349704651079280865498358
40 4 -0.0049030029028850249246038925386222313572240798110018892082235167012451706914485758144304559808065743042767846015744163185073853657801505922523953448797194480177491940843031512379946686338123260838664919133011755800857118951575866271717056084730435674547210916796644269051516142642437605082157
40 5 0.020005697133520699408719036864143001382590413531877539931894359182893264789994253380204246051318578589590954791700430046965372827636209328698086377130151748955644600718710244009695151813720911232444596621440751770757761900319825871587097609139944076829065196717574492695717777700625942637533
40 6 -0.021531796228350203355615086027562286006276795054882178553173158209360761765635905139717028193521993063782185581598574351697599895218480732387644945566777429057016013690548729468880201445181336231132023427389994352243196848543090811398530325182939449748805958496195262100557249245757863645877
40 7 0.036342280232244557438142103408433326738732372196807746193384898804209700169588064462291043668216784269549077162403034669800063434920971186295003099576959100945269168918705739502190708882799151254005736687321921230021595730268129302919833842245849541102926001401270110344085434891064713281006
40 8 0.013175064284718972764078768586471816214869791624308576594568129706087222352658529264869116628535029195042455817036557342466735633174375942612544276783570701016120640961162310674731999824704061901082690569072121424596979949201020341059455995228552636984976054696232859417507451553201576187146
40 9 -0.12118810511160253262313035104464265126845042780539482869521245672129466525545998335980931031765292564688309531865616522563854243139260504125510784413166228485286413812072040023107963873184004082794717973927218170098881421757600990339440906694575819954786048809614553629049166581468251529162
40 10 -0.08928612348061794384557138762027479600683690328838421273266790979980438525125780478083298602354082417811358322845184634923651454518962862565770559123691283269777638220811599311671020814303892757054612036908965369128112786967821243232584313495654850575857751331127158769270113399535506986034
41 1 0.018221541097797203099827177087237109038420729072358311704555734597492185823393370056624305423526618436545995289485934174322028350579168341848628954142119481446736160654140067268433100469610203739406338161481976932126906144700228202831413508930154725874496772478039219371744133202424289833145
41 2 0.025124976600593375795523307060944605816400481710200651365213695146873117468602858102101372897317163270450189245056573560651075068410287313725555738428747979206014405995957785311413473930696681226709402229308110271684233246122188002308873324007419620930781971541062204803194640791745103935444
41 3 0.058246849571693994338656654782622970994233648706145840657616703368853276674862402378318434672481079861496958417683877030823612340727360238807842379288368414419233600119441513421028691959117541111342082459860606179628035076333143099104663450358204473131474844463093034499398738755281493246292
41 4 -0.0042462546246968197201449142183024507169870693504565341372939333961404010474119710189849380791835003674827585764465378587750400584930517113830694043255061021655288472109228060044639388552265333241172735218182569485701931908019955847489435509510395225787689153626947985535479947633874083447093
41 5 0.021866964159030055268985925525438377460436184992557207636167541746295562578801905849899146195127390701698362000357023433212375561871317462856083368451682327915541832341989371112347938399983817203029335630244153909616027151650238938554261676653663009265097923718771941324445785729850578984766
41 6 -0.026131637101883011589653244175561654191399792086634809851839127552291234567184090949658208856837091298116390228869015432166710001143745545986264503776506536630090525335057612490242108930594044622465374337364836736249381527798045599446526394361352524446727015908905064715365745439385011216054
41 7 0.042639112346090808580368736408448228125178866533589560334052731671615803331404108639339767337979785324053319964789411835578946482926597232124021921770648641338041093306134197728324447049469072366558365187376968791490604157292680692915729370210748313994076638695460288905191009200361132601222
41 8 0.015826010268719479575232404520738877215564359678089492768689981143277999285078743492120911602898023315287156927948625037645116941527730101836715861164619196423153249901043907824683270736933815690070063937140048417544541266331080233817259144000532785914894420357172752542091168178657398614489
41 9 -0.13852982748447076831241417882151424316233779282685619267611257601652324891237037283137087062266792833406160624357359162887179221418818047470951947430524891800142672234713370274027117119904919129890283960794527998259498694363601280035463245983890929007017200096534996957191913508084878669422
41 10 -0.10405802907236890537764001568921572811390453431314446986124112249572250068304749023220029710937697294683573021024438595616577222651292489176190044887558892468240040514235641926103143556773144032831468311803958739633955448524303935206793985907601853273701965816111259482153133039193099029407
42 1 0.00084588959052983275319044283967485386273708234688117607078088392188787779734898884731771848554861216331896633850257937985553193423361044646434869123689050179810014714038012544259762279331685029667100982684578239557059948367347474284795722026917584953647153470543909850434219330883555595501901
42 2 0.0054211353834509210760561675928175650084252589549304848655142505546490687039721726123664404665831662037276274898028743112224864288969057132023759323975100403230500312279649438521295753842343972547118953468365269898981211308739303626438938868003917589948859875803760342817709757624244080361458
42 3 0.006605376632030283006323497686944563289948509050130096838542732446942489807030594428368928209818997721787152000537738160333043534110962778098256133574102670004968954138530907028748332829954193517743443401382944443347405805437275285173168163668962822914867421580953660890502589764844216110288
42 4 -0.0019212250145261518746866705249341207890439713592969359294783116901038504525857970651586670379566485071583203418136678820215070661568203039422954864052655358776859142552620507846623186019813271773674765482118044846588629364108477904715227740092157386156952269101875705110610141227787259886955
42 5 0.00322962556345313892888659100063310766773486378424396596349670649917300518794420753521196152940805072234324819008553175185159413311761912164813044640265452851877650712109833122771145210484806557390819914999550603911843010215726087417659152847404713645654888256266755383235551689371772096713
42 6 -0.00092513160089527093493284361714285278907244909067571968934884815187200670885636264367452706084809349779274182919860978868887681875061168878037994243735956629202040366416225762852072559998065617236591411206104861005131399313482294603723124029924450564510171778571643965276175871522707135441859
42 7 0.0027456275666154001038118679932966255721117108435461743496783681345246466719399698420736149816666975206468714610789758675614534490447409168801854895716758637316901851691021448330192623591776912569300799158427704026765881001747895097163225413299567958378080180287640369330559823070427256366467
42 8 0.0009495984157789240818067866837287500806991288118047186999521708367204840484307362726119066910358975288613406951902374776045690312577951319723696426168532951737446121459164715286549904515561395668675696999504656275625930692875340035348866732381062792672078949912042280168426717680139641286127
42 9 -0.012935476847228394780007831064953274339282308081669881060948002084172896997283983551916153671697569363255825598515161293034402263171779880487097268548016831911213680971827349227353760904892438864218233143963785090127124818590454439264314621760159848821583087559341020623423267211187814178622
42 10 -0.0079699132873555673518005756690094551292820888738116565588236545969277761662142648061628608671066630445310307738106259088794941773508853670026869095252146521301987966072041114562485110996684636477631626732225171362661160861913520190661439987104159468532046665629746689916790816851796507657127
43 1 -0.0040011031008446425457984608827217622494438109013656325545178530952374349124380455668060391279585489893218158175707685420850995694035642488682074500799397885758149311210970861380134786367548529215810665769756429961738336763026848534037733545910639056056044248946667137678436189412189524336261
43 2 -0.0037994151423519264235266559247513280322905738043430660228008089414451785131117062615890464181773847911358805555379813448806723776635653323212273732499140411596139495400023219829690800363488964590122188937872540798245319592140517816414187696453277209634942095385765599094118649963884415114912
43 3 -0.012098299518634416494660217462590659800637132759519295411466282616281376456792808477113578402678402217013890717812405192862628781077711485587073488461808929408246677990489346977630026567494932614652396955098471764453227357914260230106617681545411475504089868572542346767381776275721487313757
43 4 -0.00070593652544037595109596691142929993175684849560091685736514997001950420456494425002542950157621875054445190610540205058404258721947316288587409467921829734994027018295642040317022913321820058459648442802172984286359725902215657270208300280339752977752553331953939102464644288329262262972955
43 5 -0.0038306755196228292641989934021989281225135289807197456688428416694708780403143357695670150569082338653213804597878263771895731098979831527843977927507940267329442751632529900586455675751092545518700943720719001984287024115396792382574965196814244880472369427921815359156224919951622113322067
43 6 0.0074336249930120204550763996310462753562894694426618777146331915730511324433206454733503321928092736103788176843822586864872973002186487079973914346845839774427317570018421786929389313044225185044688783199571771217761630435909825692797520995877326908701025166109219818406944088829580262789546
43 7 -0.010836448353381680987857262850738390238873816083333099953053721742453201475697584071558222695466979493162133901090045710062891927512890859398579357294732750034448672354041345318057966901007090593862771153459416263699678960740031043746151648201894407744561000486034560761326375020028582428925
43 8 -0.004463475788480913018143203411311701760707523754890756345104955883206059576214705544986679220223468940695070900725052638480912770341523089150433297190551669614912614050888468175992330691195990505277033615983045115064453328419577259549803338738678678699411700901558644366518888615953617410941
43 9 0.03202102832207396654136475825213635608934594414132711378429861921093692487026523094923566489700047776645470157186105475798813529930245441708276460371284505725490528125315881175640777717854922457656044257943937145025685529531566834643477574361454330081295509751564898231256354181278032872173
43 10 0.026132932460522855340651559093172635919348520918727250099043512116808888638319106181299411639371378598939777097775576890200561341166850010852846935006246974485231247061562431677890770440605605705739890638855060980158783196603143645624344687591179555733432867897966904267166585604594057696158
44 1 0.0059010963275555864881045728901044661229244344117679755886706897152091363824022313628252198297734233455532572053470137986908083550866977319134110910150826521002250094454203469494360424913076599874751963619564510092017219246797482478633475964964634747741340951356901247643849780953533570146144
44 2 0.0038820874200773387638508335888363637174027853466218997360922146336679487098024545722767442771256433122450471762228211574009057024027207504396185343315729552129117526253914036443294578876213415322027076955076889778745169546572379676243406942222493336666430115673551299601374407331615863507355
44 3 0.027811363743021519438379847142214644132228566061842466244699183009289096979007192003723459281768456947457134241984745997082349352683934544898396526174212098423454928573951505806511927862446435142904878936325046813204807066144126833843432846837383888444207857450433065000428657448657509076514
44 4 0.010749557334056934033992214483623446011437163181899957731756493356590376091715815498333866588147459863973339086792894845620650386405509356425458993995157724443341853399345597699391976506380778178851847683519128554027880821456855749251725819173037045969442028469733789332526832298448625090596
44 5 0.0054721496778304830868453448742389680533360375963880015756437717556561008542450138504778788750841794532669145643654953689198036629710700633542546382183731099225020978565277481262931101568123362013427187869064382086738723878898075774265461846047722885546327922924533111963522860819431084400007
44 6 -0.021096658437785305131164414986832876161836148520774875610720545645838261099262466056690148322926901075433059502565236428626891566817428060960150135196552924421379457970434794683032363153235582333915504542391746311595502323241491906779050950175397313524828324789429231150639983839405595967705
44 7 0.030133067534340712405577307512387089055437505432415709264265017416020457356774694583196798892057511674040314190412501637889559096045739813007746297996827752534354458314159818756372107005418595066943922967695678541416131818243831634459894461070667247042379472902712543210192948095965318881558
44 8 0.015841913542236820912196328140849779028723868854085180670831833755702391426244204333570958537145596585910092215679435785940591521500248893574919166362593497302808494045120822480382068327705686666265502514854122817631567385097859510392524312903708723360772373030749803395044687680836876799706
44 9 -0.089061482317973744449562903008301061601678869517389072463602217803375008398406548300310994744539464465659655779629758601426950519704113952975378912965169565120163730089416004517015418515562713950118111068577884693672968208200440884593419035198343994242457161711316872873730812748670778647266
44 10 -0.079332521474115154751416308899944982751425411587030185907075400558292934724022336554781241657802569414499722440947355024744284553303734047542111100505988526541875305530657633496654586096789395019748005938623869191430266917541763476882215574520733753705912570157045693707022720135532252144188
45 1 -0.01263064921564661586309515956142937884921457004122659006651700394558020236710331314890422935713611254467450814534637019951512783329682794977187299134791042157442070872119799512811925989452946369254431628714549527426668846313929380491292023554680953913624533070485624981863656271337007443961
45 2 -0.013308705761679515802075591767251627256096789288517978809554551456529962289315240475236637374495378268735060633034193709353406710881557408220950007097087845046549964859647054947604317208674284529618427299153291225487581772088208757676558209520952532630272760216503389868980975400127949499702
45 3 -0.038172697901223686449851523177214758209246951650433466755865233792676870436007238051579963280180808144474864050508303651215105479358908297195838405649449870809697744407762413887594668752724710889580402567930103431901583343433774600325388720740326706712423246581253113196060220722992756990251
45 4 0.00017072376175106434972147999093556306905840251621839886683633395945978688368141791618588584831626745019788328902815359716091870503258942747154167227197128563755129526451246613594860251950375092493737296771157895930276357111150749966700073347652933808631428074765710769458557593019864357323461
45 5 -0.013200880330480297612852533541466459475769612597215126455078295031937254043601609762222913188805249968985948088993747670732275094972519779046583789331065517517388922929542860927462415289365021188941067623680995705940170794288084087183094253595094178348637408376943402932501366480161665386884
45 6 0.019410328255015608304448571986555044786881231737523898028115617038389508624868738833310747924038514438089453426399393891303320598797373814376299242731478044060760398574696329595791626209843260663162628839912548714211055596387642882099851587025665218981530978613949145479171818006346637619736
45 7 -0.030522151533837361087430894972403448542312952045922661514631051486723741491006725937142861610220990121258339574611676715042704259638617138216278171182508253970045386748366180445280592276275273793664078777906700633331503551279889123055390896416961103892669233558471940843047023547571311555801
45 8 -0.011889862589467345154118459688533081440835925677976753244121223876194862252947474148606000722563897110383494912905862903277614501508444427743154353608818014230438452818192476806449618693880459930320507786525800792321644969472067434245491453897164568901188756495506491245720838443196171866835
45 9 0.095397020506980788263187251848795086741643916909585833908890519825431013585354745288656203510877408141137785801206059887503402615267606916677930638614930605401887467981289583658161442059437828852382858324633632596763411565339527694786489990357508770047413637770129787035872981255149240605436
45 10 0.074231803116926840262311126780097454451944360120553792231637672076592787727434417941357906015928795483306300645749091305165691200226090059274371266015184833515211118870539680887302659080462898004247395067376160743008806552413059856379449401241636864937909967386300074162681127509389205697119
46 1 -0.00067130688540669899480971981078344422849256528940961271299327523856344970013650745958283298244899008261222361527151270178936696538500845105237008969134052144267068735467409868415386754590966100787403395569232324455599720092317520932097583816472687386465360522836286760803175018705916867787269
46 2 0.0059220870876113388124115691839343562747850991086298419983132423125195101161541131668117815744882892830175752972972489767799059539862491400853366255980953478096172345837854847736307977664343941863098108103716564715081831552386679337802385567681495414325260777456522602584998957381334023469478
46 3 0.0045095492589380401434072670312587409520278431165473022154964119223536397278494195340220575048018152468394724548380128024141697670940543259310392497589419448497446305707586100569424851307674970329249621540698470788683850022838794187377197567555719692208178700820377688529251658528980991243099
46 4 -0.002227107593574877690871435053549132141439105906941534558454332958272597890484659413420245145016812545065538213382268781604104327594742799296775951017883066531784278477606526350185798837655830642209948330191956926371663963685031645974224402945486236900257680355960082271994848446118875055118
46 5 0.0027220120594797939065680045448284440497194990562770058184754955598578250139692298309294128154301783409847011240694785926521783253363303325517043302606436583054783453011104661851495349850406682423085837001218628968720018723825488524109297808058855859722997292360975580675964951671351439492151
46 6 0.00079336592963976905865555305486411151699772690997581621995476422917384182395996381670726967276290175303890466830688534953369596396766904987999634517267147032177676833739781350888592671717536858869876354664293643877219111240806617479666038864545077993231137012068878623031651659573792889579888
46 7 0.0003794155491368221143314361546518019636391586124388039495669855569290983324152878054218887416065558844624006276122945613450612129713843202125455841529094882257060009191846525042428193890758461762282510060402968021286532231875517792051454975492157581835445969859689288577682373010797556978626
46 8 0.00019987931894098406318180487775719117658437558109033152878716251170243459975260294396613809945733753448737492582844664155918900715951330128022919757132240215144302423783231119386576887253167481303228395062701199662363562214868430069732585953296061312246527800303360214715386515220142664891863
46 9 -0.0071362542388116948722701012687626640271129450677251397814502871566671096262936356898440595748604657627868630269325175465057874016047562540145409314691080724530173111103098383108701276083060458051921174280738653874060967398339074757930003610421395120156307246589940098025041089984828841213653
46 10 -0.0030968269086523016096239970294969918719640241571242566031706278998764677001446942369240132265004276419969680853308960142706548812906857936367453846937638200521449569306055299734334028305496933388670595061336508348641994257591321178501429449269139827584830128081693375268081212201180862979588
47 1 -0.0061017898293265926830333005418125802257250112576038147246618704503522565361034084963282123146234440760382401447205037129339844615416241128952489077208004097025538160605170421524828184174721657445003015041178544995136724348668060278204997244872323270854632536997942541322353184341005832943985
47 2 -0.0028038159826381635659584515702218052764687268537892496910562952410198199347791174596499812873463359552704825773239562507736827183144242708652623397492639039388564730515241281808280981597993185858252785351337155102511255943176741106225049605139105251536417405390971533279728236134959141246001
47 3 -0.014896756338868331975932280373658389588400464952073047545461919477927566347460824162055244393116264014536969733300510423975273565842228414062553951205115360858042987927336026642714893321542786074329765957112478433646820509802777712437576525422580767221155739559615198667233676187709149321972
47 4 -0.0011467166571335085289878988706762280300790817731982646180434257005555435741135763352964528213792158532351960996829732174728092431935647223904863861562815029779744872044377050258604631283522301873112257248162585216176281701737135578212718192268520591939834815725559418545794729708244003520713
47 5 -0.0045170603353796537471981790935034236325893562473611595669712200274523148568060926928547513020700456005524287896742411519579729841546454493562651161422245584065454283067037081447264501129492107008734299677557721050733208976668866021193639575924511306578364891256262494329710233227863183729396
47 6 0.0092482568799408024357732996244211477343079662993481427721145597576781553036386079233780481686131188031101398908310935791482392586291373917088893670059237955192376852666114602607590736782751045693280211441727043017653930257477932020788656565104775473764127698478577629915604830711252174362721
47 7 -0.013671621500321218125975719168480009828251625162846307973156405225407318019581479565284271993187234320987958250932160856616808290021396343451076300646002156396441921352802302606629683479515587501228648191383027488893123053372133194081482994275507251862082657923562480122342998805487504074441
47 8 -0.0053020178161831481108574816068529433875446482695588507077586094819687932452158139313809048109720860282095835323955551459153657682900305775205912964637705049892463417231917700843384486871397057973603491742801423462747763871971082392499249603492684949616165676032645176722994282870541881144344
47 9 0.03947561219510604557285957716748299762468516585267080051706472056014075707708286878797146355791907126273900398048860385365845894483379591038395065641271729279790658453978844889007248531001897114475685831761715419308373539201464045639562192355401932925747151735795786592508528048324362263965
47 10 0.032060726188520645181757507961798068520874433086524946167934314655714047862919087898890960159154872167212992205340750393569560887401830017487623955480507024455910640131813243719687260099728324543839291407002202459083236075150999488521823840846892610524986430594354766225372143155128647612548
48 1 0.0047178098856937733077726167448875534205490252616877049643385790985743550252910655898881565409359596357729595628669680891300119457585859489574724179056315298826467103214040888677687343947131016616343945738146092686574479463839507631155230427037270730714845066073129920205330653131413433281338
48 2 0.0039852906972203224687109113153901965086370349094755750016657487005912754743068867817834805380108592555656518208891624122755084547031260417184555940195665622855495488877514683795926066680531856809666640070239416204102637168544789860670317172690694519085013564931725185053938552502621254215229
48 3 0.011483576661257598718165690025843155198608793763786627523473157816015723791491907962704166662159772272995363902957210645676788524906053764453952660141631160576910785771015036195259526795807370199664318280530253468282606390444210512279624510261975433979040440893009967247119072099452621742136
48 4 -0.0011145873735049575870190031243309225630478384303929088247997234708267513010921010444216203090815524588430389894363305739048865342962624266686939389527029561312089385982512121618496890234560269384705060522510271636047517949952394936688965861346575320342438073618344849156442862773567818729217
48 5 0.0043040033018728509504656360049092218963461503334911510285888605979976059651992016914254049511790204653268094190810023651241960869949591592430841065892982396299877966789545516965789977284252607999415547273739995263848269668888099509046549741137911878838086854768132493746065729394673551827923
48 6 -0.0057381047238239651667369682182151609596023334278056176260441280136412552121858506789617694666757375898056063107492688458449196848506752314377501699938481435740454892156130748506598098084518824184655083893991828916337062392072521704052579038780779088400233664050336734715163737353938172657109
48 7 0.0089256949905822709827555340749886696128125916635277320935467774748975897039974483140555701220922723300604593451354204050348776312340306156962316982335385687750189065928339283174412922390815285402006270900187789873413488350931936750396600611653827956261598343595900973997117537528029443437272
48 8 0.0028995886065147334150460716615797136578571273606408041524668380943473541568350706167807371415391412864696792815283364221297847085235047138392495218777544483098311355554798341864930713755349416985955157847460705612243303285137322637110737383082903192451771428319688596868640452757732446920467
48 9 -0.026951147822314521541003742425105312652284141230339800450817548282336963214849491543114665056859143231976094878408916984219847706771421618640629595804881700106916834109035912324997941128557304059894361024000160266501856490356567367872121298514867769056349835954845713002574582507392435191234
48 10 -0.020249322276300665616756804670651927761623388798120575019669317143697266541796100399006789714461736121813478922620077823148801703724279051879929957024055060363900735629113528988072329368396980665931675394333064431936333201193653406281524462534329452530252791494759227656344687440624135729997
49 1 0.00092684056365409113836968284008525144997660830088038186122412028764249705042060203340383870754811847685644855014970848347393473269904197431891666332016657800972983803938740989954405172589997335101375653161571913393658360645565343506814156538557667990174359454445340004855082690635161602747625
49 2 -0.0021619146176821766031108437961594834766333416509628727742628962887197462043637839509902823361628096443174263629104915516354215255990226078646924152294249631951621814745976863082289109041714021865661786237384148925845882618562194342478266077822885465067221907000371565579605250912237129166826
49 3 0.0087747443447216991844073055823794041001571169184092266543632078588004394090538305440192135651136864829363826989995591228232227474728475399954542422909024425987616993633145423778153575365953744615500154699554008881577101885917850729387820439204343947772638256112607671027788032480112174686491
49 4 0.0085082196827418920340754751019459032821283569086608721364853728805715859670286498272019247754446860347876405618266281467924342479522979232944442847340495132514735394515751386130687670146603028821332780903684144821532163432771648555800742504668450196491962133040785671525061760837176492500466
49 5 -0.00027547252752541808052874720484661169155502794209094993245552655000952141976043132066446834362332717207738398883046698771238325147952667956137860491398248135201689024054710349376880608150273958236635852029932173046775785845979848353309547490964358125955080984129109721049136845661246572664977
49 6 -0.010430171927446866458295586757260855339687680349700830007599462481657271867011114825498382064767128101936620394224997363968465736636577983168590045826960296831686978303041819112687760629925121218858267849280491039996845230274111783718668924046188268766363636300145650196011206141699047349085
49 7 0.01370778902874508168462085908138695956890910501041984451250592904513775814889147467702443485096886735517237730218564978225852780983960494931528206525808199126405640069756448920700635140326097220168674780813260255329237677954275008653092524356103716820752231323990889116607758655237905672542
49 8 0.0083802642808809783766761327323556069975258613005892669937094230793744968289812230735385023659590536911876252925565043470967791153705114444828826763307042616698302540967724616852444837776950952666063027709288964203404077669844066750265467734667419634852570954408924139066167098727736589567698
49 9 -0.037403314205180786421525161836666849242520906578390179923813041468646217821059016918844554232448796509272005909395553332175116468894456706371403387239809576993458904968394235333742899616836322267853408161829990888518209975280398642419827433990688557055011031073512705584159009317523182388792
49 10 -0.037195624647431203554308798598801382492049878249453780784247030856411149211876429708401829580422720356223895167242516244636220591335232134574848965549070677526819929445863182782398965156120891627786445136121211723405301858612460580339640647346897366223278994769731482134738865097967784215037
50 1 0.0070544410835267523120469222456796718435964337710294296335491408000907541540583744248010471747404233149750063291370622349063723540613820033225959827738948949099478291494047066956650961969575081839296189074470934470916572114043142786452229727654146725613765135469413557584257891099204254595978
50 2 0.010903464547021210952664152519416692590232693640475730183243720080204256378520856897599908963075532534497503345781251415145343198115313599090396589335788787645874909933547863213392451484361438829983669986187772434545340921469174848013943785974499373147931805873408334942206197541453730728952
50 3 0.03340698971128250775539028357819934281860509331565893803295955335270080070454824177231712144138393755537973645200463711402063188870737760056666444561974675768159781195758330822219626258587112810469301778269978623759773158487734925566863223634851270687855292536089387121002069089386973844947
50 4 0.0057978021567373459854859701158428575939945667369465223854453781843133659590198875349203558883953606343567854686202597336706737680728659900410770581905699890352054595365250330791717946507207841734237388506780797046535187188411827548715610056343246199038671849155827162666354479230248813222122
50 5 0.009458100468626338162008760303577543134784693340619365057856710341830480671159964772871780285533042120113766911022901824927951167652636367756592655298810472632003134610393172406178181106390847171036463858673130674280818361378350672491131134037460073537032631676407645397066323601242147961046
50 6 -0.019397500350955086123732101474853898887891012785327166892945229671950565506060340460694352968831044268373613598966439330472547224173147546410365498761246839639623976623935322727197027168937629407871408623106847534827070162406796863835003802636303869201204802407096175295774259284163621917386
50 7 0.029608100227958277024501287943392227563363922622604815878466381668579377537863480226376548601675395187583081994227010855037453922756134136002139394667044753457708348327355947179319302613926778624318532635905500247334166679611987877720573980030744732146211392235008858321058707806434146319509
50 8 0.014452372334995803002038782134778430585478162635916518134111067611054579061972750732635551393714678603567204583186294410096438636490017095764961698176560707515929192091350329210164743235301852270735305879668004361933609869702156307206660239417006982014719695988324191016954507308122165592238
50 9 -0.094043565407621775825460310324027943552500425504281553204228719398438550685575731856920720113574375763351302190752268926876258648552324594608211308563189979065513081507193790791285245796252337385455547999888835731539146711113228215603387380389822279888997263467508452164158992543077853075123
50 10 -0.078226365459216527325108225591077905121297276210011458013709569565790275549747405854997361836758470155573509461846781701029239194637686638448692719890650577406416569737632477338380276995801952877897854175729967796716940587157564323684959513807226726073934480010444809648596445649670504802963
51 1 0.0082019474326549097488570964056901956230635780585083363681743742175747491782934798418876086131064532584794133691718323066084489349081900477041512156585288410155669753925934362341654574152273106618232572289985570276525058823603438906886145224152853738813414483428694435381972489309226834021351
51 2 0.013266649830609269855386613210093853571186782823838067327729547936011786427261912475239065849806894368789512219966258239370040116164603595338379378051517374010125133534928029716384017242875902731164114902498258747343651546768448378800555672985706110709842857325020050476853365959582675887053
51 3 0.022568092652720064452241887891823253478911506534616193281127356750667427908561916197404019538655496566435802495557285070706978138364765340359736941536418801727095450002967599161428640823521407559305220314899298770657913322312104390698704646680282914766836132288503418573230908194065515965192
51 4 -0.0071939169945754005937551941530989315406541485414173073164608461958350901442168083019657634246823548636039339289049567873802341773697662632456628200625304767017693219746716353839295570913806412976481825761786466044802511801144422952845153463785588133317764209116434678996613688772990303262047
51 5 0.010650474134811053465852608942360908048535679851025571509066658038687438940910180476007948127148802067700848122805497859196704410731115276031749555769774756560310015952094870045136560160066951630127151767964704607577578251834473224268045380498488273091359613895691543805426273403937280535689
51 6 -0.0060933995899968843159964833057010759761061717553934967088805337870480648222121622989933340551851130439266604531641211604765572672329530938390729512680129031240284114867681947798161335716133945665694386223998269377579242593096387127269142247529186275241952955356780281304164957153562110220784
51 7 0.012053438158959889039310331698426041098054551476931704494645298796968435565644246210783816595476495059759084117544476564318066693040995825720603253900142861938317604516920883668087151704818169524454786437710868747538754544918669732708497346002885332688946955601588575361759186545610384516402
51 8 0.0024617329318263398897796375615228869526584703561721184035138705732662602564101907149203370613350931855252400256519468492887959594485536921417383779793011250048610676112471537810916739513834662217044707709781033975335506485151285918559266526835740169806807741050403917225221758163930570067346
51 9 -0.043594725361446727789497715125492679306050900671371284192599498771063871607865818823918895933087093450889426437629419575917497897079614858567606461189754700782142522810064247885607330575234238545990110986300824508917124476501863802916518204110267040327684596090295698626859578302337882863791
51 10 -0.02715150494115719956554406844609113066834448093044725444558639869125035590686991995060571079946896664846056501749681073577009114876317484483332514525741698529215086375858451610002284195307798207912131888073712888026551398345772810381526000267506749421382370070490210887840910702043516307387
52 1 0.004530892643910476752404310903562216255540066263616998701228567829512682018247548573947874956123716335367196519220237344090711483282375528645333518890969989123917444295373374041939884967084012691751597360036760535370252279209822080428398763501454952214117894509195984433953449306421158755616
52 2 0.0086013576824780118908962859399456874553462684788232051144586271933878267946840341923401674357109258759326208962895668180906337377989706535812396182953470775999601831784798749710924833899878383002864728193135605127020538859301073179020617284656799366118769236768890395353305217670836335689216
52 3 0.01150623559864248041606928695946810522323975418689369754286286965661940405002257230441282143369327458984136709435923837967915121727107586272922850501300119512083640677988650026945004413357204180531781220341361144744982423759330252013127976730720541315471006600242650826302063569885760269276
52 4 -0.0062084402943334915997461846478034583780132720458483068996081711693978765946359401360004208243710694325915370858763669225639633703241341872039000114750455148710386618789590743220418631009230445677573411215946837409394610452761390314624168126537592296870991458766881981048763297506315402743337
52 5 0.0064678362190146944177146669732399565093286968004049760195168331035351010103521690332508161898827830521149581947606214695203451210123090345467164135032421299701101835505870835899282177806043815748955886279969104068470346352286278823274286060567268856949997553279761225896052396085065751377256
52 6 -0.0012637900927232308734290807674030185291512196045822963375039347007856889640919980738492513816963147264953612188283235068043389481712153221733401062584893671623694367061168314869452017182635611651412674982575307431760558664614017024217932768432113566872969036695821988927938324323104003072659
52 7 0.004106336927104837134228628763056396063609366993268764847847530077458119092251835927184255098783667387655937872530433413436695570751839520478324025637288214949007354820871278016467826626851839550376581963631436893891121405821614965357548535289722476167844555132435636881842847716457535376006
52 8 -0.00036357406642721976389580820757398006117061582172498524025600164565517269909462505806801528354142143294551516219353685689153690191777747992694308739923559258067654361441852163620630703269718649006989844352095116678824702128599945022594313930315104862295915459491426523031618394454832324291476
52 9 -0.017635569692181861263051993084401892487161872665105728036539621954127153477598652031492495111265023436123960048896922132176861344648815206054021657157778974251269280870689398991809490786194868514515068151240880145243386790762088833750104591431955743138839461510098753765081820583763297592786
52 10 -0.0078978426377297512763221971544340874130400763944568075701183114929243603360214650173142248965038865336043233340279855961585323882070270581713049922707294481916339600613317713560007436531881111011986277750522351668795011406574934108077179151158192429423183744986961955787236434943265676650188
53 1 -0.012692684342736900514602113377727122521549744738410790101764399481538837817678882705049083207887301015985300646878063494527573952108953708232984022543864527919676639325007765888714789949435277701615172684059761710139576720770291015791393893739603177244707219591237558320892396106041236622587
53 2 -0.014255570547476152804938675096634288052651540515441080493730536119931869587907826276054687744932084439579014995329702036357220484910248211565472462652183665997351169313105855771843066775220374246333927279661738510568963519271349978018062846511301855731753209310506113600371590424614359088721
53 3 -0.039636928662556624588304361215863839383873429011710758925123681818107659841656183602228918580457068573302315522643968868745737503308422214793952043813313947943757812677870549716633222056495516627155469463729176150865274162054446762873961893765502581228586117789397632654651641951296806264914
53 4 -8.7955215853367325150987138868081069309836866664271753892778127286537869022710151053250179322394050510623646141270895833979534409166161977267076591920630287129750975155050551963991230633260341673027131530847757738676242723924291587371472267487191902994865889157312167892519007952935267960399e-05
53 5 -0.013627848257465975599850911417468352011486220197054158751151515980648684832210205960876498090322324867758426334729724509301411236188033646128044889838008069609033937983031254449146474065688956393513638815838582130889744533627434288926490254286250416175939601926747634172092584173993407525583
53 6 0.020661094751678661882718898206268088947209490287655317830377901661346848197956949603107191128774669871803083831274751768619485868725767102337518860729102464531230379436707387749271056933215748081906104226124737195697906573013670359313485121308333920042476926305653154241890414747073184515607
53 7 -0.032097895481389003147250386252385359256722526658775061117477759626677834739624587194570200961542639855009643966914809508349118064736915336971340979714660751657957453894705022125803357507673334450066150255973042552938098643993740101225624511920956591287082801169368810477376481507693782064433
53 8 -0.012734000766200069937001821222618412534024602675201424578227958164050263600573849242205616808426152767216620146912524754003541923769921040229248603640534807931268234395437802570869683489546224511341942567991914501946660615299301077434894423148488954213308710882219943134681552410504066914668
53 9 0.099838629449038887484789326519212812744183909948720354696662322913464989161429411267582352917695382864674919897338936900528870867394773513253537951162740998134907455311706402694568624314900979369000069181714467877444850832707544578061195225158186299739253666946987907070928160915396347683167
53 10 0.078282471936817255379946925865580814390037940092307199415091719019049899137435880556549462654531106217923488628122665354335851192197490510772657967924181683432066357123717237450683092516412682180969937277040672010950282406182334476366334275648886854019895303230199758083714894904338058105172
54 1 -0.0023123104258328258356716692207011859423433933482376453870904677745111452075341922142250745513174564090764845665469545060027993088406361930475229993706835793222538091901233679571522847909498255353828725799971001480482668909182149223965493177994110305140343923843479077273385828915206920253663
54 2 -0.0067053161222099866116021418985466769962220055774275234191535821827664217169299478893889704395041352852910220625524664505963006428412640658254142012634277317510126514296575435676668532921061653121425716926818442784994296325609347273079237499972731339773173130205265874385709780642326859715899
54 3 -0.0018711879429325780821465699896763091544766327831251555871980648371287684549712159139732742674612439266681144622090674708651544912713217842029483518307125067534022365215106268294033476305981796108449993046599876140104647119205562274205381387683594962848891885298802119057883533492858536406466
54 4 0.0091479372783548254656036423551756471285024852226282633438845716902625303186518220727817460223868845755780502198615135159563281206759567993157983969956764438779601856591171842543989038962260599143619005826702552103261993065558579818150285156811796727297595350655801174841277701134780779342656
54 5 -0.0042576967355684965882303128388798790665816003241150503359385315781080745899327761329433989045985210615790022360672059931276778103257542847341297756433757724842296880466443310940410631923783990096644709914881997200973210272342300747828152571523783930720254407929813040088469624951235011264321
54 6 -0.0057108409810013578325763228379510945468260452469207670247714613232139013005179855372621922797657091611356993101607652748143681112475470827753589096319084039379690010734697421777973850272507461721578544176949154113195285550740557968005498451457748873382325422916935971322359752848470433590304
54 7 0.005897012513507684020083120922336245425730571436399950648453369653388112311828477348557039636042120782957000420598459835439534965493233480549129809239735718085251894949754194357371617790458839690775459946005306857622794158510059410313986364648379364576197226774964367502584457646883643521766
54 8 0.0054140304549110463301655765011186926047685417453411011433122551679253019383198089801957105974326013955793517625889714179904199539468317882340556190860352960991839609688328529287185686867774318199852763028503634476964854188129526873660707249475297489623264498997615051209666999507863146855798
54 9 -0.011896105390401228613614577838019924887558836698549718231255213929657484290498670516217109399784284492409360345700211350938067080244517686987305482093619267621599957262681949932434081886671726505152248345582597524972908896011335109470322258946546099550531676370158589857977330113073368134865
54 10 -0.017983510437399960696701891337812913616582127664888147488186674532419649038282883484846153785536431274235135897291279715951334316542024407012884797633021253329945361959188169322116148153649467805883913584138180376820734653411276952561650274062094670324532472042950685530067632065914309007616
55 1 0.013603680200246792867232386516654685521769991479896127182046322761775711071285961695381810265521943211309384470815462874525420114736150316675705542245254974054686536528258278835470352242750711826458696472391264828788288489196278005644020503891325448108701946061409643284855003712148760378265
55 2 0.022124122064852023707925575097747101933117250690262147618652820044079001460474658160829634804610258726279511522283258675870959997844370543456849598481914935983679460426057758504122254260687232330568738942014144579388084184329796457821992827019714698404730029059612281938869852812103455879147
55 3 0.048061109487307348682995304453254113103811720084802489144705146882645770276290106765448155305588278481018825349507326319860282080033183455592473475363271316780976590216254494823478465505967775421079380180792649768054396093380171358325642060443386091171872682887549104239597059566016311669081
55 4 -0.0033168254535133796920826407315274058564537089599978711748339417885347672881368317371246982348441253805052888256928712987595095781130442700731383606018320294556706849871103111206771883644140006324808823468383973939572477538385224760579244740167273942840510795266228888031569100543352675630889
55 5 0.0180909558325652884272369089492198330105855339462172900375038704898541205710223652725158753489587336616657427605243414266620580937678810817373164469579855467187611425302113195732624491343108335818172732671011462197380758247456837230352694113541978910457083131307591729269997496054206799329
55 6 -0.020733922174874394188316147590935791815795956248435929377668135229478732502008042312711203811100005376984066637057914218043764408514886932885827000517331406643976850064703658374656059669467606109863295022347641921544405321514387563338825291725374139614072726759988150548423796749609950322302
55 7 0.034379717850785879314614734425257212258934182227737941853137655568598678108135567960493961769648493263428506309583328421706123882183948348258383398737423890978820799416111623390269349969112228119749875167982945129579678863831887615574087360068048991251448451369860813246307237355968401226407
55 8 0.013235036200410228355662464555715776102958027902571174640317505803167910811311218888922872101360631159047161190909761043398157185962483973710080927000301103898957771578402793373723141277460762644373518914607063900706086790129928192370470427236765686215176127648147938404159381334393311107355
55 9 -0.11449253535779551604257641761012800145971579737669161348625530834140641067213114174124410718310157485478418797817617475468043173053936550968657926027315830658652289055236292085050882576430818095299448364665286065842727915224170967909600403104886139997855469633679660317296261426970270701426
55 10 -0.085853672462261040053875397373574835037009943294601304934382779251334878544054817355643672380488317551242987190787366763444665359324750935088676428171789233543405859935467350864867124196804681135129567374644542022542355092878211494175860732619743999142152573723562494130744749325640810090487
56 1 0.01349039568077630273589470561327364998189172865755962253701965410409557004437933859148294076400814519173690356695486073064234538678651466324772131030404449924375545558426585531343393592077704944053395212584942188852395696564665175744881780310229093957021474997434928445945838794043209438658
56 2 0.022584003598692836994039886412748718153760942689588746026405695356778564363496616295883381137335695844011323385401857590602555689369149937364056224336684947962889772546108909166920536733375442620711780581258294463720408479902476782009455111671779203970285411888156911170975959728274344417019
56 3 0.039379683971834637434272515596743371975721614300950864377218161392153822520261776367115078237895134544255678272088466135312252066846119881371786527708738761635394538577701579717341489820801254261162188841587031930937555095613087102440585432262396911628896846742739929637402765284441422134462
56 4 -0.010778944164477367233930013739192040425055117194383113686231899040072136385501581415538617853822571258881552203187304769428405643991092506274954007097458172059304790684485451033764495173381539891850453863749413318475847326459271959674057997674570455836784374428810269167383830288456320774496
56 5 0.017897707627091283408516858969963782891215846273572873680272536166777179354856087965693539199173201190452355065947557743862773347949249543797120838091591674693436440945653603645127637350924010853333818493348490216060470822379723319869373557359715337751252018802112675309831705887518297167022
56 6 -0.011821642225344444459012781985927959391346226260297229354436299216166446248839906754009234357488269626272205708160531287850811214413861725082369424218470335023185899766553833425213113130570237971994434940382243424992639076405067903428342465674270954040425263377221386355497904294043474959238
56 7 0.022285072770102593080551727628848450068658894761660080164844967525116828554540221264815786137185409615522716261054426814367210572948044535751398209356413711541106240059577324449532672856899644284913332023455322000579218069646964491005235784602666001512320195197400228808349959345391966259133
56 8 0.0055450588899640763023980353746708536476843123389204686167220143113737123438264332445855659366199054185450886821525006519331077564934161969646899925784953603429935527805259679266613523788407098990029571620732283491273410270394422983147713295963566516038995258272999156597296977179014001373353
56 9 -0.079359507461353889097798416685358792835593226846757410207472735890206479530887643249047843155309015848481762012670971065056012568063201999866555646850907420154178226374488776679877142259176622252272612219481947328586800390082392950727793926222431670445755550322691402418673289884176163995209
56 10 -0.051680319661047537476850488794099822758504823025496398089994697893327904446336359506975382116525760631171878969681495759978135391929223922152775323469496514957065779348000485246468124960193062093474669986942545967518021089297237936618485853173416062142255893951784999684798393789630021346868
57 1 0.016949721429245765003923152934821468583011838976941048279249544996370694553188133076158983540299842341816957733605345098717269754230413458199122267743636718504939787285423652884965995132829374229691791806894419097224009548027577513715831062617245142937897022762398536166709851590899829046339
57 2 0.025097868990223062853751417507086705034398377545620673569575260990252178191070649895877668550017253571017182514730701161138872660434651668113462405143562608505248060448156098235972414999034171815281646590555876800695624247473875686614950003195839291608008166118582438565568624752679619041326
57 3 0.04768648801899376458353921102336166518942532049700171660216511794780735174650595350273090352263882728778851128932723277004973086024208565786576781481826336208665083515617566563208957973095451375020620671463984123091859436870968274125834047730144248380169567964837462925196172917225235187752
57 4 -0.011400683057110567298587447978246173291144400636426383447956197381862485917707190136862032584605049728654955828957382895990474146432047870294046023960964481981696415175193316579069026530790129905458416573820617096715672814846890843812967983053004253138278969156919316724229212131046841657991
57 5 0.020991663562300769936754193107220849946522938454210007171126665778374854727387098253355863992040321986247363047520706804083174966077334227212063226212897192114551767587032657301812730399321002625090340589613457346405165067448249333631590165489148349088381020083208762574479868415435223138479
57 6 -0.015696086825335250800324694842606701088024216278085973031690422378774174500700480829572701914906410424809620201282223891843481986634895178206980215537043662484337972541104442529233189694375682499596475651907794735670935978686077899177679124540302034851280677785406266695144092637618158243344
57 7 0.028647590805483155681199828151852767411775187288407130703948886118744844558079948107119061678962837544073653137006245861948707114350652078339789329946718849056401201494400004975696276772528215135961232476523335545535874404836716380777165640884139275829177534806302132332044904437787647096937
57 8 0.0076310496880641078927966674041593425321835971714278143650445327840168861332740274650344927884592590432898672290026991082639648039053728283268075069869524116822782426421064096673367507622008042217628745351212816261642914998352691439671855769450063330488823369002807589528959834652384957671065
57 9 -0.098930551756968293066211735619773283891056107713997622931619170912493535495711876761984967803139570715187097030273845810263640511294673952976382643335900072527930531626697231961040513281825063333228837040051114454250658013434289803256148929416558703130222432049747605110607835546585540332107
57 10 -0.066258538793060118175713458073051350955018445938820799173950137389466161583041838480458563072403094858848475330551026979408767851189487397081523568863323473262973144680143154506074987434483789779570593648746939798534893180632063347282129684317142677503871116211036723693059025228539305879325
58 1 0.0059590892834493682669680086079759737804105234256178455878638708123798534287291079930981146210958816861044166735040538253786480953525719647204391369581275521204377394439981060142214783233424084242265911916246919647548714111717718920467789282833392236682754086445494144920650648729257750506641
58 2 0.0092322451645203244051252611530264009597867438556545934550953573613515405200754710875327333910351430784526792898789209756212423357668978539474034149134458292321467307201317447212663470943152996235527594404101088074578010069200028563855199250950069536782566513752922493280597110058684295632832
58 3 0.028631191689794133601146851308994201529168194201680631557094809935890803100789256773563214939159191571917789937806533449181810125592316165203740104520468927683663846423171616007084275472378898824134694193859293479781826943662172118246418284748104706614276186751533487920178015701206366453762
58 4 0.0051427619912356581067491893731775106955276506543725999969422024675029178514988810838029978267383429401312467441852161215963751510119820092269526916553740737775053786867596672271618661093336551933864330567490790443814590431089421743109119684025391333987404813910063219414970426443699656336188
58 5 0.0080748183331617995798163966686107095553760100299843753366067679079032602041696940051114968079808145367011236533792670536353990835529837410500419286113063296216990946210579130150634703370424539270490811340566146898652198739892985162936659485064310292114762894526210997223056133121663338457846
58 6 -0.0166125151821068279235598307433396923599745080470036271241426187429172590510280336164132591000618102756850884626399407643653123125728714678969106590308025110992474702808976570267529496245846844861287728501547948730753617856645440142456427261927207963600644648159785442771495271274440471555
58 7 0.025437306951476688160011829381919365685914137838014389746253637406284927935137348526970862759556074098667508425086446647658950668226331692516310225310634881998703892853988952189378700242387412049389776704933592389193780060867077220380853885648833827905967343309108127687716911005217388090816
58 8 0.012483307843235373165737165526182759625539883740323642685743177697205440200789474969438550488170302942673113007565751560084017357153411365564649741439657908494313599242578921556097516609015041629218872451852594446689876060533359189240634135639214192833885454042377595199891571051838725014509
58 9 -0.080807997909606553281249150468331048498435939642834807594841145295837462726725852162110515965153222847200984576717673224640032888530012966701017021137817525974654038539839771857683168640816937275220539291594715958341500020186103518925075850503154378976294334885586483940036907848937451057132
58 10 -0.067301261312802835751534512514255840549313031019455250367878236751297780516822587755368338114525073697064724951889941287402584331666098445750908687328662037332428534141721597418583065677772812994547711852106050829212107581531857545289166916870052951138227714665356251008218926463189397316497
59 1 -0.00013614391360367943186287343369611993577397777849463200795372821868153905907162583630719863305196604075507260510913760022946305236185109713377305063298125241649868398498587794492449467886808680228305574887067525187909622736408205772403213548639032865258597478846105043810272073797140754002645
59 2 -0.0020176540612537535511143841169512995457468828456774009684855869347448497410672657415910515620860379425275178526111952080168027255240234794326840384314675043052202002199889928014971926662184634753402093529020329282996100245105415353302173443860478042472697302281596650877931343027988158830071
59 3 -0.0015372261009450824386769382004886473626797537646242668068310065892575023154985190231512285625657420352703295273306123440160536750239380319039918926384514202788087137714042656224568352517843643031175948457617352805510052079425286653905697702314316811434747933686823193822804247894933908310341
59 4 0.0010822379692320970121788333252960454826461660352712309394172984312387348669854569777829040837638610060428739340752741344304154894799108057101148619967308659999572419944140951149747037757527074319975018660025440777578064297252206027186985286060139016080015172885176144770967617541446687257882
59 5 -0.00097146553455549188137260389448769796963472761951716395666932631683585196027187924458745954687412116043810885553718748027054623904180019018192104855897043744335543579183959606474249239652485564632284818043924472039414294051984963412953077185171980669374297976263880463401270399179863714820977
59 6 2.4210225999872767295411835667469680047821163414612404725659234170527691897045899720469790211423759233640781992171304324321850391554644560578654176736559593825153080287434416732962773633874682809894795311308517204153959978019753539014416192180080785671349958901429677449164570244250697816124e-05
59 7 -0.00026276608549167004035689321774863809387399881597555169960253503733769758746216304157207289284928012755181964180810290929868350890884141257840662660427874285355289411972063127924807870406736456078874895905603410575744004360077539184551290510587093944487841669456665333902824641892538366752788
59 8 7.4729317036786822404985050885560808897138294400542927782028875193780381400405810724935985218177046238359713316636408776311364346452713244932407641468372525709719438220734992383549424478705645910935244425293654875778232359427646500321270572997640990387258624497200411072972710540052791872419e-05
59 9 0.0020796507665544682844629462572502172202799969608299565218655387698456092157486013202315730718722940877549399941480172047458187071970616420023849113104731432854848157975354072932350242837336477777335587104206950388191784158094724614253301151862335750202424054639103782521085665293052018520454
59 10 0.00075817726620169199632220405516707098986711796467102154142689748280974568326421160515295337535384523689969534781413159926750452614248833872616614128327723571427765380544689808777435166411157677115659735984807357304378065358995883863717432729518301400141008091621361757551882045544514981041761
60 1 -0.018011216604195415768894352399078462864077437887463056991408001613801343848270793436402391255064011086379598469209757125231308242414666380880721510931958519526935882445744192697509193028783064284092976604942299506936520086121946360384777929637654738617138068574730486136183299915358721128684
60 2 -0.020438650261056073813575565281468263243665745492254792786939747386022072849872442907091799354758664605055358610272316943550223573107004497115856318286749729406780521964556569733536697869789665943303026972663411453355439005801350484294057075155678761288906100841709657011596376807112668103868
60 3 -0.057557271321383458644807065369333376690162870613670703484185997152538811038242869315146085092726392574444566623557264689432100029267449813634556654320490690845898517732534320492569837824276384831597468711188201677415680279793721020782675778416182869911447555514787987548643006057206391103042
60 4 -0.0007336917583277561000871059515387729630241828710293532716980213219679702784131764261096583220609558035416100732720108587871151187188471824533248011463892502372879840655756102168331619040157105616313207935540637857490492897961898245596353641082881945251559905025618507236828635904372547527831
60 5 -0.019533496618082588098641011448323010009770115864872452501112697110952087086357814364666023414803322063616187385009316598621418013000123322455354126616690332121941216372272266206948080004982415221004579506573885109490768623013768272406588453323464821321400535222355033594532559260130626166262
60 6 0.02966145428101932616925781093204563974833458737076038050723579674194987906952156192856759798434237879849219709389759922901690705202705984476262942114703916905617475145090956530580901445948524610246173495139779342429573752225216059404148898430731786215716099688481151422057000276590921147336
60 7 -0.046387621819240325929299181017844804249372582152749251636503171361760649247775892380817554583523719713929127594280882400971445086915349723940039395379745276951687915792244617887036806156809504496147791573290131437462045003449400690462403388844280555944762467993960930567268962985408684412533
60 8 -0.018675486123557339818952470286137101781322978995319934751192705464005067670904875928028191871561919569036837802208552168462280210525614045803752709479333934897995237283469197447540430349014506587515781049338410619342312918309348053564598533977963591503701147902763900432535158923101068257189
60 9 0.14573125696776795671218026959446990453315711809990957969601881400164426027728524738865939411946558474976879235177770544351988634521629982882302023336822023646840430484600994011807253330896504081532821093628308682577036375424373440976226788817284197812369043873867550971724580711081330160899
60 10 0.1143122885939704710976354021084579373896541312812540291194921538308681819283201501073567950635303877142204446284527319161467591520497785138508188508086569986706043806353891314425920716887347714664012214944818001333648755176157563141931849279834043624800443817726574821978457882496608977865
61 1 0.0051652206679411586330110594242455515926883041262443830757324058028633795631840830715258320605495758933413460128558952862991982651091580655247621606502641230002350457656604770622240424259934065612034979582602972958946036370647321121571771655041153751758685906759153188076674938259273968148972
61 2 0.0096260646651979874352361183676824350952569452648867597243715516798865127923866461825297210935652981188469822071652296804545703518713220733069401435735851430480879975308382151546389759734773459261825277335180935586536815596848980877929289509429749875403233758383802423364842413790018347406449
61 3 0.025452087319804214647361052407074052956799247061601378751464306494550560522807851373726712795234048083336972291759248376562700482903576327665827594560184652241579459359208830139376270812884526285697337594390496150321136946255348118724302697412497455259858472808740602215793829317508741353094
61 4 0.003502127273015473654095166260764983516735120976154971319253331353749914255012916936097107445703030814933457110578371159692222110989919658195385034429792408004578840078567137339176599241506968943516531666400179692163478523696315122677706424420227218189102623755098208420651849213695301540454
61 5 0.00762623386576328662681976162498968588374046673712435290052053086587694760287360854030677319494904075221675722708259948391227421978273482694930693419018855336690290656630626700620426336200522153176622457034340626315166346148133816729520515290720443368106398995122076449983492628992209629305
61 6 -0.014754437677555888996178427737853730403058749326177110641989873601974418592758610944585880424282097677068650934000543475027830915900381585093213219039390198201138042552279563533684024949542477715272136551167997330400303054567947423367576906728132602966032276905885673510081537520116049344565
61 7 0.022300024136326246101567096647744871358200181224346874532931161818465795401674779780583756113661858510224998514379952660524546855498775765481891607798764677667211916293131511351484538421689307532436417628306243417989846511358942449318751810407303638805694887296440905689713121278457285369717
61 8 0.010753510393217547722799084121857601742297160338645522441335785583830400014610980796693895664776191623155100453100386002616471209186163507863709745430965165788010531437420560552978345197606172397578532176905283936152659479279113915944690502496665210922047381154081851669239467211955250911691
61 9 -0.070426529652232223648201734326513921229215253523374935478535202061455186173662996580988138187377949910392510890695839985843089360112043252888977211199816077022339514163073874402421078348172152400333439264002208275800427841707069956868125548392312645684236622177295707051603185618766364257533
61 10 -0.058380179366952719461484974989728307246452433368449332124498182419624178020632444149485434633115002093790363460623508920946899067680038526022827107376497641001767715765060738460629394347621731600197509072057848678518773938887994612626522514893673102189445234292245702003723975154285347906147
62 1 -0.010668774150758732682973442053861307392424794801532334168384940101992218888709043431743000379681935603225108722548401729500085772174239321917115472987836649780818838152110448169006517322228355310394326674541112222262078072387636117878624037894258252590687902706051190456118470583833655791374
62 2 -0.0066756481109558028433737457683624608211746012508461159314634743745382070601942315969200288317485438097387754748892114977033318403165952260123681792822882928437658079966419808907555165114473367801071396524683100475740027440246184134170491973778787698196028848957116452848866704832592522188575
62 3 -0.030746736822840234165077481361517894112613989844186204882212535180564995463594201191152012930376252683846253108405523494929524848692651599663839320423442019938821471585475583829641364663276903268613194417640789681913257591703292788188119093395216835303300208394067217494661914332655111256483
62 4 -0.0038227539398086779669478329179027144596961039385268139911455660265508616703681808548661133066969291264429355421544881603933305727796817538742057116387484594593395457127465279619444372222814814473152305757217959866637732572790833788328071954242068494232632554713145262419180633497269902598019
62 5 -0.0089331906463827837499746512310374321010624698788916478324856245751588485913491495298796640079447150022051880199254816722394290247764197618831062001750527335157755021115947597832630722985631180231625842804520095695738186673893298422714910067746083084597213283111245930034299879594409054494701
62 6 0.019112466191714934147457026021995873148393940867109142190229993693852546778364660054201186768046851146908570893596852174406477963621979095565043306245033649746465397325599505432955507166654817154529315372035834326652604274066607391744810697000219273815663573839301411494550055399004081291772
62 7 -0.028394714476834327692631135131442256864691261834607918193103940437673186813550575341105706427534169830747830755147753977022543746855697871087981750136981966798930360326906930491825006791965439099478738391836923760155878654834075088901173408592739880716963678362324121028869439083213403397933
62 8 -0.012024325314421049256860165551882374397556133446411957449034985479669905295038221457384560426285557209906817930089894103648396075944640918739746019830621946364666440689647180601652353224123265957468859729623696617940746068041066594033237451591069849177294978743888422747181701127461699229451
62 9 0.084020986371862153102641655307804774583018460101858780587612625047201069702212684027608829048616365337414285240035450584048722667712545601570376166909795474834837017957889814150768267693475086175370047186306178184032841418024490694139958183802698006369049088684517554306858212063362270285563
62 10 0.069246401486176881043443287684987590998579499990792042121456018930320024116237145288089764723083174499175701921057269579747237334833684472659249307770035345664266930731208263669194904800898910478317014299111576112225357097402837907169288237901313472561738072248489743664577676055692874976846
63 1 -0.0037916171455210125929658703068864843421644404465997255303839860427403362546069257139842698601586475028361881791592230612396624894192444312554773433608919784781264870711045199320598255339019209649872936380980243653705874937162051266604031621380319757839000820236946012956928860987938016291213
63 2 -0.004967517568925720573362399259660482782567714176478497888719992240740747660487614438255575022586084562108429838172997799463400579973738700366229172898711728251580240191090008651121078624655544593046343807991695843939011550222650767376285275607795066325470296165748258386956729884318006567427
63 3 -0.015613379065960564960563315757833954760070449782773371713896742367652518785172861277096300672889002569753323577278685091076693161657552618693400458617236289047734334723337770083171590041156350932416997993180009386577022918976894015235906698635794027400580027018426380226977808009584485918395
63 4 -0.0021929204946159878419130536505979905606740903773347457982687964707487848118500148441259634157724364703469519542998308807451095542729545711815001088426604747275653204252773933210152675178599903813950119468766348289491379244515461199172857615934868143387375707340837226468160550401154721394226
63 5 -0.0045898329305442627349455121193517352576475436748937250348379468553089897075117875410746985771561353663698788667685910580852195410936085943512937447124335663576401570090796501788120663543923686628313314639637700302081220891541278345071492164727725668567649128193132353320938921893709589859892
63 6 0.0089060751987035249808005973203917888529836591953194366121221226034863877576167759391572062219805628001379144425148606475235387939127210515821529810821559168483977904858904059438277819032471260506223162993333007632411204230835904809192718906273670175530713197166757535486615364745917836809721
63 7 -0.013645692948467205181640489153585012676298747975202592201611432215866341282339318923416700561747564098431886039068680965666772094413421284869505713018768524030452654391445717960270885833079914284744606154258463129042147334113411473075555684490186105021195352521234036533065829589398496407898
63 8 -0.0063770786668217790055383800613539387437076436839003976028245774403305674727749504781172192439883656106439175105876407435455355516033987767820022835583658653911552951157439415890245831536695235927761609198005494111320022064884427495379777374278640208414136176934700383533519544787753054900372
63 9 0.042994818248634796582506965398701438696646254378032011028204345035909699659706234699793016776957903567950803817176133424881588251599722967497173240569201176660772304313223418607579912392537803556694365463224072594481138645086142936566284912996318369684538536015158415762344666228172110937787
63 10 0.035373687268044178217576219157755030193697334554605301608637460933734138564175029785978123184061679552543118266592013922731466006224311995771875781035878331858917441803696165452215849568360111554739668316421331010734509315312744250379015966014032660376799058429237208058533441009264465998459
64 1 -0.013248951685721217382470109602058634569285522589969042506081061090652889105568978166123104078790768883323389447775265861309920696089114018641096288610862073998002231773347144626599015696177883095767750315249324307441288168155483898865813661559357837849824148767142569055739417500837267161843
64 2 -0.02205201834616711213421809714016923032733811957440632211285465512586799441140756771864377767410688686131532465750276718856456486386319880468490615796342983991879773936686691603231618933823908685631492478838434552582925078966584368354126477365743025760638607461899273579788210074025023813748
64 3 -0.041202206736515917882296828749900268985729937828258499710118980551386285499233172565593970877124545176296350772223239385691515411509858374183875719778524092786377786528572012277841198240804998149155486365236801496184083663221866541217499441849937867069513134624071442943824293027125918767179
64 4 0.008240749441243873423032091945124218351692464945745552515230900582578793131399936212153477118738798615407144350777838169735284003242882954297178892980271923569282180932007335322075516783049441923275544870581967496219151370193590357903601951081553623409556746349344909918904276936400303360889
64 5 -0.017566447280863595954006781390117739419372698133531712541256789057506472445756469539334219092832360624880723780911660987637253965827619197837821141747312036817843246684574736217456383794491481563475776680899162566359320461313739081858586951922704446124008073589184310048567212369065515162608
64 6 0.014638342594912226447602105198744829967386978376032523213284679212692932685350346494775859467353533907101916220383555518265889681604626553024950275779031357485249094646162432869855710866814946197268090197706215704697310886223470191819046624821726249074913824608456249793163217467073793656607
64 7 -0.025791213731030701727898806333587630285611728745853652622864448126278403648703188390441782142047768316169494972783944212450412159493068755034803386503349980871586468535218490772201410045969443748899836817638532260465115015856251563339226330366774475443572273880355521828700890651245527483207
64 8 -0.007908409777074113861437002849939196248238438895943018300774002909355155501702691048002058306945091033663409743587715401608715662098340542819327361285724049568786731289009155763163141967438753018011820382430496389117192716157070571246137622509103100634459732638776156542081140272166613162515
64 9 0.088675677260049994265138993083504710607378845170618693590607819241662586604127753995434692404877057892331906601995553596827854938957688716819380429468628087736203052760783878448779392699248146437527137322465465192651256186044716207220044819716415768282087580436574138546682915218555155764996
64 10 0.061497090438508638714384475914152536530175615537021435281194586685267379399395965934673182487665226611686831929395418090801719925179093150122010545857768087442853449731805540096582855036459311935370023076222802300714619492388100863959016615553534395215305806455974912635195125504452750963941
65 1 0.0053917160255771516802194082818471501594605505836564135799409312135149575422158400928956777144061475232664670176535803550212031561974791102780608482782736929913453586950388359798090863155992304445969641711144507420248015128024150438036820318730039241926388126827948090938401534804666098198762
65 2 0.0070063752795572275499781880318526697083863046413166450138585825422925662829689597730643006073429584317544834402088688203643383656333944247657611724938651131893571791111858119198464296969654100537685422151750206217596591643312698878563228480759280517754537955055283802668354963593347300291146
65 3 0.021335771649553875323500587146724093779652420558709902276181555539609731866549126125091184874761439780160382925038192555631171205852456566562797505820684918241534057791525262964159140669618380892354091984455182763441683290238977077387478372003214529603816458502258297596807255481747931331146
65 4 0.0025681711006574510881259960696786992195025477072758368558125473283956108071734992346805497864734102465031263712558776610371584980529952707680694629815209048225638086665905206093357960152668022046076258996574718848260388283111831008923653151919294645746238361189621762225191231154601235431785
65 5 0.0064388009031284993126158637462352096988698637452169280624477931458544194537598512890819457910265389003608432920615001067351242240864286932344172621791905146754384996976904876150751331489628901788556230102851357347988485806379111458507125959215560321988537900001491187105308371452045763244756
65 6 -0.012147015751105360060644065293988023855831166331216361868757260594060798435081322767201177020103389688018749912051876239827752577266436270208501558831703752625409895801278186008297061645039578134271817095582505684966660572630064646507663157349250379580045995575321782917576855192609658125945
65 7 0.018558641085542652703633771234902900328169034572106910993395118911958573056945356672870499562656126387667279033337826560651859160630772058288776924920722951664038906712135887362143946707669205642394066451220879960814214272332089979042921135010632419596073858792033391488389187846780490919839
65 8 0.0085049716569506038574642452507918291312938935788330242201717843917765352867388232755456777153109216284631821313152276021782933538286350273413600089759682156561452420656088047062971088120582676178021926821077501106194523580385038453394698082717238818752800474422768493326952472134277588764913
65 9 -0.058116159135978129210883823487073201933593705632058650642325881955893991094652722355426502161552105549290543687572753525445733241228120234673090941063039985528564446092463192472962224724841725647825274740431154297639926934823667828810216116633516476463379887463705063839523878604824274564376
65 10 -0.047620282054593409970639365762647578144713766763320809868960886180521915497718532750876144553810620284811124044100738856973881584690535826194557438708245860014044766432413838145696330468765515560671805866279880533867565840096624943442085515610165394708271038262694947502501824266985856037248
66 1 0.0057781692551119553049262891225144133558266483732308589266212322496236203571081128046491017831116874787936543116829050313190381777994593202692003538090410934277837369923896036706301990003278386244802461693156521969902732229275640709556002407763038055339300785111861638619607223058156977382319
66 2 0.010918886671003301201040699052275925641371245737517234448352950037818048586988082123209830611027656844521447197623248173729768111149077437800746278616754450902104297486845649275549761942929433761050620168969684128407272364573905368749284774649227018704338392297528696875221347576675457207225
66 3 0.018570310391460091589224387425340455518372990187351036685314776136490045140277657654988786317608282835501115916305652373694722738143213504866207352261763030572510758717913709019638353108035631801440239064635469354935991981738485119465776506434944266006700012264109897865343982860132017132343
66 4 -0.0045092428233927851590670508704448076756314669446883741497966780268464203681269937878072900985358997008411768756333879047161461079393607336126421264969952574132432091862473528010728780773668038984134657642143177430568068235266843417358493343451335336967244975777820062205333179142800621459674
66 5 0.0082643824200733520613793863932424143068847032065163140450764348366519044069760810935231148781943896081608107187357706346557185030878252885886461747619610087310528431187776144227871987724278272181664767123922763879598213615041757413473169420400202707028376433641298395779994498239687703876511
66 6 -0.0060075920030168585455977785096229515501500422874856135971046249743575222687936798317720798258014974113051010386079751211089415467024786708819510878686040794588275702503848604983138762513390277138829257060063887225922942171461023178271103265486087039514482634165884315793422574007246048548999
66 7 0.01093027787900610671512240462376246546161430338103766413512721651497827015202232887108196705138386724730918900854918789872114771831883075259092315107660032751572261945781893547688563196969872335991099468446638957633196060124410194603512651673030564280636865441883092797334993010778528533272
66 8 0.0031376872017481277644619907836329587917291270194135243423965346448735895668751192076340095561751976948110948100017354163792562187705867308044269107741800734229949922424334417775223335195480980970455576280179883118360133623073923692812039862044161872827889158350378259107411787838064404998802
66 9 -0.038624744569981328045074619265853738550013753185154990992560045399670760571646281173016223086680707355378632407920461001021207087128819883222066084531818598732821296041092811405264688294204313288967396737104333988938759784604174219546566623194633357124397454317467521139701804267684244429005
66 10 -0.026004233582349789280170477749879805205383411361671847685497522895858554663252651656406746491480534521018056672939279103880741031548743101970894041928756457192945046737534834919145094563301944352342410079258441152777507535276731964845663418670388749275601756761078809260893901297363491004142
67 1 0.0057961388075183692195906680711997332777797650787128390079590262629767228551103523018124413979138538060826177509099224070330743114196295274314529372065687449158609967033036925904980894390954611065019942922375157624452394030414570745703390932963673667170434678150123765179507737560429830670944
67 2 0.0082318159045555281341845422241061010716078573666616508902401238250640997330123546311633002521801471631153414695670311776510155037469975438062649080002367781877123813659026661702452965291946356968616053940434620360059158310927404131367707153168367823125187279148446976352060071876406062127239
67 3 0.027474453215864145044490092210800130190008595075791611594803716044159503256707051501279964092015652212237135795706101112650119396469557490757200072971903123644187639530007594912557294314757549562526325385997736816551425268428610792281772359932081621983373998863984634879899387834579447937504
67 4 0.0055504841257643186758883036849195832635667207187936243836537458705555500014248331655086197990243581891334194608041658312667796091751723892985850902910327808003654494871519656336693499597895687323694870849978616820597368508028529926691441586198235023376395512020999708654046154133010873588011
67 5 0.0074515715529648471597286586991212111526019923605141760228212993623432376414898291901993711525635452793693909307118915458113878264419116412215653282225193780755532849284683676224875302014895491639414288329529073690169281916675654607176901794033199770489009394948487159067068211460976114968306
67 6 -0.016430902264442240416887332308688345450606654007996608245752717698489418638956425436102768053698882983910000888365044127904405710912327336968453188586503505775142865548275442688497493559566146080331898135684071099522175147083834038863604146701342640739835498613840093410683087086528538920566
67 7 0.02492157312713155541425832733891615549603618305918216248303132963647444949831765427926517376409752183593338525300520152746047375200045401403506046937124526659445119718079452357153963267923875951597750855912845196245078826591049145528139438230600051726491329449620080866965630251055097328709
67 8 0.012323732443935119609150769527486225093946181038033184300083581284921085344559442800032656250985216720445983129175819294216566159878700184783588703269490384837329308054541085058787875549221456324021367124721867241716875681076341270432143882181730766358789153287511935190727313025272477870674
67 9 -0.078667888549450452110089974565062093176125038084236100214074536179220748219410182224797044739957484229483291871941846855200944575933390266505454014211096497347547127572492513400926103860444511271814099283822251396868098622997557293130050845054415684564171074859662230502321996802396729388157
67 10 -0.065999105273338767572086587304110825550592219993239880308402452916135033340820074411859228528118329004560118901563911271449738505399611129217568926583898987897950617346286746677897617008055002470204960416028336360060899744319343345561129004040316786409127424422641906470697485084041926622796
68 1 -0.01244788416988961691360749404121382974545720442936422430627492460305272206767678422424707305359215362223232079517588476067955056497144357831226250335820058362776106008447811455999401967446965341028982915562498273690658171238969102393982122712935616396468476994602305227444900162108417137641
68 2 -0.023743270366981083347703288945025559980490165262488390209937677492770000885245690397812851727401110177535421970405297596165837586389601225490085235217092309619924744647059693583469586856510341228291217239198909765558895464645878074672826196883566047408338306397522375719127669871995933117797
68 3 -0.032413756496812212256713579751054387644405450395969634691554369044635043902166555147398412302501705172915514754130077952538218056551442754194366525669481684033802318780762505768021302361873974723250307682225306022600083440116042139648339926245320032162130793246428414111256240026182505046181
68 4 0.016505211917239582754718612987174859478926181868715899897614206967168207525530766540043518995702385977619756845790040405294659203034867182636961170341552566985442903695462041588481400543433353519631273691694306568288821203193112972782088164757562274388452790531312519525549116018026737858621
68 5 -0.017745001317325730382327197874891777641952777115226273156759675329105834799303164623603190212383637036241252840590977123096295557166999186006396230582208606047825164694478705204502979701154889285235000851803411938335146068037074828373464349127086087980547445515136011541820829451570481773973
68 6 0.0041716581893079350273836991236466096623416234026720982845903054159819038660910098288763861198952706710438713293718668266292677411242590867048239001119475838486438733710340326070684144363848453701617166870040718946920336628637737206269386044334222400694901963520569782138993685816877953513493
68 7 -0.012152782426454695845222536884935621668919172690724565985986322502976364346632464463913007294574848310069333274604581889163624075926022994429376480622427804173114871168277512079320313444246943494759817579806178597881850175374953616141550928135702017794853010806571792151139369957562028073253
68 8 0.00042725889955664197529779052706658280404766485323344529159856479172678671465556415182692926486260359024123662024763001031176238299480609595495220619567105540787052188015594670785489182166172668173614759920870607186641471036191691998179228640631657377066385773660756020436759907501320100934891
68 9 0.051511513659136908950233360483617804578599793822452176776958547242848810578307793735092499701540696430499684172983467201319369989710595515786067880872414853236036272837419171959483903021205509795004692602864694855882680889599275436431065663534358093969623338921952543242716730776776767244976
68 10 0.024523269055294510645779372706075477330158815740278712116633397146308947079350959291998221531881415261485681879869675133957892370385424219440638362850942066226066963524287146075219859909078980203032677644390601855584781647988106327109757677874588810948333104784941031385879565273249268799195
69 1 0.0014336940633063442100541902572832009536810215152512865696414079157623896634325040765361733378496517149277125929367576295553762953423600379814402766825872984621803152495484075867927415569172029854972161745252921520614542390581149703413185406501831111952473367663547250667159510747626482436905
69 2 0.0060640191930729955572291723958897817397761928736967025556673967890507731192124821708084508551999651906516234609776843008563880965199985826906484125558369736372145411206992963922327620191476033782783174564276056954551061959201294715678991760614949235438660605351354851007485235559868411425697
69 3 0.011918084934209607788924647356217903622075983607583889929069877857440371768358760479083856175895222868308495404393293899597572288629585068988220363124521507442599144821806530388631680165961467807719014458610681911880261771248838535386889189267891931085939490823128870036492241262201311219598
69 4 0.00075048280416326270906947450138183593054081870533843843797924273510396411924195924564426432435980599225609435087010235292054238314356642617413466524220963903364520678951872214476355070361172645241526125576577504802613143873898620553255552012695564328004626053347659017951247082123542234862562
69 5 0.0040509758611949690281008271155686628275529802462373821433860753549328978038925084737555049983459927078653401580640645963799712589238351474294882164641185747854685138708271042873486721151572604444528644225760000516594193032075173419303206921871276932447051432021101775749988546429792872271696
69 6 -0.0046581573652403912980249650929219987150472979216788179265565953341707303978144390814401182386641246088985024150436019669867894684349194228386320392632054050700463241244589121950118547847439137900116329659431640187245591358043352017591824999237321093527032170954932801323907047539241509600115
69 7 0.0083342780650173950430490257435145550601829352839804668662508143369954246129078092020944165388941097948300077338693985946409247648270088835186369595160835454620841353477352012961164393444444830906921539549600329652496823027944298561973394416073099871908957373673191554542667936000122974562555
69 8 0.0042306035285591138892482805899512474250582963560276037055225044727771266834622511749650626782438259263214102620347214268757820902970483503618484302623058495911006082143745922883022779114823545545603592747577268708823088702495159864814015380590758848374504835157802983054295188849734208884846
69 9 -0.030784739279263986089367695841394584008282756278645704224438408233374018431237682447764745280155116878770203390688696800134205037870375873663742085072053429782805615188863087232255020091801002480118469300730879528759441961604150061172081181602895240461935890075508707844246405937725590908491
69 10 -0.023911902107133314898733111178540895353244460773684754436885490638896429655466617504857294557066271581689532070348786195500275200963647138288493456903325129023700413611033204399432660018217860104722831771575220465410821188098659094252111566419036336329980937841123576481617112251516114286595
70 1 -0.009345006801840724355606963107241931592933190948377333644582219564378197171051488406648595762086520195018737988580645225147949677562347461246763200769251263991818660135950434507415494019435543342677796934867341890671328939770294355951758156117912282499408760258370402939263539776256612709157
70 2 -0.013333444533320377361599717522204335537982696855092624782051208299153259346555447021060410711327759779073119340709226582795594057653191410004515208722272851219608348203018249178172713310501186363515873234575960267409789948518354042173498062216680271857687233273139266496343208638222677600996
70 3 -0.035178211654510450207483003660096892935638050942124021050235039587227177712311685043994108531810302170116667566317816706869300524746947588577641926350007349465645271103782990201253712453307021993723681925185729480433119942389780470930579409467345382526975581045448928046012299165494623092459
70 4 -0.0016528082238567604888107286778558780586554377228558474012653008392729667537119140440595870062291325790155100486410748583626648503064205611159222405118750943691497922018486621895618886917411058253917300373895344932061278278856049680811412449605075413773839637251508947182489268770224711237058
70 5 -0.011592747365804961283795633671277225761053777107378244625874470883108630830024801234432008421950302552909500679506343014687717587475961198636579665507262377726129257940459245891577391704444917513281743071416351774347282881420214522755024272954485042994010983105941953154332202491621340726988
70 6 0.018168252123300684171433970395065818206117281598818197854467150902150604386328138794986258071381241448210894486769292199770462399090629197302770519980821059550545649344153122066608196764112463372015859313805836114928939464558637142982391504616609460770536746325164085545870901225456696006363
70 7 -0.028471904056270424227846162598781993005813483887778804946485330508357693578743725473796427870983602811467774896349711540293142931025950629730897165569849920246068718046540616396935641699108436126587085194398003666930453674986629828604286375780745643670105358453946767828707869594408683288275
70 8 -0.012321273133629629163804331766099880720240780967428002524453013004891644756194432868659695060140358124074076503256659131029292482539689839436461917661489821742418930992272650613087934351092526637460459726746964825034277206880878613418401184248553973260892838219405971958528537397361082442862
70 9 0.091224279777465696010844755214624667774147704761545790361081019737465784330077698479336150820209336563305889655420474739307311008705101926460848544120785501384418985162172208600776628326318540903600999034497571313797532640552967710126381167704514534348203198228179331712764082558291266791236
70 10 0.072469902554044746474219420049654219279130584336842020237400359266495636201129722079037446972604099370153621057769265909597096963521736434721709726162911077130556913358766717694681149180264549943355103670626537905015117512702549271556038736108923454781879502864985960437245735427752158603226
71 1 0.00035349734801093030877078713121319596908523597693798230217147794024516361133436982736285419325804989755429733633687613181468940963535258004442900662975602483408059606664116233416280351307260628435774359371834286999637396910332410519607206162786627422008739787031835366567365718207577988878723
71 2 -0.0015911975778330823354907081577062553603750727602889629874285401346477002509010563245271067897109281543541425539773421249264880752199164021252290907036788469908076516739415416075353957013954425346169336882122318190998476549791883434963498395091445459373298428652896718703459903330497651434675
71 3 -0.0021695255584118360604064309092097588914852273452792287799857831978878440545195205095380456350254695869927156319624106112654356320960627597948562458199252626922872476091979652443188678555316434404301458702606652167699422417967121275435933405330934988574532213825962716885328698869650291929997
71 4 -0.00036569302899019320547301102273744453876661559109452290603179547151609894105562873485583239051955506408757774613359422429763940909404937503785538969724117798840546472265153537734053955925079426558008886204764748865571501517540934291935318881030592327277098689228528027138971016964672314497072
71 5 -0.00068418187834478658605878327041279202423698551491815404232717812242432827929538178809173136994521771892970182542803027354778316359143517424423684614944884071888728088440629655547507060274868139052284655110985848262697218731828622903603439277314472077270283318077610270397628262107434566242689
71 6 0.00067484418512576492231484437291407675639585323921955250397986166150996669841497464915355511648801284843187448186253688816304534251158273673281061907398257190357829357900359067970065872243513240766151854152294238303447955986251558697429875937607762940624373807316005467236798386966408463857224
71 7 -0.001342119903926809680104090214190724799716219612507237848677474298885264706843983598935921589417643248416028494477660186304115258300559120898158098726684032689764632730169119550088828168043076170900539227122691039499353500714175692846082449268849394928571339586621979590317498402054109970484
71 8 -0.00095594635392376368059464939265083958333603467355898000999741642147499101460337187156776869269357168789402546670112175949153478685269856625004985650920611341015120080075084278506375246729203630156687698721369587446644765157117738696524490765074697467370147886884626441536031279770420938851609
71 9 0.0059909506408232648401971999760939989449329789633983141789664371972568787554228413616533409586453061701396184050986713841058350185074116121661376231225508600816401286746139156937050425378458980532655658686816375207517001975302049509861093303850306039175444713609607644498463903008266984787913
71 10 0.0047734278909160600933868757592386160809844647640127736545801571237048892496183760801177974688430416457212278941245349641065067533114466732643309282853648863260036784241000432534457473746832277465959817092295542255819887619332647330473774417764102804045799457671450047814719257714026236977018
72 1 0.0022305841664552290331195317039192525663551771903517542688160472044214370700049308645633957179126543177605167065616512923488224796976204523134568133721583439223427508364440900622038879541460896014181289827321442662077808921908584821622398884341577504814960444875719563573524726905350563018736
72 2 -0.00053889907293716855605100110274858558367129041574975332271359662051747399121736162150829296889052711958662337098966591496807916215426929959848060397895436672326592010902999206138610123930635373517262959276037914895514881659786589210002383860653652243849283570099471332938303611372599828340857
72 3 0.006466642121000126745021316801046351460004936076664127463920688293673791407018709842169351519144948607783090451048806782804315118931155887098572522072248475081577365231407169426873913956287226674622310291907284041216568316174774677267990586790022149392940318255479329773272242537999769359132
72 4 0.0029952635176869519346068941665103302431035635906215424927192669534430535657787960877286274407038327856503141167506627593624953868491269531230841639881829771507515941634135259521304567429826790301333928666445270007944028934417998516478783347688703574955125344097031547001703894700204636084958
72 5 0.00099950305316771328838092951146726110244859335238751590757031107778786889101002757214750527327192996439334887258146945061070420634362720125248872071632004322834876965109527071982548735243570388659833579198228010642102426772148064245366239371701118503845017367957090071599207712204221139396763
72 6 -0.0057313382044094175784852723045018016616472829398101726153664092276943968916498815454666088250750243660734298177369094249950401876942569275412134067783009421150134770944248933679616940526125140176669874283489909676761602737795860928211174652138582488459115509466762809439771115926375473891396
72 7 0.0079122168845878794817319329427591430045838271758164369458073965464623665988357755624003191826001894181479118581374027741544353063531180518444932357664036263379329258603629323152708705935619561189565046696741613742732238662580238644406322297208368471304368463255738226387531959189143101427088
72 8 0.003906297718196013117065769421717970526134224071995885898203549922361426961800922925840436187063903241720940728033830335759547647051813274141621833743740377005239394173441828208186269430536261077921118782961500302416517659739265496651172412564503696171207303723759504380309021872435798689379
72 9 -0.021575537567025398151486039940804855973844457969659133563971385650355879303223773293524815296339532280180589050567083574335313851204519302581371872394664752725824677498907399373206809670329106563671268899295982825128574290099948359815306060022916633697942974363614266801215509386797834059867
72 10 -0.019679911092428255874627184069521538411366715188939710572785601277436745457980520676774591876395308143980571733115578321366126524927327793729337922787774652319065894245734162526306932757308989752264796986551439569053240526477571419471815058006063201271555278761971609830612726922242162426562
73 1 -0.0038298091599471476323146301854233029258626418071517617147752047355617907505511624350900721743176706843230657427559012609302903129085166915584462964658579506559718610692151374689363129603909700695307510878831424373847943336629865073517910050998010606553098784360630797387545778097889832761033
73 2 -0.0042681460393383065906889079408840005702965902132731468837176810224015748515286496210990253448489300260986273976204381727723749238959343851305799276515866791559861261156006619767890846039094433737724997449363781598755493574553206726052643879041037476845822196372413348632107880690388639878796
73 3 -0.02308195801065908972697737786703538730655534371627885404609973495170751147177927720176147102353342642690171407541949379747318838705063874467616961890721654402902704013770180485585449461359067551910948124817458043980953722543929049494364980529194473529360443329622485642652382866681401834066
73 4 -0.0091434050431653782357364505948814903137283456764382471728702220613031621635814682296304056494779988187770723405360896255220312413181442574498470710345246084657070124469797505406086192308280762526017711727206124281185191278528220449645899586532843588861843429417151555481659457060784332249243
73 5 -0.0045190277352990841827643553706950635921601697812422005005108660708240107301353381276591740508526810414466437644108150044097387011674700996213504332109087617072086678643090299009538184453236974439156586364863651879791266591370649029188855092028060686789676940524557976291948136278198323573448
73 6 0.017204154202151497624609106419729435426012928887010891146680263027149821488061874110375360963427691483851322139301607711025368477312207946518588454072376700028897948012655558488020441891208849712374578283908953484159855020405402890717381991510000604719796263039458047564274086181934789338498
73 7 -0.024652613935927514946668127675966459859144892048779118748912013104863191468322670656877597286711283734804138617821463080868136109811548076835969979304309674562904269202404573629335856252090203191130760118009850997984386530580372407084943407869750205704529323453212706790630145867129328686843
73 8 -0.013405772620260788285777058606979708218134997675751529332150628099070665909829992777437512721556602811293185026698443040962189841516903671795468614860519271781116528816016423372602488387433808199504457789934007545311184660312205145400318179851177481079798390270214509887824654326714103171367
73 9 0.074342146423418966401829443630538348083175157834326243451769956664741542153451061664785383649289770205879444440425903092221209236716606051217018265255595472086586090584210728271575444499470900401521533168201584953831477927664381420293191874446487765714640687509968038000142429329048054136971
73 10 0.066314917106071914842214269154223879050474310304686546552200835187944872525295842058400739494373178600960869791394091997939834589965881239703931019832394960401169613290263642867305377526158881777675171422697475933533129236475287217699552538452367414541063037437071805617016640256684112120035
74 1 0.010909184562640703735063308860175695466702202014548845521477718021154909435106481536805488882340823410426835951801969337243138009750563984248634236918549445251108210400565273321791299371483847504373285442903336696086583108054331309793443413298657174626789192635133895412493529503456498892989
74 2 0.01615591309753687665124648821636834717392978433519844407035877586812169632637530895438256537945423773766592753912600386600472459455525378198543086140174906151300826825288435918371346300167461216331329325261771147714107838992587415752175057030971763792266073656036952123246298139064808713703
74 3 0.034136607132598139565331336983100837885751541355606454566880430866016143813065485215309133330654975259737438145155841762685737735160965527785853040549994982639976314002263444636392919135840295833566770091700595661392867582879566196740657715705340895471315792576224773247956896983926296672926
74 4 -0.0045806733696020143562625660556797733316108807193701070732020285681218252033857399356294276177940879987845846495395031776961947644161219136422969574444784661070189421500191943317386333924417350673614558351234836443868465960886627345500686369157902888846380008199554473321636819294333983108894
74 5 0.013668948766574697873168593947512522516289277608158855077535326708958138996539069411363364898463208358002874515914650389226969314356430990128479749203296871239668957605224764009384623313823538423406156763672950467793989279159551300988547421132683241905098279996582196732093641594079212778615
74 6 -0.013292157294987234846508049922503843577914806490713059995418654522918252214483076060509721378443297287570174827307494943741049065823812086008085514904335237614319194229342489725334547164670875880357256102422690047470031812128470340646869705943300801293383137005912138223881553635386756019408
74 7 0.02289735303864850326974300180661708122231162830407936606429261124070397671444990164153477704549285776571950916046638442976118785037766391119606748782057366903102311310781122650098605322265294886474668390099882904023570093369550713478421506136108098699581921314027153499281543034715415964749
74 8 0.0077803608741396250185327605801193296435820629173069088905254244163718637296555002317855556115221328132131088128137880785398761335110498482647846478197457290037349173933173201012797947815905743098274807614523063198490552994054104373886610020090464369258576746099157067604870764526775309155421
74 9 -0.077172828269535981239621114898112159034395160827941009260191211787138982935054725634530503036183222886770821163980366637145102207844392854750088982342266148147889571798608188591822313300441541004543040629565554160952290622654863361118218953654770507423543287967252690809111220768996581071209
74 10 -0.055536484927670315971924508288653491408209531272295531515022943230069250810975336551955036798310275892316862655531978477924838800458641482147336080998298858771070019084482931061963165827316251525496751159651742142561523826745954527304634627728540279038303198967264741097301032253047459108991
75 1 0.0060728657516770201083667417201523888748649397311191050985727681020266543918578299926244997307448212555322196672424188604416385235135497715807086449005802865325368512206756827625047029459546934068702617193661414782207917859261400465589481446439481207232013178776164475986004170666866931094855
75 2 0.0061397919317485527037887051831275304243123122564021167163776245420196606046994001413530323052331094448428469282099712578268695051942574862185719208396889782052037170864373064016895281754206733751217419094401459879591868672942324507662563736353049156211870861050978952606670774078234012424151
75 3 0.015287130065551498389914852159821280643758392665391972629608543114213062528205822717844155513572220100645573869209471563425768769493193873372744235510787952369356697062173032867230769739634633531735944724483692833046927230845312173779855882531491217751119199737902442497368257728998422559549
75 4 -0.002219385865831618517172415752059396169245785793289066498625298200737180025958210177836919694213452432786284892923560036907654332889529254455116737981747529500103499529290165785774414489866190608094336319763076648687051455617686036277509135430337492264009423713212372608193516282772019413994
75 5 0.0060435192706956883038165966770788189816345248235104772801596461239258452342116129725520978060841792090563133513445496943484992887127587063340837064103447236780362021671758088969877270141802105473602841766406071046527025354607797647629086958233425696036550683543585029813434351078464017076544
75 6 -0.0067557807859751973892656565736515431045182768020852628415043983626224841066150704244500297305924456611886917676693513352373714894677559482333154855374288203800193923803919009387367507316972011381392079120200182065689283303347609911898027283290825959540327967048713274686622003495097281731545
75 7 0.0109569685243523264671417386741677254764132655686915960859899338682866344175681474448753229000461395747671144421802347437128074070416695257404360633297962292970849666404373299557884741053224037534702826982078833278502816071083169204837876408848000381672702649757242904681865481776886677221
75 8 0.0033491069340841246424750298184824613989748270300807091805594539973744833129952127073277992943415672270207145273928256640277511973824041461589129477413770088149797367132717527948085335573146824065267819029590251406099668559842055495430677703501376266472606353821496663807046661210708701832405
75 9 -0.03446575011965388926532233406358146744712667139858719198168116375358992191826876063948909925455007493742108408372259053552312404617790793381644381713176876398399722697235255782942359084175094041074349212827062331954143453519686892143881366947969445033103998753647186222455354968596059812917
75 10 -0.024985122006018435975830291084526106343923005327097119222038886057998207844907161063687751265396329553338440208223582192803314211494255350336528309962466075856815692315482541502104317113749268526485966011138641155801695859220995252681495424802780776986708988351345855069871538073757599841478
76 1 0.0018768200393503916212648747035127023396498151759065117238779419757438567390509133207758196322512353221025604314536448498751925015641989287708687891770546140775261803125211680307827331234203586962931687607883765905607024269918212312483264568804199198005935838206651035542458809376785240591202
76 2 0.0068473180307931742486405371551557987382574980393817013513661808440798732721805787418448636126089241486088807515877583354737817016268418731080721998778313761784583402100838107643583112255779276463904309471779600574378985013228988290438628057542095718882257216550450349525381499060410401723446
76 3 0.0025057255294881335225600010989543001246479140565966392492520230354740603314839559996696257424211529976800198342408056752369577466230290295601323851204666323131068230420345024021887661577020534759921902765433058816889686641828498971234822194121605238862428994300920190808436975959389519052229
76 4 -0.008235493526968738608386386595464657667344891026784991406457510327785550539735288297505652276731164205990813780980523308913253693452354344059152778094666627738774438183163373206524099578699311322410765955848844998206288900791145180719104110782406157345937235150026369252220693055415577118492
76 5 0.0041640375357998350921550824006964426002493532690995659860440004723980864437511606981516557465872075054806986489052472614783777134773332013399780324534969043383429704961250197615850551351202922324218982922441991996892093267345739381810088871493058003222897055333604187477290087210588434475805
76 6 0.0049959833984092111422686977670217957368478575436075067020966276899011462293496365664732730947612117464268264021261386967200295043654208852386448473251281467858521121042291488784215343370983692627765041044874708975319843312935179568950356863630009007622856894917012441738807921886960654154154
76 7 -0.0049227235967866636813745497937168275725980974204327155169273542515489969393932313692680532374233450009359667286903367363783626128755681348500446769652978311131743381061840222222209674781342493682412506946453231131701971909084341100217120606055097620849281701648534515972337241221441523992096
76 8 -0.0045748173673645857961811027747811447055557204272941156774174993284666581113209500749492786190069411659755544913661557364458123721196412647209733508294093976909212619748091677392375679402145642370208943799201493976599001696122273910066755453374701780613084188273797495506890807697009798384581
76 9 0.0086861494986129640418317857693021088905835716861831690090757870763573735273608001794476990308540752603947347089085034485272703073261120553107624020683027516411847976883970939295810065746343918786331510799993687332268437365444359845823395487442060368438084852236390849099516910747969497682623
76 10 0.014678956119474163797255916672553184293507635508662353491246395152802749283452937462158312502457292676783156739401938522482640826777398047270993873786446572555083251448490013631860263470668190468097383708759939440673380054014987844671465458631811008495592072016365205931559534624154757026019
77 1 0.0022545666103150814738144206791496634650673608785329548856905590179761701014033069669747739719266132374583557720927883940726511673787517657801006132990851001225777419270747819128494487575849413508581386078267636577634419318170889814148165025140023393729323253216075563017938524888239777192031
77 2 0.004995075044025087255191437512383156703182657454207369805285300406568358433239240979716600817601237315818199145952670182471631498044959948792222887966327603480365697392923908499287302017924327194859772006110156909211167337550036374292052065314917462123120455534539226760301230711655342187971
77 3 0.0099446554434157437935780747405778006004393363187589564672927194770851839006948098081147348173583234772968716987015339894878023197164597838766783009272034128365515277871450215963564948083465983519897934310269303360571337005885470183098812598953478893551466175293178798779056205430942152545875
77 4 -0.00051587289299832643821370450489252971415157172214492018970349433735566342383012456861262852620147375780928911719990639563009169051789576658423244391396565375685024490785771352628956018689213968535163679983798969641234900994406247833245214522248896556751280627447788888790855866114389862441685
77 5 0.0037096312472995863783360100095910077882159725180724807453984237392111487581948934558275843115304444057982097399875313648786557358735138398451316627915134491201647124230026009640583680264875073017509794697353614922001444682199327147803963695093618198065069120735675149751509460564206289420609
77 6 -0.0039481996441467263967835468644888781389982571220857882262200031155576767073048943829974675467750019903736233171288051064475847677351248951032483799642075823610452801454054954297432911998953561266625794535581664248416381908493439344594926594514897393509306282221806928809139294932704729078071
77 7 0.0067989614585058007732049764812918544568990120388982448056079473624243642177080368268636375541795429844876359945147719561182385441285801465934021386237022670799987361992848804457200647890288675306580240635948515264869387826188822671087152831348691938471041282806672386516119646953954292675334
77 8 0.0028294942995267710335615402898581865062340493862821555899270763873345245970668986730128969451052707184565023986288325592937090585419076641676774466138339451769120918196549437581123664620903803937806163780725145948112153743117020168942355368209910030020443171899721133589465154830116884839027
77 9 -0.023876103524860755744084458829370776228310651127092964120096705653971110453200344998629860184437492296315227324832452198388275565168739673072961682592666121736696034529959385218818122705470007942245985852865696405551298037251501051564776233153106615881591894531856219319845747632508950282471
77 10 -0.017866465028676083240732491868884332454529142944575562263314231789160566838067400886356316399228220350817273547941340806648962834147789590585911837862966732349876252157495718918192894615169521150460267584769955167800177444276574766771327087814550576214274318197518453595402979257437874776007
78 1 -0.021383333923000482017879713221036241435340246769445287199890475028681586297081243228402012812927208844095415859335956504729955545874591132761615067107656807109765525966583379261709079240334044342374931278988649818771165863903709612638969401428602466842427111111738060040388278114662943455002
78 2 -0.025973113132593046766197622926287701221018075137800339142211689838949367276984240347693442890426770640299956638240781052238916718727451989837058134767985587307968334410862910341267056680699237902675070613633170087422697888014876076492249996140229823198835299902526659213214701614939468589478
78 3 -0.07026398109281567857065660625020401459007738576056851081959392018507428495031093029778185813319379958895730843190255607886250910703085387719903420973533856312649673964017447565740758868586670157469256918477113120571752393896330257336356207762069721739628285715480815250816991669819297588767
78 4 -0.00047164639044963660094768002026188073159438006512568252112851819834552519775226146730790191278194589337599390417409576234010335626886602358738056057245836292042179954630178047702020792387759410981324869444095164906885215358980669651240024860696877237719521131151314948613427345888265400404988
78 5 -0.024072827027131594159333005662211471090682343452429749429572325312507775986899114352941755670821008055279641534922730662856700887707993638027311103695433063222575511895750404396655933291552235784646363543850143348301613598164976820664012618526089192938447612619880294229187183736594390972329
78 6 0.035494611685791396153883848949797942843777337636003391445668455112481922369504121406680125073186624469515431076914459944082037121042624897686978201847641509559128125468672316207791195297181074098498405181705480848100943066946163071414590039826975389382726264599651870583714141804945663932185
78 7 -0.055871948553645072993424896976387511450852141478545793957918817009363962372233658000571843217849254183731834459792377957121736150229892302093604100307128247012539368846794222347968972198171049024258987326129207965665794817467230114614614488775654702195300356962280700330506439128583936053609
78 8 -0.022567823309521426077028740268810123371161579251126338250596747372050401715036625678811338332195717101975138200094117247777811125236278231930814818318455549088709834589296991569341900151143203780301994989280439579347255609260810934763669717183599467488010887317332415262898382069882590111499
78 9 0.17705994742470220125096728854695999199703731701806942312819871441612169420147938994875851716297991502910095032513708752797212473205664236551753691966041970680679260275792448144156386307737865302246182305960994424793231529758768393523718630366300172026313097843591727660907166537633795268598
78 10 0.13837778142964712449988760889664338899989437588238670381286068187972340428984047703527262200746359381480812010510865238823598332910805890503451160947241603048165137273194000673137324715826120903769286181419816666119604866327421337940083966775407469416918723948160797205514895496228369420039
79 1 -0.0060398318593710459722746411442497370291933317255875499858481465139864927584780433909820128120399858389417772993265885380305905395159877053231720213688820764936367070822154475933569376661680280764988155855332392143292436869779002500722269912757189476146607191636533575599845704314602515307406
79 2 -0.0019169841154784346130827500512350818189839604227215628285547621645146010826493926941203285728284551994470216121537330084330839250337151465860966573885696539714485063450302877910745200527760733383539711225242419957935145520773604108159717072692398218455255073412440773552833784603035133937843
79 3 -0.024265529378084958495922464052343074195741997758902939436700487078674864941259754857619687610709406102472842429987662568010161951918687115533468838005057624658552092543574862061826171349325737142051546982644583151255057826825918679338028559443745903423995892638613242915633101404104517842985
79 4 -0.0098463449413158985197994580377292464221783866788508979569383891265959369187187673506802380977892392054689561122282282856866501810975139759300985536288831173856618289537154154474459469495899730212042848404071485022783656352807425772541933270760227731824490341770976891216267716679459614334147
79 5 -0.0044720074079943842041486369204621315663392145059260862381081788482583659193628795034902944554428663996779144165531175717014916310627444008722244360964853597535823465861223706752053090438536048661490362556940187308660578271751087516997327858488137617507287566409804739765317752002301909257736
79 6 0.019154358566406652381102293722813958994994499080221351241749649860937027480435791350513371514960439943859303130560648539849256559724771778640803858756577965192250907420181369179635297459769832648258825179395838056308473846495733040511073217009968326966176090074846125202439504502718647019905
79 7 -0.027086665258973885000430154932337561337182535431063584619938117536675426003583249762665523034732121234248596502376777930632353442788355885897667690949339909870742687881963488192479444047994037236871539552732280088861144527895480995458173781835893438101462879422388235225948534704202842250336
79 8 -0.013977120858320388895667463084777198637855415213152764857887570612507238043482322436826516293055750204898363960834930528578954433700482229306571745123739192359225249844801838036026349390130850942657805620489375354096958321616248653303797470552832215094927538724424090538215432569019197926015
79 9 0.078502737086083219936469001320919279632504465020479176488237175109379042980036942111499427529992961523888680872912243234300728891176709457216380037080250458590752993475679034076163867805336887066972151111560551474567368820602433029702205663030846678740576908548471015684384435683947086921712
79 10 0.070296849870730894406305028717339223697257901447496633269087483752915945721257455660882450704232361441744749906262493254561299560677069805215667470377554491997631963303111213889435403024897181140080051752304450505056059897438560738569716825585333017217760425355312441351467316749851474079402
80 1 -0.0052575190863137539085395926174693087363329435600468601600720831487617544585358095346096749396058269033905474901496452204641277327773845608959572679967032756626430958150764264406380642536937116654788710429801456114526602111455426341390328653263040081520636951966275194456205355854407783971457
80 2 -0.0091507853237969480705406855182376397758246493414738894286642772360278772284169922823374795092128646209880262618073169219544586439615807252517926108711537141929105356166683555490005971564320783068679298156779086446125628333757554159492372716708854863567932703357402091969758176895525663774624
80 3 -0.015654202070264483130275179556136555840120229456994349604759715181323312397374023757205676946427956667598724578094128157140551155915306471106552772491886526053036631086685511217797168233902274284722033983080328396975947330210993459135944294131577221723223121251740392470460470001824459743958
80 4 0.0044021708669944736631171671554374929792169957018187378005544063016454592785791324425611202428488364555072426916618828845538101620372128305685363714632011249024775391550054711686133221675628981461911334920903327445801846459007809741568689233567902186830273207056466153931832118925676466530421
80 5 -0.0071512685308542609947950860071911386005594014801872760857797216454601555958631145591066716947485790693610962445381917051634248819853669241833298454947581539501158629443698129847937600718035287119620117215217419519853765142076943990196861262940992908026510677964105543333202946470153765414394
80 6 0.0043602989541433997110690641741217113878560046781592165561290468527855502257743461973100342073513798674912990297544073909086945171879589460604217525417595665471985245739859657705337845114291641852227686246536485638720513864840276132283143188826234874869077346541469891477452448651018722693169
80 7 -0.0085224448797602594673665910339214275154173815683600056425914224779536944768040201426661510194389080857449783564156297754685753474913566660039174935829263815331193835910916058128065685479301749288502674189975560212378602055653092068626402867171694347836080788470647575692779420115502483513352
80 8 -0.002064407155284255283958773906388340909112133812682720759997065061538870526391854132966197409090463742904272657045631327841398858734078233771984583553073968171284554509372266087258607124533040897162533254037935292916864066796831936689585615335361363948125952074677747286839123568037148227852
80 9 0.031258642649561851110675919396935217164798967193550946307387966085720355037450106434291717225203969148917935336088176269478984334879794501248682468402803654225102521211161467796537732780699278300442259703521005099666359054765302290950816120204505034475540824574694667660546212494430169239932
80 10 0.020039948632633605998331217583846689624423966122013811918426871663398639646189510878290242702011231331757191821811029600744969748831386126658391609224043331183484281903950309372406134239538810505062818343666740554529164535007501842609368900163105344008238091465740676287422966149033368685239
81 1 -0.0017908764490141097843004831537531609661195059881932377917020037053474574334203036935084114615307024930696865068906338946534578963596324807192647716397103697489356486706900428871629389080551791701941402123972543563149667116090737103531927211702353544061158746818609582676259150529841570900162
81 2 -0.002211806432113532084348939628337512338314476535101443467593106407334372073074719576689404368282292171695383799424859383580195095703785908886597608661389129389231076075870070022626488867760838592423373201954196780549619827359015825054510331026895138761506344484222537018551895262341558271863
81 3 -0.0038008980747941791531552266345057368226051706286916413766575910294981597869120283107771564788455442985299744292242772629725252891146602091483020251004491538157324982121578904585467549851749913593382972066909840352866092016115444402673028187252072280276542331379865762526805706310309747776136
81 4 0.0016460031020528203554117557381446585444058529154412039757595299594602987952989459601365203368592931947747161388247941038164116570913816993503107267080157742116281229069078466906061350368455721706978623398585645550128199703173692891564369495474493938738630120330185006624211169989325423691315
81 5 -0.0019411403280379658053187207528574207075708896066798462286116277160618344966490214131774511494533209172737715501637317678391305712779886922495419593978428468963698007483590644244543027996752229810343076549605607658259894102835270906778297512880710706778741334883834200585450697305825434346138
81 6 0.001092521229744639870503558535534286839560912644299860315692112747240764304748201921889477284874550719781211187444373427223971910775974920941199897669446323583373040181510688383798839116971932175534426915323156822955105185700266469282634333588566554870099274999809842759583559296342466585933
81 7 -0.0020303155786214311255859611554730849544275838590161119001209241632597089608225678641591383124789633524971673919691680358505275623694349364038991393818048860002054147669850233232860747310179678956744728498940576129364251944843101493548042456841887514026588226270967036364182435443760046661089
81 8 -0.00017224253150462709806458105453568289713693080398066020884190458780216006673038162100367658746530448708979950499719771272547638036595427341693350635800818721842404180048145138009990772721714374300705938833216356536171694328599900414163120237898313278175490048193398916861151418339175828051185
81 9 0.0066623581328114535328835790641558920021235644457611538338767194599427162589669358421564338502966295257482683712062093897411099564510744616787440129187739171065279806329782616786020689340562261641532742427013019301525051383716833726375444836507328865346329353374513061507404757555036563519782
81 10 0.0038272357996235522785295006813227495120271023177913741251998701312447697946200536904126992339065910794650149815916972615193555266773074884079890935557464575376722423009215374469263696318459221609638480097775821424600271737379167326422360144199862059210388955685729364031572481236231902990803
82 1 -0.00022162996995182747240301620223827519092700281521603178681089750374780190317939417394417799499657547830203377154226630793202683079648783589410879209978286540683210706581489798364870613371222962658257995173165795713692335610297294040161328401687788939969820217528617719698844279878190153776059
82 2 0.0035854987564161495219768609800166705496908588355137369957790025293076500472863824276328480174544770680499098848687278104838753080554252161286712239126104914648839777623535185557157604367521999544629655980740924573658331660050863237169460898325654456761354608986565935400152334243619013884765
82 3 0.0041690970026797537157853296406225877712806860671790840307822822560175963269314418859898623479789802838079779393012919160987703701106660214815893569339723030916932983303775239592837897678368056753322346598813344961129502069418963063689533275334739460585171681806352733756993635075396069895233
82 4 -0.0005524458681610061747572840749881318002069486417141508287377998630508291141042851409814184349348812477004726227364891372466062382319387013136310806898110500321815632031666156595905935851241838400206675067908944485663970471223776182023172754742767309203441658446179245969672432261580432532751
82 5 0.0018524007007442417368303990980552409173864060503779787610022138374530671272534475696698290893551184917531797590014106174099452652747727506262226919058399912866714685702137892906126766418926896396854846886708050624564156029192848619289242461633744024916908295825312208640567306159849449875053
82 6 -0.00036346769160992899825253493139413129689472460918451855650995397743361347411900208961191664711444419415074166595004983523233189317627792968508112192503309368873868583710174182792806141461236214313033110815557913536098617506587132723188666499601234319503230029792129549087247057985463379144326
82 7 0.0016488847950580675600183134441692615496186144702557702474122222467025983784180717453291306418497158709181768008991955941220856980159867711712036234561508531459093460870046446154912925467592438519425524464922792097547673269153127518243774571728714179345618873465117367153316471029473456911367
82 8 0.00097644855731181587748197056160298278068587875430698324196390812047900021533507051506934593791205761561862858731276241231659849288454339636717255927043018453325643454174012317701645046937900685962319083722234546122102341734177715617645464764765976460188413763443381614656653105089956169298476
82 9 -0.0091511558948144069063900905667299517364045575595877907945344335471825267874054663934852023250917520683487624110586621368209307733167207590025111045332501878956884420207390397925234018353675016772175771654923310183807237043328375996262561571594525305711119138399745000720302636155584819729242
82 10 -0.0060873342770922226574513342028271279107332239585780026886921495844403984577579625714439349818990807856489959302870981876521132159313921578794308561006560014114955806260210029168847850271243246018918107136547669194680539551908231694410045715976714681206266143485246584238582974832291030906889
83 1 0.0090336965517117526163712519206411843556020252574963126371312723693462979304744170813451893373438309823144272434089390741099822473031445293567464981749467210937101456841408461244773547108448051532666001170295511640822284917312386020363777881153686441943547220683352917182141622206500216720361
83 2 0.021376488968832018610492577801178554819165017379152314071891321413007802971116073799900007864752823922054230153302758964992873746531654881780542221958356720437700916001043147545790216842914354918349293149980852457575166353715226547278720282288456406858720809926311324057790433294831248474347
83 3 0.029634872758633017830836860932686216008990413327451348519527798525357305979869005322384117923956669669834746314431632489950517147639787763148619077619291167769183521817166735460301323477818026013982447635366150665590216515186247757545707694746278559972501495563136264873126293524688320111402
83 4 -0.011798783467586064325929662184745339526673329512803800417791499425698539739304899031628327236884333913913330898071644136667951523155788736219182518826520130539525018595463464518969017078640556195217579019596042533520453101414581959168300886519290181110845816526394617018634041797048554000145
83 5 0.015155241118205742725600483028389844630669295709687793515856069171494403399436922111079085887066331403426085301228557443173545823195309476075791800149407516222474205121880870556092653026370457822199045115937242613895075428282742207882292896296984405865621198099020861415197999780184189017715
83 6 -0.0049736041291538003990233713327051246516296209203483940251376254212855504883321090470076819073491791115299317257912596666840992154658726192735937478342635430622938564632833961933927563698637608771924161318159113046374320853034003431564767448976835119362448105623712624270316337232780141663522
83 7 0.012648569189707835338890015778995199648904530152251527379418967279879639886957034440377198631372962343804587155437968311812467937027190535984013716768486804131490636933037782668680584258712857579481154169102514623609484447515641029803582456350006059368352806948723813903579127954481404128386
83 8 0.0018649518714900760253764642425030585126954005277980751990957091626551443181533055913886661190448513810014941151176246938586922756326538784064296413035290182116042303499753111485246272912807251842330597779740643754756170093806408293529236170573861762723383732294234341635413774000490706271619
83 9 -0.0527977214709126323161793319975684351808978401276783942306449909077794301378633589813408182198895826344490927962257050289734360105348054193724022155337664213105262090799209484937010354260345853961141031107110582758865014340319937617962986637123190746720717320735931794107774569632515753096
83 10 -0.029600464356837697645457513063800707586602736526032377712101190540487731386721631685535284515439638556537200863081548738546301398238227203590821174683290968288173522531935174263190892890625246432532927325128601424780500306599019306963269144428359054946835495717891929993964774629134640285547
84 1 -0.0071089972687166512468390085294792302570439850312309100987237360524294962550309696673243511837568147982171151338873327749422862549197503585608254876028776916822536623237275846075907662033132532634611427872260425567298791613569648008236187291394547697620343720957398468555438349390791308967751
84 2 -0.015145845907338249485532614976641536869104952525005688896966400896194509542175043485504253292299528709819561309923478838564884184171688291443294593070985900997054366545473906467330428425778847473695970551960293772016575440342499649815289175631907879043135775942508048800141632898042150209112
84 3 -0.0096169864839901209490930962742893171375683751831163173289356219424795196868293594999212927603981477608148792282303377294797112797327705164344182872582411370053384129679600797571523849084630668728738620872670988362788175430829179803431936547436649198608234476116689241208563278551194209897683
84 4 0.018382683713771425913710634255886738788521240687890415400946036031835239438409436128772723965842143722073419686110230749542181077089655891474348619959943989372343719000524634905683010931804461085314627692345189743556769223403825337878179123004723812014553174588950046732231231211708890977691
84 5 -0.010506023980040306662561404640022066654344398578313148102112571340502372664750163197108961693841514485081119752912183219651647061600431368889339710318789286757036460227860915705373224729368069530740445774490612016273133217479450816272326028749534791047623228157982944064408462036603133152886
84 6 -0.0074996243604888625446373592906914565953021863848155044127874792779071763018820072780313748334735013995936396614455763159360505211520842060653650783196203262695127550914632724486559850064773723603441381540396840738185102212425401241093786428028686379857102570928655622598046131770237667699361
84 7 0.0063244067829106433454940659849440264177543804036002907251149290123337746862367810944465775942500028395853364250732315498735429517247377137460902467071976564164304592715944786276898795178276786565542980021490119398853573901012395872397860657588511404540851449145352645925251425465534550434446
84 8 0.008854993976394871706352411587790520696557904672017447194307813569617799681073787246225479049801990616391898282388679168280940488282305347239195108393826872426121067848276613850529897422953511100216471327052738159285239918341457080566391439130926484935898481275180562806929918703774083490377
84 9 -0.0088046298744032401717936849956466136168994296628985398870388917084313525750863021367401835321060469084040511583015850489712084292612013520726678977563428839153100276964023964224107715657333129510194312888411415551882073005974104731506213997935485816473287476347320610005434077076630691328752
84 10 -0.023784728190125257170862562464658404210160073554405827785962891990739885482218600489622688425025242994864877865382334131372636287969151254514017257514572400940090753273785237056330852686968597635839457576046106999856743133780202703487039193634559631409153195938791490747722639707776325624205
85 1 0.0045615050553415103212726500306133881836284318593675879010385643242640011455654778739508247523221790433753340594224197244712432763235888221295226903362049105123169817394743381801699904061683694071352976175942805585902536383631119614535361027557635820502920818219967133622516805533335297520498
85 2 0.0032366761892770275567618869362246580543637994934265930178056097072764681314750556908732807743574152931553077853878216135023585084293621497079676508198628546748461862281967124016126656680058878937475994585002967621638610129650404592729756738156823252226934242294515467692305422631533074942282
85 3 0.0091778153731909757110927723002191625048654076803010617329086772329299543522932667588670259790298274526738851844797798393069641893835434576098515403140508983511519478321654329616868700075636547769195149556086353551793393474415637411640413742109899447427142164901687075528533952740821585196233
85 4 -0.0018838748693285851822467236116569429488390287029154647840765735049631646162925015378693261463503553882993916554104343458293363328938793782708431273589717837524555920860594416168276317704343723738675605305284990418314884373498227073805154559084596961477120579279008512569363683605221466791422
85 5 0.0037486953960761352816842615255023642577903584028714910691186948199829590223916947790307951868583199618709542927892442960127954118578232946134198630288075907824418887426345660605191207376157951985667374174533157025811389746618198012718792233235569986563691806304556564151266798469346191949847
85 6 -0.0044465597952166705295470271021448625044438497658069881079179867822400862871307827226556846257143609131548711796690393757512111248605589278803923903650661863222317933937460149944872433367248753830536621113667076111830815130334498486508413765987467467609187102172349652449765745482920516120166
85 7 0.0068401143487272351912975267060466534272166690112453031353369155956016305088219673797037840300194532216376753737283096707663309719980469556715669894508718520957213541342827830952588384867991749626179371522586075000736781433197398727491505248800688949031945199958061821235574221122316028628666
85 8 0.0016825917877771579671897871127858628821797562556780316399219333169097710696382839314957045869174990839705326390092484842453365155033031238399118154445034506322769140585487787554263524676357352919430212313475193102814292751628575340386800791210651198705685058610977496466302726227963808350265
85 9 -0.019895153720583603476539038450643444001197964399894299979269343395964415040631625428322807155701144573570192931587637033794636407582993264496187372433864068912612999175074876488686283197023989803506062714788500259624097503127261817944651932389272104654703180747709387530306600755824441521127
85 10 -0.014210532350744862516413698580014209014516064342310520348829797765650234131828324919804449528174340831810518011205196411859314688020000742734191541033280764720238162135520138009132883041506827678945153604362128766906778890844134383101540985132758799027461142293562074383799928621454652331221
86 1 0.015969308375183143275151105704617115661331083518016970546163881226111288904262894350958558262706420146313973377606092424177670696057558807680671657506919296526959601483849073392292297190833085952909446932460961373691804475886772511636147054681543805049551360206799016004519977357321805284513
86 2 0.02757763124833078762802435597151367326482703859469657704404350570817122062544061245914000475959750719818989428901747262297867703568321063191910559550145426422714163979038745081767705364465051272562397964116299408286702244515726096559831107306831159655440821707685005265778577140617485945484
86 3 0.044137989839439103256871447627878258247010395131250435287474263548506650950205510567541653435852643064886729146097000718597670271758711100462069435337735395384180149934415843155850695427391959338727243358584274754070372858553965160418936096557806782717050210862578890188268697604280500360329
86 4 -0.015731940606848515862073447628006261467444535801477435354446502995763135590640485916404896483431580715751348725077701447459202874360109870098206067064020406359550243139743115872331103941291522019108401671467549867368460324417568349932940557261084308305274016969745502288572042913638240926542
86 5 0.021453466652414729698961119227690738535137606682206215921683074584271569760350222052863846267358861263452659884685266588610423035431807391513513328608786457941477318047432393731277992810817294600384931307489591815637542272645242250757450355889562239695443584837253171281926099123648775208936
86 6 -0.010781525609566127722743335190586355222836894826075645428289409884360684526237192502314188426211403330147950125446339988823014707972779256646681792922072939963069414216186770390434573523391720197576963206936154834845755663805887726167846979425725228406888227888529463980287581884689925234292
86 7 0.022159969682400301856878636350224305146626818549148451038437512098024827952778643039514821573833069972519471804598881031287975176282575727209039119334608777658746070422870212168745843224066623373044861626691884188328314322958790772551685463689110529841801344834408454904745127587699235861227
86 8 0.0038199025635413300028758490835649745865386187803507833169409893102147379720663240276617835293237432390078091847088638973388783459213507526735188088430184686225756972334764829101215518377088702230704822470357049816721834365417927607825817966115953031844544970792266275767246073847414651836399
86 9 -0.082408664033303916338966426505032082014712550655261751899998119821887441729377886823131681686758480417595177202075291346884772569225948284790597496991298004373812852650205729555185395067840717250889530407529591974251748730338763577426923087741842514523730958487187922340978468295750959666015
86 10 -0.049427834998211017849778708970001536489900586929189448159606357316779598685576772283844967069432360584654765925007474082107230417879374884544833935361222081769783340489330484162360095933276547225881443424216667682292703156159356325543238924871862011057071668554635489740301799859332306657859
87 1 -0.0073791751271215240005991114907227664953336920331510092939567847580880262461092143674210064124812779167899178375631851732931786812435016739340808491487221813642401357223838613343272461791803760990591384544183864945554672085406845913256678094679420502637072759983796845326592706898906339914362
87 2 -0.0093521133054321368906349606734247399955622765719963540894738954289203542571167055660352219036002931347788717820290147907790591830742564973469736292422941695897417772975565750247131691876840262103378976280743736417435767165616689699038855710011613551042491300692045758939624735059406958528825
87 3 -0.030487664771181074265455289484915830234534906798139049055912492963634449862264478407360937265154460181540055500320129888997785223532778096817699508760967766431617516595699249698051891716750990621285019059827779215686878828014909013763882168164960796153094917662308554447112135657937282124122
87 4 -0.0047427434531630158979172136549736423647269436192487485528786373353880125032091046506220833705322515905191859178919495213838978786488045753723406960867919599144004244352097286061283950239358362320190684754361418868031499919241294366503493095511126197552363032673977071701789143607490863378972
87 5 -0.0087816422164197903586032377757560708394622856745345473747763555977258663899965086936435352976225012716162547417111535827703340750117686696267923549737917783802394598415676546690597862067223934409801532897113811878652296865620550440951204295137897080421855954456749493251601425256473835785468
87 6 0.017816229545679376563901901754671664189572207118743581289045315508645906856867734851870641979709787926116609422955342060851418554286027856389491353552985631821543467674240897844899794425358825374510850339597409301441177347628367012998184282850409084825504270716168152855451545875163150122924
87 7 -0.027106958769405075043673513129096109886052970212913398881668361022924852814819412251885825646904104466911383003805439064023296447870141506889646107537903847343291542902191820270483085083779347278201870233477603634223405163401175207839539446470714936670764071434185654625608288931104583778806
87 8 -0.012775062338628170614059893933075518882677980897320814902981799094225412898946926708714922462834947741652307508453722048098576885174161597487903226872051660747725047588367841248934846167363217071255122807552342345854917621951313631136262680531131583615779722323838669127912182432733925411047
87 9 0.084836651809907479496342962462730213742679826606504045836381892172651391091221988576757622088828273096168562025447626838716888534462972268495111623397251598974753341810660129694552239772332737748779937514395143053749237821621040126080434858653510569709079707037076034726259049234486267112545
87 10 0.070254001143013080539938010240131784197696413737120380435804595205243611248978211377073984410017929900259519751492918545847697099945398807603616599438883238652064406453271113228007359636755661440151092692796435721007944421976086354859729563078833804952294439111917444167286691245335190939075
88 1 0.001080345873203409437455631136377113106320011166399544602522890605547539564198377342205382503915227141435880855397138123785065191586993117232449938514175797039236173743459032177685125997489436889691197219186788238037678526685561034569056067024955559417597993921238247223582402942978217208086
88 2 0.0041898155963354867522926242482026942813949873132102457237449612610879313011903759598530942484684570749105585043419924128682742890152463217827886330245155873596181265403577770490882379059644746556539933622695715340688012256804217652512154933543281434911892590919779116338791353943871090766756
88 3 -0.0016347418281865125317043871706686695912435628896015740621353628697266990792040421641615409332828728961056076894644968217062792670516758202395807861650632930098310073572610043088382818668109066020880498473428942104337280088469877407307950959538875983975016787009983776815561757774808373542141
88 4 -0.0075911162553543466052760921884806725973399822346364369831326068049700462871407196333536528852349720575886811646194663052860934659935707204146399326407993123944372634179998884322148217572908914380607257818350207476578929016386003899094536401151095377465372084762499136171187248911275501615471
88 5 0.0024335007363620039973286541336785180961506419665044531692628725012372258622480928485283130931488969196675397041727902979760498527340362738898450368328875332133891998833570888601713334771545501285090865555719968941620726800961512292000677081570615724584441881199683637751450123132255389989159
88 6 0.0063257656079071977776700977846876924768003595699056110744997131277836583150737605283012255520087365913494981212524161626091572725769647001813428023921565193802448419300302988577929887873147993294981667581617878292613972828917005186030322315287946997131990070129129129385683075388427447053279
88 7 -0.0073717585410940407391421296861691673228629177882472776893930544128262583040530096373666199926453452021918797541093048639979911747084290771296303081394521563707516574833953941411595909111907129607563410363995638243716397361191862502880615369613525898341941592410496151803837826685210442561358
88 8 -0.0055316501813925691072901177743727578129520588678310517345556979216104150112017996021643807937911791316373979752028055271651460826406748246003176127166781505919116420585037063916334651068107018230689574374173012656582526538739240710059365077336713824662217547304134550359855107283386068664849
88 9 0.017910477297373003765230163073998556817785712432419775683581324287466537909637080468889296231198474333078378881754691275658236141808493772684536143229379766292063730147591930198721580126251978715130210476002504245027199707962062282536519424487575048239068595404861270493231840558745843188267
88 10 0.021211584950498667460606656131139883437149891293940147018362570424750488866571880684367311143162039722468481253332096457639050864499374881570325127728858964237690779151898761409224410516047806370111305086165335083674753632198826691694239252121013113374717419086279175361478555207413279848468
89 1 0.0060771590718678068703616194558654576562197363157347157614636406305956366317588203858793371173795401896305292793939678256490289389984776210500384433654231248187983036600397806388442084987446630232805473086570551233227986127518608423520161622814291121138732451536413511093687144729492363646397
89 2 0.0072552492169940241485232594643574503845702875998502548479655383846113909354097956272547818974906862252575541686263201700249777168942204347224579697160379082653851473026950525335653366031996915004902478373388401398576173727035474877652716334022482803728825665524637360684139058241280942524617
89 3 0.012715256040617796977394306191677354603348961005940996994612570735090554556104132206489518577147090713510425609947958724605635236401945286828888381424180072786405630965088476193400844078343139844088034332593018817555802785645932373870571043433797931095480520540849516305896762645971457164358
89 4 -0.0056530427338390113338993278529796071130438652940796945248215706466185480043899655317492032012879707124922166332294782833049843161214589163442241156948263449220501372246895488343727054193989602128610666931865899017274112253660360311624931257998321657568536728955747730245498083161936016699908
89 5 0.006485393878135103959247891514380829020608323346436502858983365938474484545908152485972842220208441155289472119561145620076945801047150989137423902955327756472742773163747145871297647210511042804814177756960094803444622534857628332050819300196142312784020485654032229583300085044075064154657
89 6 -0.0030285670454751378209406534387898199468165243186889425253465415503145094691593811834263847768784160965536220375853226966585379793846067141322645206485892660325636429913031702494258756913342480246320172259259124779539907071231305996681886758312130727522979999023008214270813695875293268282767
89 7 0.0062042651073947141095113737206215813152785550980980638637179345517989468304300325992018372276183177343416104559802047286991699004131212248343575441837430653057462282901926213907446205499157698585291744385641546594731110493320316923990666560145834162126708589664862297563170717991600736748453
89 8 0.00025143698540673336131908416812621729675185636862668402396619295409536561823656766779092971698766897704689844722154403257095013874187227793100991868113075353374864824226728229268626243513521619870313981399044339572669802721180526150949983760515174380107812085073723444708298174758324171338452
89 9 -0.021761063993134061177252278635750112079745042119062536824516927471848114131027763375419860874718323914151068950062317479291981670248484983064511217464261246665298206840150199170053964624107280812165322882681302616896601025065791216147876874679882874197739642915189516928445800111981541190516
89 10 -0.011814027288887443671083627623251948002560652884991092854962382641816617168249793861820704707562779673321829800409787066906082728055506671575249028407498076426548925999542937846095152293372016264355906982993885468923797792250956155353128901344443188982447368957971552914711208111313127325815
90 1 -0.012814321998185706110730544542286354525429004787034698823310247347315812017615474473632639727924407783933935154184898168528774817064865033398642292629669269831044216467707409815504917029052179138788291949323013892792966517025628358020989672636768151329396207788924793604045616544143351085664
90 2 -0.020200225719262108973586877672988135087110937935771662542255106538203301408507060662985932085572329165119016316057716783274694294851402106001088003981517243649168755910149092867669169146921069506570455533637823805869353875307444977155422026541561931308396859839730281969963406215141153400751
90 3 -0.03593319415321631372371513725105544883682868221992555950202462938716318181736083992236023466386871543194218529933749990020853590492469623123515210965712311501801149188292078651680876642467542657964823327110344835510887249792165773975071146507245587501364206218688695542708393579941838436963
90 4 0.010020150721932305379320519791903414470571822946906345337191448796805529253733051591858972295584427269245610910945963378454824337820474725509623857729291294483732168224909578650642672595616268463330966648477338074622392089508377891182971338152209780600269101562033631013505167946812541927022
90 5 -0.016351800216957084460401672613797375600288592736692601294788937686830748320090430503909430381075505099565520828915955308562483235937678222572152136657096196223511094201161369309962304350475780492596025697075486004020108048959498895543308126228067832886890090444219687105575352911151942101092
90 6 0.0109397977864177075941834484562680945520420731581238447613882671479935952485485621121870645811615888638135090125434172391460504676813313701367515561800192573633434058602514884420603712956189261468117869761252459490585599245857534302163406966261646621283959709783006390826323474621944440654
90 7 -0.0204654714837016296786862692906436398859032184297722523231519571217039299571022006791778475292594241989573974922842328419038539409837975737369196402239400635523117956819607093915627556979057323612001560195745146560272564370686315414821836733807701216363623292942496600492356465428667544621
90 8 -0.0049013476650610794488913539217530416613979713493533792676709642867855703238161004635262926069304130223078179505928742102459182091166677241416195526899358711679969410068499760019803056872866517650159361711560197344546096074388411117619570518721189394627208852469004383649040820212416915277519
90 9 0.072103479807146050295453479975893371303279136007445290708119772166029909827575671172835630912877197792081850459231505352371236963261994618167517874809116135010235804957625312993934040668032353581749866468982089120510011187079371393569146289554430596310504350173614889014116246611082623647645
90 10 0.04681906677396416484497238265575454772391597018509532231026419109684856644113378758087544638373051568711712278022996352220723681082675567284562689056304408225867776086839104575351988579430923353389994329786759808080700953108141019709750277408978281086215533126668889306081125866326001551263
91 1 -0.0049629195359897747202019951433024576725161897000740872802576087425510604643186284220763475578274169798287530071402641510729479940711541553935913790516697078758262858310024837336664723313822747060081569372153089105726188472432185188579974319983577071717837318527534242385990312787874292606867
91 2 -0.0037308337758507399129845762456124184623173522119487168788548252574659301127169875043969513532101652999360084799794829778217431708835849531579732754103945028920924071933186081728995935061029720374129883486145772817994448405076062322333084820283744712730942260608635414022917839322102396558998
91 3 -0.0044646813779038280312108800747022589117610648318278904142188514415359755061695203371807091527718161922735895891704660240251346334198676699327856076481108976551003653176262003016394633556882601147976949569429841976046340163723963741602181214410443378163323907474254606568325950071137474463514
91 4 0.0069238581867173348642175208820253435326134352917720710719990948917105666068888624507151106468382769542550098682299732353057358276067479521098633577761894381946981660788600565095162072431039797481527819028201300431099717741572894697846711320577705327046580452805925844511979658995224925996893
91 5 -0.0040076643740095009624523701272801825927290094093436811606459521281081976542504732040835876783057808617718323125202584257576845454431001325871651911039342203326121590728414147519938417772268025262469306213751298879346388415061620170424246651331320377394779657721261517260638687333684169524531
91 6 -0.0012527415666176883220215606510117996111153279099295085710320355332835246491862749595819889211400226430743400855542365613769206825897271022224717933062159750469087008147948237894790389385629222580153881137516654555556037474709743211297493992853832117208887918756752924657392414243911298413015
91 7 0.00060111593763044131590262828552983245097290625800806461819706788083850095813019918152240831444035376501100519070837784864570271020258721113659841142030148654700893974750393031815918859787450333940237726475733045971672495029996030189606049321963628448467853579423327162243068653999297881792315
91 8 0.0032694388590567179282377212232758003226415349312389494131886590165153535063395420674968990534133120263488747039349982476817334987546815388820631729857152219278348645485770757907208690432102484710297117297725567368057025530498362563783590655484537094663119858738773161677794301622931064924957
91 9 -0.0011126538243907050752438738251005850297134919546564001285708694145771154055480865239612259042684107623147720587806512875627701028921069432011054985722149068172223400651046964282575219296051463256949656118502010572189020334503515096984049427162179700281380369260668208996791520315672292363002
91 10 -0.0069795531980039008660624245906923673084670046030969611176682002638024631140995097505014990325623496245447649253222300234601940831186447174674257262990841311378612268433063393243029933576126509121883576301994930989438654916431572416161516497057461407204295118904998926251674118065755820167503
92 1 0.0096644123213467801246769226965552169104070561585679878573914123760770572941774448231840815820768923243953814030825789187353170466559699813106392578343179227409868130292918449517067029681583009112988343820516236854428012643504770673824300345426340973239367483944960390356894493882423396760209
92 2 0.012409022234832132855666668980409509960078822748660597013648879264253879590322207152200325753203468927053300748734636147110437544421568188899081724815259091644545944618478512871265966406406949921330971708976430685149199824115496484996700703783409386389584999630598893965054753483559153257679
92 3 0.031363557297669092469033780028929295874470106302777142341828650790357283414790572405547394201959429833279459191724658550741536029779313515174306779402903419751397581360165394712636349286453727322266806266430745979716114281986786525311959664680550784316142418061190541007559520725715156847042
92 4 -0.0010535347827430021381825091651689398045651681461054411547834535686467179459951134644753143099858967515027928653303968592332812026898964901457619519300516670547939974013280644040373718992823551742440261700754807495937346883500650131308752550351598283214008540417492638009555624290799334434066
92 5 0.011281091260494724188483860579397640445984899488232387207624872270279224290285434061021957258651390888934527515962605541672163607062992438323287249017003807196249735773523909197093301436926550678302624994929284262328560193040154403005752562503348602984589921354493461296798888883830587458937
92 6 -0.014427940422230065269602832778846392397564202024399623057875902176391393738483673999020046159885356372888575616450467131038340323493214130694283865874976158426294524496424150346495195168901956130991421598202916099688888358790160567627148733342219041337301615438637093534879846222519068410406
92 7 0.023543937761446247895229350031462080930999710670520724794472764030263858519596559473590347046329008662573601473001782410197635544447072239166962219231002900882834636996495087975111739570510578487873750788024203025967279689086321690981395578116252073675633398272921117826524856052414048084594
92 8 0.0091194192661645148963186470320711556166371630592027413416602501954705147409910065689650957069679949191538288857161488585422249611637043159123125053999720667234095461606986298271365168715948313527813075222843524137451712867823715606377421000583168518806826406157462445949102617479536456090486
92 9 -0.076491909078318773963660550747604428076452297837870622553555468860845448071589444142500110628948070946180745714513585498268605848774909806388253580818507507819028408340880564717510822179253712172453934897135833505293110103956448524585722774153614555762365088137940309571598191987301776118698
92 10 -0.058256284550471024024847596207210027779265173287369864079163820637008457188170527347506515783719378877200092531087271400327395955196370608896321064112734758911637862195276237756931276951782103548027528271586456503043844243085373780735798301708925000833016171441234908768261693167260721554158
93 1 -0.0025540127049515391368176052715474285264592833237668854579253625373182213135726950402539736167028389888398812862773173854836151566676062731245562353722632935892802670221429103030292616739045321860410342627803879558355684467651565456032637218194389313385988927997238839842699215555971743569118
93 2 -0.0086963953917750637683358039757849773290022525665391683020049335728988339440827152120492932127536035708843911621818531682223223245504751792570339124064642196863915176657342527645379393751441842486900095789629121653708317251000595419630683013308653400801452005980758468486307530891944226260037
93 3 -0.013059963983806841458024890650778978620326946930459609534589793895880103539028670002296938990983265301227834713849390229747283900282824283371221521911876014369901682469610270766827007124135658749015993377075641073329397194879597369102271727798325545927427761042096264102783852424327051399949
93 4 0.0024642497156629027062908827098527906805811698603152294595291190246856958759950617256799010822918714453696976062889781119697831912702829269268028126483912148003578074387864202052604722947810401244663088529321450144137247904111137586129139398713125318321648225396464550248412237422985798602099
93 5 -0.0057204668413677915561039235144889540105091629156067474070603834009954943971136628314409521370135626715242461509031107526323442635849770263097496702892392803245035336388069826502704719916552551461206287962370249202017438064120778524167412580939952411596413474144561978330051950671217405678021
93 6 0.0037980420829823085556132509298793602819944438057363005021954335450742512311963507660306901589009881057348867734095758571087749963615419915689402066015362218729167763094160817084804086882538572635247308259750623985726685958907789239220969275935662698055456415918915025130904762445969820289919
93 7 -0.0074029078078012186492562260791435303816632520102602959885898881702183276846736199647094430333270636445433027706142725185720687511589789771811574152801103467290711118798146064731973496786089990370784701041182041840135854209069200777260958748039528198012034899465368515831230564904323927066589
93 8 -0.0027635739260705434596150103694922608240129668651960810751146397181593500225555440058705915395187049265329693612929941430868811188032225593687867958450585063473151554527945842185894588486235161617025744276124668090554271971111175004121507236473285069879949762697577087687961964811922928701224
93 9 0.028264239068774470284734278942963315016874915469710303317615788221477229297441688194672023719488721766755012620492336972795184485451911187733889636956741881721258755607178477609178662644647221961574982005723956326696538569371849311355017330757985693427338352247626103839171152853071129559947
93 10 0.019534273474851104452450912235154837679069413578314166908619218082242215513429551691156765419007615940287064209593055757143749300445750679002341388966561807445971992980510792626598542750680518278998459944284295577904610114696740862852084361048520099599231238560823326170110715849749520046559
94 1 -0.0099453684553464948533846315544519492678353881175345275324756247476100288046160287059808845411075419461219787925781872760013691474898586281713222673262337255281320279076406759787503348442253396801772260282941052650844349745111413178819011583663074030085668206665683860725064868847029343024989
94 2 -0.0066451656565180554865835953615981704482737547844506116292696376099672219911020470221958518753056038491734874222179940602461368889778138030911341046598041613645929326159580168250271708689555213814940294147805499982739045493793920469810215880230000715278780983715984751722510882533538174679478
94 3 -0.041902864879406566703425489580696208429549003473905357042947701926500940123908712881801781154860444808367025490295351095790561082444478200164419639460728858752707370578411394796862818841500266929439008021573395625727016702757243792549395038225765622891588964767774124754412080215518439893718
94 4 -0.01395814996377397451060615624506610470198435820829195575922961227356180604096290138125664805059228697722665409144725318406629113418951541928217129146763349620193582553127214775187912191131010609370665646605670983033698919125920328723649692375207197757213597823997889672155232159670603588951
94 5 -0.0089679320346067840534692081002598640634770086289717718542448856411747243861337238127106879383426515307124225643739609937241910849707804296717932490541543754796534605216252471673962405147292034306659986198134957619359299607948822971550180439714170003646577613971552890679612439130771109858799
94 6 0.030655295865699699467397879891570881223364040036930339230929952566033728954260764743033692443349576331596844524946593893647732484351158348261354549996734418653482721434600005072659713028203813316817402094423264290612884665884419798774303856819910840073371442602526521712460567441226125879043
94 7 -0.043954463496443860052188482819236017237324768002588988863869862591966023817351079322573065048832678058344415712739513904743011664018161993614074271131457007533559247798639645298196471135282022972282967070395267598762758947454703259341332534766345158943385634638448594227920034189623093840879
94 8 -0.02233726164545654046267839494545721289748900288413060766304828956902023541277852460743669215462197365679137169312939144744040927347349244756943383707841380294019791078557107985886660304530585488876122098737153142742049403678818905308982144678034470836237172724407819409297525636508843769542
94 9 0.13023199172101497553294541806344043267185303306419125416359775623046044048605021142103305403129427296433546828731000570296094247361773496232271007851072277960331500782263054023597502902442395526703099030635589933130327247838927393388788058211610742397096488878712744151998960454551398314303
94 10 0.11446166548984135482999522775370010161765593360491949361257810896687056713373053887028762530295559832360756979669731555444631686471872692719592779411062527902386210546746253079438502283805728233999537725133685960344299198349478144356860977224456746343665358274017473981086047229323820867727
95 1 -0.0056011381934291661192450084785407542899300730929356693247726639536450695696163973677411071771617360910534464836612933340529771584545373707432112438924430412063318546610428558512884197975567327916246655352744148581989808574656959974759930373878132819255350958958543537454687826163743327922369
95 2 -0.0046197905344091830387770800832689956675438094921874958485503937977818214237618611854528327026051257817703282831024943224582686890101381362739923473006205844058984945505884381632761448766038297373395111697165005265927798105097465254305231972989792424155453475486766143742044184119074915764097
95 3 -0.019121792774074199285751397700132710524158734163007426459414900334676031380215386985330565115360050864028739412042193790805731479316654031069127285222291867058384406750231491494773858852890347121562574724801860784727487902852075851321800441199108064305726769122000584613097569593679726714893
95 4 -0.0031294764171646237451640812736148825620105964588985717219889365898682464049575775770173519742135385701842707327015324156894588644306944803318029502641486727659018297092195813802111228506885753289768335188974595497233609957089590748596860437437386809326715974805233180376087509395405829259571
95 5 -0.0053180462936767974818357595343124136194141505015020349187614291470714884371614019912681829631140819907504320609127179651359254793985427383118102644045105950507658884874297601831363343687946155538398900130969729735899877100632524311701555505851740498467239951727222782064003146469371190844658
95 6 0.011790395070755652836090625623221576839902764542588834569473424385474847560116739026304948814046644980709112078399562400585279185028212391310491734701457358129930433723725401487076189913308347512120041882252699836787416076576283276845239190419680662891437337646936217673890216714750551561595
95 7 -0.017611783414320444180805801296938641443417127312765450333904360339025942372384113266647581482958796272071897849771950463605668326367046755832343996462513112546989191989673290645184647106585246731211577543049836370340085775864176625633839145233946381599638152480720071242475139427405170845158
95 8 -0.0079851243942059213680461591690795993649440640291703644690470298081531021651064516731458457910581884850653338887592207656492408843462613189858194394311957773765248015165289311631494028930090034877274669386579335506882713274068997982026867613851920351040068201289812161968618955624236887546681
95 9 0.053513360331470769530818505983178787636113621546207393261316666601448597724927532113754504252824123819563945089331544560701585023872386174916720038289657269418685438327903172866826734051675253054118733801671151904055086843199881713629301884107890462844884866741789693495124760836685248970137
95 10 0.044519363703691779709339928423878699832919030993400787076854683551563923558054506767911527592205566415739174115354679103279740634185601593062270664349698020956917252852203932805204862177168853683522754117823998702108161447330839854985131371103247566765434711232462776840535278306529851772003
96 1 -0.0034820316315619299316773957284233099797677383445656203876156525571834961917042031879356062650262024551157478012762488022327738498852122504050504952220590845599565517017413085201091660456935622820333433331146989497745529806490055603503953028722515473710117952560313388926735213618533219788142
96 2 -0.0010591066785011858980796906395261406518072551683508693949041278321270222611885904638359985736942296150054705555791548147857650976620526858518612386176776377844678389643228563826885637213116686253938627712679476725321331403386164888522059840139701301688445645035763550497870207859471270541754
96 3 -0.0080836910913072156448969889026033813839302018433877462435380919353442067795237557681305990638624656524512502245575174910053146527821102441131266912609602075075840881393337899393457449087511036693425330545966683344576038358853530888974410806544314903331041793558139336422967516933816633269391
96 4 -0.00088799594634439051279786680742923219572679039007037009249174715626489835320302758421917722889849853627303202525282984161644816945101035698335106876007273458395802824197240037097192064089688285001527587431313723553479995641619598339698936965497448344763051215217576462253921552955518628764969
96 5 -0.0023111923354108364714374474232951586194348742827621839538408696598799019909304679941105400480942084052897015603020338619215509009583120559553098681036352744955047333426132005990542170262853303632197689507669926827061474720754784751640103769140548080902350822233688962097213870529524588343577
96 6 0.0052255638496338849046620278129764387297460462875538968666817528701938676949043333281265851711373335114860957184350598862662851406961894828555421720656798513598996306623511736700084244920237667332370108131378944119688059671810606474313572111383405867096843216244254089741382190230616063061239
96 7 -0.0076568828974287473146971240520804533876586524682454972260559602549152992139522242474982166633278918637594253261632229276555365798867689789463856036105325904485570515394002729395812028334274770452135917158641491108371325050524528244781304359457744365257605637906305895416562540742898591998506
96 8 -0.0029859672904687910171884428174032396597555570766029334744337743265268571937069040966517377237683834444368132534785855569437187994570409154613049689764664537318494958074299220416367526586572021649204237131328889516746370436667851619337537676833708694485234180495171381373218986287013901544038
96 9 0.021853730911586205608340608383235477737834562444548039864478288769426375266827879723074034092592198128050590023622390759334300239796850363732490852638797903411823964246600972347505449884521747082110528419345158524620291551829103351673352280772014970838842373976960327911110915174560191177876
96 10 0.017927586323509856232118943152613024651308273001959571654674960789881195545451644278465150994918692119118223029264160797922715101357980454329977225774361921720526414050870377193952749583730747116129638888626725674912921437784198516097958777716610010144721167583329606651875210058342202691407
97 1 -0.0035772257564989953952307573397480335988390226142571743194842724456343188712375694650923115753729980027856938563820624907226544722357464017214957397147507657807097294759831084557011197744382928812229515956298555447215278123745942356271544030614838927615470694001538736120326987699574847857844
97 2 -0.0010928042055215979223858023363845451066556835137511328768183480023009571355986419339825663936721257156376773050508640909710854396444291603123840757966462690235044873686337060769926950292838757548466173960814390961179954894553654833118356707840745609203013702931287478794961749845109157284024
97 3 -0.017706202386010237844314711352783209765149415813768469669684069064694652022049964884035762488178261615246885267173671640700387028346531135913139656844204684373736274845706142860141869903923219874861487463384921419350858478522191031165016139614121303273565399532035370645622954359344360185764
97 4 -0.0088293712174860600288693403049059815474067782575349036095619706334989262896407496203713313338266604787623561431059511712816007798485456769002700139081994387547606323279598483343081889647705008555237547474133408258652184035834049155032957782835619311796124668767003145759235261595949344101684
97 5 -0.0026008094191896736623227044415048822306721625471164092097466500275639944796603638763395473778383843644052520026521499834876814178553834078299864157611284321721569576615343425398448866139833153904592001388161910295661866492120288065290659994730897351622081785849557456992948049887539836037142
97 6 0.015375516752615348293892971620557717691992087023265235165029785802460567911225252092616000167195492711581837215511239096398761720831315991627417352200758623538192600984642289904742104527266616909513968327746195548213864252161996807811068709371870366242784264694153938553904506087597617530032
97 7 -0.021113177777362007123258273469562260042034802380685050934462733355108981907296889587376605806049724120132371502198080354315934202370627647756279001858347643537198885814443324106461044782572202419560345201986204455824136165421083934227992510788393267519810867980554440538622905890511083488522
97 8 -0.011465319960982050743244384116077698643172410463878547539584641461484715438930226190577321651775846937543267651133711118865637402442325592788339162853427230132358799922534121218684491942612753791984863994623945392011410778090577860669978603678691750770094603336840793188373116336633869024235
97 9 0.060564962506467614647114233987630354930886920436746128474247764980716768402766179791564227399117955322005543219920170827356305079567858612850102688145008002780343929109477850536126082706630941073430121956910216858036604799507049429756136321541696933880384266803895926810512605076976177958119
97 10 0.055689479747007197685438840254969826159555429887303805439492222845372960777699860094744839953779859926785507076354156786923703135894354852439413490202059053517576114619814241495854425128263334572717986814810998669069409057662425633759800532593174700370648397358814050592456294080398713110195
98 1 -0.0054871299738174671221827959902765035520039692141311323430142724747690319187545711630010838312183866087198988126800628867419932846563713299704716204100938253595028923982232328014792264895110494572059246418418345456394759945716245541676175293273952273284479320555634581447047225846628747830763
98 2 -0.0073210589737595148008525418254074961611678354829964222863466079907620450911907726616512640676817687143882943651352490740984082404414989299896389149157157868503520824057453657907721022021777177245462911119661541584312521092041501092049860158078756505476313388912465493502995018277401165928877
98 3 -0.0071424386409260459323452135371083093056293677995943154516835953594880389191769051260147249664378810801086595817985509097001372342434190039241851731443713542734309781892791193775882741713826152148727580689325571852625352046076173439689737093984916196932216468438314696924373494276881366377025
98 4 0.009395607449958910334605933101352600411279906817232080100867382797130808079301961721626481116595073637990419040522286590045735330892772837920458923622226413333458029099664309500893944882323404536858335370068479766011481337109157929603348908873010135879040497774921728880402518712520899219485
98 5 -0.0060099054159766428090989703088009151581616287230249627855014189414140451634576384658243974248092628983384988392990522199373314191619598210686547160242604347778145936465178216968862928951650910785900179760142843156764766767058141868455021553225587665625613454704389766465190125313774766938643
98 6 -0.0018029903838104344938424999952630142051620718229284114183279117924659361931075299422433250682240555738698628010692872046543345487557443640018239634651891904648262807868574932732344794297503774003594603803384368549108878013778461390122468048877638076083679695202276909186930918072655829612724
98 7 0.00061798168240365542816214831269841565257643250703252353989301248896824061484810750630130143097480228175584998789323886223691284951283718830940944925789296850326708455036974732593230078055250207873035366344477948671231941050910416020878184200496224103890111751818161665391764402174701343477793
98 8 0.0038444853289010125212879935015672106581028049424887576272364102401921628598534714046638178854483808576501042430743039051763431738047521238955896944375442913215650768925847418918706774307029081596816406315769604385340381024798162494517041914668516389133573854567990975578484727609443674923492
98 9 0.0012488667440245672320759799326226653904419391466158936425136664654645352727917918665732876210139506399495671021730020884483179633578310516467892858068895442679758178885931664230475935890052808281187083479736050872206871743673740803395107261561217344093304471980321433695877720806795077094229
98 10 -0.0073295107968300741112650146552979675430568801555355985208634170866530356087363987802526363851109670763644426780795876093313140674461372200050029444429826488667982543738651830105425999476005761694851810416102890755498927501564003240595723871124577860595080357097457334601866909108938864024631
99 1 0.003441005353166686993820353446108752986933972333955480574354362581216357369876009065155915545839658999534838221323523782371346718131275444476557317467110494443078579228499427712189980278322951350422258885259780862796385248547139090944951265365652594546270611644110176766381831539220230231272
99 2 0.0050192988166384636818881145325708603969223408916293973843315916454052941546866472563364971910802897275033471859293662464354027931870603992019877510659972030815957416777832571543422287926612059504197255542460314617666680974084169677269126035572305584189009041693725799097499614216086573788323
99 3 0.0059552707751864444258285829106413911813948139496693696241036766864096551167718162046261155376142995903006880287862811311845413637012865842260272356181369313672769849173908471292284710201295462995027572844068732429893445379558394879924011361299579052895099738799756435321823746823093620756828
99 4 -0.0055388718259030435065901053213865158767154029168056636374274935934494800675580223676607561575755530548222319818744456705472532403277350751402759816935467614714584092013018730771628438721509073776733548440166528095256968882990838228278674391876242081021061075905245664759994547590117797054684
99 5 0.0041963639783864938734554442064705113963735893431326141784182280343206127130557405099488972102362556416826410025829810783983351817973493311239762710946513566479405489844044368618626059641289900020204484925689386479521516722975963111528977633872111906778026139205744756295874727783092919241576
99 6 0.0012611390929448663390161135046638778187904060007505850761135091812514314458967089799769224267579643416588251055632811658398609832979728141442170333574609770803710532042413222220702831577300872310859664346833448198139134510443331462462605412146521469480590117790302357220441080404224476555642
99 7 0.00014930525275936925030261351454509498893748629318267446740092086437304519497028332011571324547669908014725469595732460605039902142771471160998416719126816215189064027830099248413003563272522289388874229089973527470171714119800448444277919802936104256544722149676612800087751438670152716525139
99 8 -0.0019858602678036914732616586353399954683965830818020721672600769406013985382657955244675701158122276281758070251438301231108540744462527611596219984767907682469406836886837523810129961080056342414456423972640961518051883440951789487682304161408501526716019695153998649381465039525722313631173
99 9 -0.0045787702227421954211861738982202883849374690418522663849525462007787803823195496682514300400996082836607638488380741306411740401506539650044519813407624222651199953412126338329225636746893175850098216773453830476668913256602782103176769318726171802345695146294782198090752781666842698749668
99 10 0.0020320741364763643040212429505440426207826997794605528126291760557672410283407872015858208119358615826806084993426367908615550730545282672324354728084701075732948200274985831502318693266797789974349644867654194074087847919848360061468668236452041386279480003980157782549416570870436002476023
100 1 -0.0084909340372117853174931134407257776709923604024591838497238809830543998536332403663183967094822053119369482513177239791201162695817185946311248612175133502480961271846725780055930783567365772583252812470404966592411687570433249503914891086491705631711698751732837953384634644416737594936211
100 2 -0.0087730850494695965193015938409869360368623483404005039526275307625484597336697895396321324263212936233608994542820745477844232071799693471510863759390694815018770523227119544623831427863863290720338009308111881455233204387122451157135528048484877809814238632063634016961051416006445151187566
100 3 -0.029733916498003999660043110298817230350076929993665888907969200302715939789064881411323799413077758336327321179399284004409251853488480463272676602713618475220924070766681915248539358900451580082880890563900499233712344494567475067305551075020296440745460904860887670037793262318870563698132
100 4 -0.0035323898054606754154154485654901911162936464768400256396287955406209123094653460161075655079557370423416723714180837223988740295184671639526715489682770258549056487240194337391566547872718522637917587428716618663028186277827964928228245365530567605606389768529381718799706336821557185226209
100 5 -0.0088266244289170210357588522565216903952721827585683108286221160765972314594299767226140887694608790637878852287104552269421211187449612542114603078534817581196013966552724718654895579912248388082483236227051184651904664112708740255899573209571001445568526223884719690629976172513856484181882
100 6 0.017607756077214494281221061176744566266006072549948494844348790530937114524572867594610732135773988576932500332543093391893226661583849458098571437739865896841784901266285802087149302350606066065133475340072965377038415932455903002107007224623186792410747244190009380416321746412255567985637
100 7 -0.026428873355914164473819663253101522315094066322093648552805113231644745734091124548044839143848052570826831632279885613436757376017617368295686115237628905397789733102572569777860090016710919602420543929374070979643643545238179189649292753962905110276049794124825586585624774614614085899466
100 8 -0.011756307225981780320047033397907672502862946859467933269439197241409392071411296972321920537102868574583687013181898280224432491332751166058272357920437260373066786625939081361127477723968226992595181386218022830143862338490680240875243957581879815761887314952965408008212978521162942235485
100 9 0.081074428670667071725136053644529055168343125738329669346059619899276220350733111764213740754540202660542141399051942264420666394062310222369929695875879488696463738571277272707547129628627717852560236687295442575437465133235360329313528628791826447554185961227834893502966890875512371686646
100 10 0.066606315992307270008477041860287069830368854714058379947984603285101146972882578919140257668617328412503935395172249883310299451384549806666759842632269120137099434487350762611610955880681573200233343859073754310333982309986967323809685983365745814249946208044319624756718736491201847150201
